p cnf 165 6177
65 66 67 68 69 70 71 72 73 74 75 76 77 78 79 80 81 82 83 84 85 86 87 88 89 90 91 92 93 94 95 96 97 98 99 100 101 102 103 104 0
-65 -66 0
-65 -67 0
-65 -68 0
-65 -69 0
-65 -70 0
-65 -71 0
-65 -72 0
-65 -73 0
-65 -74 0
-65 -75 0
-65 -76 0
-65 -77 0
-65 -78 0
-65 -79 0
-65 -80 0
-65 -81 0
-65 -82 0
-65 -83 0
-65 -84 0
-65 -85 0
-65 -86 0
-65 -87 0
-65 -88 0
-65 -89 0
-65 -90 0
-65 -91 0
-65 -92 0
-65 -93 0
-65 -94 0
-65 -95 0
-65 -96 0
-65 -97 0
-65 -98 0
-65 -99 0
-65 -100 0
-65 -101 0
-65 -102 0
-65 -103 0
-65 -104 0
-66 -67 0
-66 -68 0
-66 -69 0
-66 -70 0
-66 -71 0
-66 -72 0
-66 -73 0
-66 -74 0
-66 -75 0
-66 -76 0
-66 -77 0
-66 -78 0
-66 -79 0
-66 -80 0
-66 -81 0
-66 -82 0
-66 -83 0
-66 -84 0
-66 -85 0
-66 -86 0
-66 -87 0
-66 -88 0
-66 -89 0
-66 -90 0
-66 -91 0
-66 -92 0
-66 -93 0
-66 -94 0
-66 -95 0
-66 -96 0
-66 -97 0
-66 -98 0
-66 -99 0
-66 -100 0
-66 -101 0
-66 -102 0
-66 -103 0
-66 -104 0
-67 -68 0
-67 -69 0
-67 -70 0
-67 -71 0
-67 -72 0
-67 -73 0
-67 -74 0
-67 -75 0
-67 -76 0
-67 -77 0
-67 -78 0
-67 -79 0
-67 -80 0
-67 -81 0
-67 -82 0
-67 -83 0
-67 -84 0
-67 -85 0
-67 -86 0
-67 -87 0
-67 -88 0
-67 -89 0
-67 -90 0
-67 -91 0
-67 -92 0
-67 -93 0
-67 -94 0
-67 -95 0
-67 -96 0
-67 -97 0
-67 -98 0
-67 -99 0
-67 -100 0
-67 -101 0
-67 -102 0
-67 -103 0
-67 -104 0
-68 -69 0
-68 -70 0
-68 -71 0
-68 -72 0
-68 -73 0
-68 -74 0
-68 -75 0
-68 -76 0
-68 -77 0
-68 -78 0
-68 -79 0
-68 -80 0
-68 -81 0
-68 -82 0
-68 -83 0
-68 -84 0
-68 -85 0
-68 -86 0
-68 -87 0
-68 -88 0
-68 -89 0
-68 -90 0
-68 -91 0
-68 -92 0
-68 -93 0
-68 -94 0
-68 -95 0
-68 -96 0
-68 -97 0
-68 -98 0
-68 -99 0
-68 -100 0
-68 -101 0
-68 -102 0
-68 -103 0
-68 -104 0
-69 -70 0
-69 -71 0
-69 -72 0
-69 -73 0
-69 -74 0
-69 -75 0
-69 -76 0
-69 -77 0
-69 -78 0
-69 -79 0
-69 -80 0
-69 -81 0
-69 -82 0
-69 -83 0
-69 -84 0
-69 -85 0
-69 -86 0
-69 -87 0
-69 -88 0
-69 -89 0
-69 -90 0
-69 -91 0
-69 -92 0
-69 -93 0
-69 -94 0
-69 -95 0
-69 -96 0
-69 -97 0
-69 -98 0
-69 -99 0
-69 -100 0
-69 -101 0
-69 -102 0
-69 -103 0
-69 -104 0
-70 -71 0
-70 -72 0
-70 -73 0
-70 -74 0
-70 -75 0
-70 -76 0
-70 -77 0
-70 -78 0
-70 -79 0
-70 -80 0
-70 -81 0
-70 -82 0
-70 -83 0
-70 -84 0
-70 -85 0
-70 -86 0
-70 -87 0
-70 -88 0
-70 -89 0
-70 -90 0
-70 -91 0
-70 -92 0
-70 -93 0
-70 -94 0
-70 -95 0
-70 -96 0
-70 -97 0
-70 -98 0
-70 -99 0
-70 -100 0
-70 -101 0
-70 -102 0
-70 -103 0
-70 -104 0
-71 -72 0
-71 -73 0
-71 -74 0
-71 -75 0
-71 -76 0
-71 -77 0
-71 -78 0
-71 -79 0
-71 -80 0
-71 -81 0
-71 -82 0
-71 -83 0
-71 -84 0
-71 -85 0
-71 -86 0
-71 -87 0
-71 -88 0
-71 -89 0
-71 -90 0
-71 -91 0
-71 -92 0
-71 -93 0
-71 -94 0
-71 -95 0
-71 -96 0
-71 -97 0
-71 -98 0
-71 -99 0
-71 -100 0
-71 -101 0
-71 -102 0
-71 -103 0
-71 -104 0
-72 -73 0
-72 -74 0
-72 -75 0
-72 -76 0
-72 -77 0
-72 -78 0
-72 -79 0
-72 -80 0
-72 -81 0
-72 -82 0
-72 -83 0
-72 -84 0
-72 -85 0
-72 -86 0
-72 -87 0
-72 -88 0
-72 -89 0
-72 -90 0
-72 -91 0
-72 -92 0
-72 -93 0
-72 -94 0
-72 -95 0
-72 -96 0
-72 -97 0
-72 -98 0
-72 -99 0
-72 -100 0
-72 -101 0
-72 -102 0
-72 -103 0
-72 -104 0
-73 -74 0
-73 -75 0
-73 -76 0
-73 -77 0
-73 -78 0
-73 -79 0
-73 -80 0
-73 -81 0
-73 -82 0
-73 -83 0
-73 -84 0
-73 -85 0
-73 -86 0
-73 -87 0
-73 -88 0
-73 -89 0
-73 -90 0
-73 -91 0
-73 -92 0
-73 -93 0
-73 -94 0
-73 -95 0
-73 -96 0
-73 -97 0
-73 -98 0
-73 -99 0
-73 -100 0
-73 -101 0
-73 -102 0
-73 -103 0
-73 -104 0
-74 -75 0
-74 -76 0
-74 -77 0
-74 -78 0
-74 -79 0
-74 -80 0
-74 -81 0
-74 -82 0
-74 -83 0
-74 -84 0
-74 -85 0
-74 -86 0
-74 -87 0
-74 -88 0
-74 -89 0
-74 -90 0
-74 -91 0
-74 -92 0
-74 -93 0
-74 -94 0
-74 -95 0
-74 -96 0
-74 -97 0
-74 -98 0
-74 -99 0
-74 -100 0
-74 -101 0
-74 -102 0
-74 -103 0
-74 -104 0
-75 -76 0
-75 -77 0
-75 -78 0
-75 -79 0
-75 -80 0
-75 -81 0
-75 -82 0
-75 -83 0
-75 -84 0
-75 -85 0
-75 -86 0
-75 -87 0
-75 -88 0
-75 -89 0
-75 -90 0
-75 -91 0
-75 -92 0
-75 -93 0
-75 -94 0
-75 -95 0
-75 -96 0
-75 -97 0
-75 -98 0
-75 -99 0
-75 -100 0
-75 -101 0
-75 -102 0
-75 -103 0
-75 -104 0
-76 -77 0
-76 -78 0
-76 -79 0
-76 -80 0
-76 -81 0
-76 -82 0
-76 -83 0
-76 -84 0
-76 -85 0
-76 -86 0
-76 -87 0
-76 -88 0
-76 -89 0
-76 -90 0
-76 -91 0
-76 -92 0
-76 -93 0
-76 -94 0
-76 -95 0
-76 -96 0
-76 -97 0
-76 -98 0
-76 -99 0
-76 -100 0
-76 -101 0
-76 -102 0
-76 -103 0
-76 -104 0
-77 -78 0
-77 -79 0
-77 -80 0
-77 -81 0
-77 -82 0
-77 -83 0
-77 -84 0
-77 -85 0
-77 -86 0
-77 -87 0
-77 -88 0
-77 -89 0
-77 -90 0
-77 -91 0
-77 -92 0
-77 -93 0
-77 -94 0
-77 -95 0
-77 -96 0
-77 -97 0
-77 -98 0
-77 -99 0
-77 -100 0
-77 -101 0
-77 -102 0
-77 -103 0
-77 -104 0
-78 -79 0
-78 -80 0
-78 -81 0
-78 -82 0
-78 -83 0
-78 -84 0
-78 -85 0
-78 -86 0
-78 -87 0
-78 -88 0
-78 -89 0
-78 -90 0
-78 -91 0
-78 -92 0
-78 -93 0
-78 -94 0
-78 -95 0
-78 -96 0
-78 -97 0
-78 -98 0
-78 -99 0
-78 -100 0
-78 -101 0
-78 -102 0
-78 -103 0
-78 -104 0
-79 -80 0
-79 -81 0
-79 -82 0
-79 -83 0
-79 -84 0
-79 -85 0
-79 -86 0
-79 -87 0
-79 -88 0
-79 -89 0
-79 -90 0
-79 -91 0
-79 -92 0
-79 -93 0
-79 -94 0
-79 -95 0
-79 -96 0
-79 -97 0
-79 -98 0
-79 -99 0
-79 -100 0
-79 -101 0
-79 -102 0
-79 -103 0
-79 -104 0
-80 -81 0
-80 -82 0
-80 -83 0
-80 -84 0
-80 -85 0
-80 -86 0
-80 -87 0
-80 -88 0
-80 -89 0
-80 -90 0
-80 -91 0
-80 -92 0
-80 -93 0
-80 -94 0
-80 -95 0
-80 -96 0
-80 -97 0
-80 -98 0
-80 -99 0
-80 -100 0
-80 -101 0
-80 -102 0
-80 -103 0
-80 -104 0
-81 -82 0
-81 -83 0
-81 -84 0
-81 -85 0
-81 -86 0
-81 -87 0
-81 -88 0
-81 -89 0
-81 -90 0
-81 -91 0
-81 -92 0
-81 -93 0
-81 -94 0
-81 -95 0
-81 -96 0
-81 -97 0
-81 -98 0
-81 -99 0
-81 -100 0
-81 -101 0
-81 -102 0
-81 -103 0
-81 -104 0
-82 -83 0
-82 -84 0
-82 -85 0
-82 -86 0
-82 -87 0
-82 -88 0
-82 -89 0
-82 -90 0
-82 -91 0
-82 -92 0
-82 -93 0
-82 -94 0
-82 -95 0
-82 -96 0
-82 -97 0
-82 -98 0
-82 -99 0
-82 -100 0
-82 -101 0
-82 -102 0
-82 -103 0
-82 -104 0
-83 -84 0
-83 -85 0
-83 -86 0
-83 -87 0
-83 -88 0
-83 -89 0
-83 -90 0
-83 -91 0
-83 -92 0
-83 -93 0
-83 -94 0
-83 -95 0
-83 -96 0
-83 -97 0
-83 -98 0
-83 -99 0
-83 -100 0
-83 -101 0
-83 -102 0
-83 -103 0
-83 -104 0
-84 -85 0
-84 -86 0
-84 -87 0
-84 -88 0
-84 -89 0
-84 -90 0
-84 -91 0
-84 -92 0
-84 -93 0
-84 -94 0
-84 -95 0
-84 -96 0
-84 -97 0
-84 -98 0
-84 -99 0
-84 -100 0
-84 -101 0
-84 -102 0
-84 -103 0
-84 -104 0
-85 -86 0
-85 -87 0
-85 -88 0
-85 -89 0
-85 -90 0
-85 -91 0
-85 -92 0
-85 -93 0
-85 -94 0
-85 -95 0
-85 -96 0
-85 -97 0
-85 -98 0
-85 -99 0
-85 -100 0
-85 -101 0
-85 -102 0
-85 -103 0
-85 -104 0
-86 -87 0
-86 -88 0
-86 -89 0
-86 -90 0
-86 -91 0
-86 -92 0
-86 -93 0
-86 -94 0
-86 -95 0
-86 -96 0
-86 -97 0
-86 -98 0
-86 -99 0
-86 -100 0
-86 -101 0
-86 -102 0
-86 -103 0
-86 -104 0
-87 -88 0
-87 -89 0
-87 -90 0
-87 -91 0
-87 -92 0
-87 -93 0
-87 -94 0
-87 -95 0
-87 -96 0
-87 -97 0
-87 -98 0
-87 -99 0
-87 -100 0
-87 -101 0
-87 -102 0
-87 -103 0
-87 -104 0
-88 -89 0
-88 -90 0
-88 -91 0
-88 -92 0
-88 -93 0
-88 -94 0
-88 -95 0
-88 -96 0
-88 -97 0
-88 -98 0
-88 -99 0
-88 -100 0
-88 -101 0
-88 -102 0
-88 -103 0
-88 -104 0
-89 -90 0
-89 -91 0
-89 -92 0
-89 -93 0
-89 -94 0
-89 -95 0
-89 -96 0
-89 -97 0
-89 -98 0
-89 -99 0
-89 -100 0
-89 -101 0
-89 -102 0
-89 -103 0
-89 -104 0
-90 -91 0
-90 -92 0
-90 -93 0
-90 -94 0
-90 -95 0
-90 -96 0
-90 -97 0
-90 -98 0
-90 -99 0
-90 -100 0
-90 -101 0
-90 -102 0
-90 -103 0
-90 -104 0
-91 -92 0
-91 -93 0
-91 -94 0
-91 -95 0
-91 -96 0
-91 -97 0
-91 -98 0
-91 -99 0
-91 -100 0
-91 -101 0
-91 -102 0
-91 -103 0
-91 -104 0
-92 -93 0
-92 -94 0
-92 -95 0
-92 -96 0
-92 -97 0
-92 -98 0
-92 -99 0
-92 -100 0
-92 -101 0
-92 -102 0
-92 -103 0
-92 -104 0
-93 -94 0
-93 -95 0
-93 -96 0
-93 -97 0
-93 -98 0
-93 -99 0
-93 -100 0
-93 -101 0
-93 -102 0
-93 -103 0
-93 -104 0
-94 -95 0
-94 -96 0
-94 -97 0
-94 -98 0
-94 -99 0
-94 -100 0
-94 -101 0
-94 -102 0
-94 -103 0
-94 -104 0
-95 -96 0
-95 -97 0
-95 -98 0
-95 -99 0
-95 -100 0
-95 -101 0
-95 -102 0
-95 -103 0
-95 -104 0
-96 -97 0
-96 -98 0
-96 -99 0
-96 -100 0
-96 -101 0
-96 -102 0
-96 -103 0
-96 -104 0
-97 -98 0
-97 -99 0
-97 -100 0
-97 -101 0
-97 -102 0
-97 -103 0
-97 -104 0
-98 -99 0
-98 -100 0
-98 -101 0
-98 -102 0
-98 -103 0
-98 -104 0
-99 -100 0
-99 -101 0
-99 -102 0
-99 -103 0
-99 -104 0
-100 -101 0
-100 -102 0
-100 -103 0
-100 -104 0
-101 -102 0
-101 -103 0
-101 -104 0
-102 -103 0
-102 -104 0
-103 -104 0
-65 -1 0
-65 -2 0
-65 -3 0
-65 4 0
-65 -5 0
-65 -6 0
-65 -7 0
-65 8 0
-65 -9 0
-65 -10 0
-65 -11 0
-65 12 0
-65 -13 0
-65 -14 0
-65 -15 0
-65 16 0
-65 -17 0
-65 -18 0
-65 -19 0
-65 20 0
-65 -21 0
-65 -22 0
-65 -23 0
-65 24 0
-65 -25 0
-65 -26 0
-65 -27 0
-65 28 0
-65 -29 0
-65 -30 0
-65 -31 0
-65 32 0
-66 -1 0
-66 2 0
-66 -3 0
-66 -4 0
-66 -5 0
-66 6 0
-66 -7 0
-66 -8 0
-66 -9 0
-66 10 0
-66 -11 0
-66 -12 0
-66 -13 0
-66 14 0
-66 -15 0
-66 -16 0
-66 -17 0
-66 18 0
-66 -19 0
-66 -20 0
-66 -21 0
-66 22 0
-66 -23 0
-66 -24 0
-66 -25 0
-66 26 0
-66 -27 0
-66 -28 0
-66 -29 0
-66 30 0
-66 -31 0
-66 -32 0
-67 -1 0
-67 -2 0
-67 3 0
-67 -4 0
-67 -5 0
-67 -6 0
-67 7 0
-67 -8 0
-67 -9 0
-67 -10 0
-67 11 0
-67 -12 0
-67 -13 0
-67 -14 0
-67 15 0
-67 -16 0
-67 -17 0
-67 -18 0
-67 19 0
-67 -20 0
-67 -21 0
-67 -22 0
-67 23 0
-67 -24 0
-67 -25 0
-67 -26 0
-67 27 0
-67 -28 0
-67 -29 0
-67 -30 0
-67 31 0
-67 -32 0
-68 1 0
-68 -2 0
-68 -3 0
-68 -4 0
-68 5 0
-68 -6 0
-68 -7 0
-68 -8 0
-68 9 0
-68 -10 0
-68 -11 0
-68 -12 0
-68 13 0
-68 -14 0
-68 -15 0
-68 -16 0
-68 17 0
-68 -18 0
-68 -19 0
-68 -20 0
-68 21 0
-68 -22 0
-68 -23 0
-68 -24 0
-68 25 0
-68 -26 0
-68 -27 0
-68 -28 0
-68 29 0
-68 -30 0
-68 -31 0
-68 -32 0
-69 -1 0
-69 -2 0
-69 -3 0
-69 -4 0
-69 -5 0
-69 6 0
-69 -7 0
-69 8 0
-69 -9 0
-69 -10 0
-69 -11 0
-69 -12 0
-69 -13 0
-69 14 0
-69 -15 0
-69 16 0
-69 -17 0
-69 -18 0
-69 -19 0
-69 -20 0
-69 -21 0
-69 22 0
-69 -23 0
-69 24 0
-69 -25 0
-69 -26 0
-69 -27 0
-69 -28 0
-69 -29 0
-69 30 0
-69 -31 0
-69 32 0
-70 -1 0
-70 2 0
-70 -3 0
-70 4 0
-70 -5 0
-70 -6 0
-70 -7 0
-70 -8 0
-70 -9 0
-70 10 0
-70 -11 0
-70 12 0
-70 -13 0
-70 -14 0
-70 -15 0
-70 -16 0
-70 -17 0
-70 18 0
-70 -19 0
-70 20 0
-70 -21 0
-70 -22 0
-70 -23 0
-70 -24 0
-70 -25 0
-70 26 0
-70 -27 0
-70 28 0
-70 -29 0
-70 -30 0
-70 -31 0
-70 -32 0
-71 -1 0
-71 -2 0
-71 -3 0
-71 -4 0
-71 5 0
-71 -6 0
-71 7 0
-71 -8 0
-71 -9 0
-71 -10 0
-71 -11 0
-71 -12 0
-71 13 0
-71 -14 0
-71 15 0
-71 -16 0
-71 -17 0
-71 -18 0
-71 -19 0
-71 -20 0
-71 21 0
-71 -22 0
-71 23 0
-71 -24 0
-71 -25 0
-71 -26 0
-71 -27 0
-71 -28 0
-71 29 0
-71 -30 0
-71 31 0
-71 -32 0
-72 1 0
-72 -2 0
-72 3 0
-72 -4 0
-72 -5 0
-72 -6 0
-72 -7 0
-72 -8 0
-72 9 0
-72 -10 0
-72 11 0
-72 -12 0
-72 -13 0
-72 -14 0
-72 -15 0
-72 -16 0
-72 17 0
-72 -18 0
-72 19 0
-72 -20 0
-72 -21 0
-72 -22 0
-72 -23 0
-72 -24 0
-72 25 0
-72 -26 0
-72 27 0
-72 -28 0
-72 -29 0
-72 -30 0
-72 -31 0
-72 -32 0
-73 -1 0
-73 -2 0
-73 -3 0
-73 -4 0
-73 -5 0
-73 -6 0
-73 -7 0
-73 -8 0
-73 -9 0
-73 10 0
-73 -11 0
-73 12 0
-73 -13 0
-73 14 0
-73 -15 0
-73 16 0
-73 -17 0
-73 -18 0
-73 -19 0
-73 -20 0
-73 -21 0
-73 -22 0
-73 -23 0
-73 -24 0
-73 -25 0
-73 26 0
-73 -27 0
-73 28 0
-73 -29 0
-73 30 0
-73 -31 0
-73 32 0
-74 -1 0
-74 2 0
-74 -3 0
-74 4 0
-74 -5 0
-74 6 0
-74 -7 0
-74 8 0
-74 -9 0
-74 -10 0
-74 -11 0
-74 -12 0
-74 -13 0
-74 -14 0
-74 -15 0
-74 -16 0
-74 -17 0
-74 18 0
-74 -19 0
-74 20 0
-74 -21 0
-74 22 0
-74 -23 0
-74 24 0
-74 -25 0
-74 -26 0
-74 -27 0
-74 -28 0
-74 -29 0
-74 -30 0
-74 -31 0
-74 -32 0
-75 -1 0
-75 -2 0
-75 -3 0
-75 -4 0
-75 -5 0
-75 -6 0
-75 -7 0
-75 -8 0
-75 9 0
-75 -10 0
-75 11 0
-75 -12 0
-75 13 0
-75 -14 0
-75 15 0
-75 -16 0
-75 -17 0
-75 -18 0
-75 -19 0
-75 -20 0
-75 -21 0
-75 -22 0
-75 -23 0
-75 -24 0
-75 25 0
-75 -26 0
-75 27 0
-75 -28 0
-75 29 0
-75 -30 0
-75 31 0
-75 -32 0
-76 1 0
-76 -2 0
-76 3 0
-76 -4 0
-76 5 0
-76 -6 0
-76 7 0
-76 -8 0
-76 -9 0
-76 -10 0
-76 -11 0
-76 -12 0
-76 -13 0
-76 -14 0
-76 -15 0
-76 -16 0
-76 17 0
-76 -18 0
-76 19 0
-76 -20 0
-76 21 0
-76 -22 0
-76 23 0
-76 -24 0
-76 -25 0
-76 -26 0
-76 -27 0
-76 -28 0
-76 -29 0
-76 -30 0
-76 -31 0
-76 -32 0
-77 -1 0
-77 -2 0
-77 -3 0
-77 -4 0
-77 -5 0
-77 -6 0
-77 -7 0
-77 -8 0
-77 -9 0
-77 -10 0
-77 -11 0
-77 -12 0
-77 -13 0
-77 -14 0
-77 -15 0
-77 -16 0
-77 -17 0
-77 18 0
-77 -19 0
-77 20 0
-77 -21 0
-77 22 0
-77 -23 0
-77 24 0
-77 -25 0
-77 26 0
-77 -27 0
-77 28 0
-77 -29 0
-77 30 0
-77 -31 0
-77 32 0
-78 -1 0
-78 2 0
-78 -3 0
-78 4 0
-78 -5 0
-78 6 0
-78 -7 0
-78 8 0
-78 -9 0
-78 10 0
-78 -11 0
-78 12 0
-78 -13 0
-78 14 0
-78 -15 0
-78 16 0
-78 -17 0
-78 -18 0
-78 -19 0
-78 -20 0
-78 -21 0
-78 -22 0
-78 -23 0
-78 -24 0
-78 -25 0
-78 -26 0
-78 -27 0
-78 -28 0
-78 -29 0
-78 -30 0
-78 -31 0
-78 -32 0
-79 -1 0
-79 -2 0
-79 -3 0
-79 -4 0
-79 -5 0
-79 -6 0
-79 -7 0
-79 -8 0
-79 -9 0
-79 -10 0
-79 -11 0
-79 -12 0
-79 -13 0
-79 -14 0
-79 -15 0
-79 -16 0
-79 17 0
-79 -18 0
-79 19 0
-79 -20 0
-79 21 0
-79 -22 0
-79 23 0
-79 -24 0
-79 25 0
-79 -26 0
-79 27 0
-79 -28 0
-79 29 0
-79 -30 0
-79 31 0
-79 -32 0
-80 1 0
-80 -2 0
-80 3 0
-80 -4 0
-80 5 0
-80 -6 0
-80 7 0
-80 -8 0
-80 9 0
-80 -10 0
-80 11 0
-80 -12 0
-80 13 0
-80 -14 0
-80 15 0
-80 -16 0
-80 -17 0
-80 -18 0
-80 -19 0
-80 -20 0
-80 -21 0
-80 -22 0
-80 -23 0
-80 -24 0
-80 -25 0
-80 -26 0
-80 -27 0
-80 -28 0
-80 -29 0
-80 -30 0
-80 -31 0
-80 -32 0
-81 -1 0
-81 -2 0
-81 -3 0
-81 -4 0
-81 -5 0
-81 -6 0
-81 7 0
-81 8 0
-81 -9 0
-81 -10 0
-81 -11 0
-81 -12 0
-81 -13 0
-81 -14 0
-81 15 0
-81 16 0
-81 -17 0
-81 -18 0
-81 -19 0
-81 -20 0
-81 -21 0
-81 -22 0
-81 23 0
-81 24 0
-81 -25 0
-81 -26 0
-81 -27 0
-81 -28 0
-81 -29 0
-81 -30 0
-81 31 0
-81 32 0
-82 -1 0
-82 -2 0
-82 3 0
-82 4 0
-82 -5 0
-82 -6 0
-82 -7 0
-82 -8 0
-82 -9 0
-82 -10 0
-82 11 0
-82 12 0
-82 -13 0
-82 -14 0
-82 -15 0
-82 -16 0
-82 -17 0
-82 -18 0
-82 19 0
-82 20 0
-82 -21 0
-82 -22 0
-82 -23 0
-82 -24 0
-82 -25 0
-82 -26 0
-82 27 0
-82 28 0
-82 -29 0
-82 -30 0
-82 -31 0
-82 -32 0
-83 -1 0
-83 -2 0
-83 -3 0
-83 -4 0
-83 5 0
-83 6 0
-83 -7 0
-83 -8 0
-83 -9 0
-83 -10 0
-83 -11 0
-83 -12 0
-83 13 0
-83 14 0
-83 -15 0
-83 -16 0
-83 -17 0
-83 -18 0
-83 -19 0
-83 -20 0
-83 21 0
-83 22 0
-83 -23 0
-83 -24 0
-83 -25 0
-83 -26 0
-83 -27 0
-83 -28 0
-83 29 0
-83 30 0
-83 -31 0
-83 -32 0
-84 1 0
-84 2 0
-84 -3 0
-84 -4 0
-84 -5 0
-84 -6 0
-84 -7 0
-84 -8 0
-84 9 0
-84 10 0
-84 -11 0
-84 -12 0
-84 -13 0
-84 -14 0
-84 -15 0
-84 -16 0
-84 17 0
-84 18 0
-84 -19 0
-84 -20 0
-84 -21 0
-84 -22 0
-84 -23 0
-84 -24 0
-84 25 0
-84 26 0
-84 -27 0
-84 -28 0
-84 -29 0
-84 -30 0
-84 -31 0
-84 -32 0
-85 -1 0
-85 -2 0
-85 -3 0
-85 -4 0
-85 -5 0
-85 -6 0
-85 -7 0
-85 -8 0
-85 -9 0
-85 -10 0
-85 11 0
-85 12 0
-85 -13 0
-85 -14 0
-85 15 0
-85 16 0
-85 -17 0
-85 -18 0
-85 -19 0
-85 -20 0
-85 -21 0
-85 -22 0
-85 -23 0
-85 -24 0
-85 -25 0
-85 -26 0
-85 27 0
-85 28 0
-85 -29 0
-85 -30 0
-85 31 0
-85 32 0
-86 -1 0
-86 -2 0
-86 3 0
-86 4 0
-86 -5 0
-86 -6 0
-86 7 0
-86 8 0
-86 -9 0
-86 -10 0
-86 -11 0
-86 -12 0
-86 -13 0
-86 -14 0
-86 -15 0
-86 -16 0
-86 -17 0
-86 -18 0
-86 19 0
-86 20 0
-86 -21 0
-86 -22 0
-86 23 0
-86 24 0
-86 -25 0
-86 -26 0
-86 -27 0
-86 -28 0
-86 -29 0
-86 -30 0
-86 -31 0
-86 -32 0
-87 -1 0
-87 -2 0
-87 -3 0
-87 -4 0
-87 -5 0
-87 -6 0
-87 -7 0
-87 -8 0
-87 9 0
-87 10 0
-87 -11 0
-87 -12 0
-87 13 0
-87 14 0
-87 -15 0
-87 -16 0
-87 -17 0
-87 -18 0
-87 -19 0
-87 -20 0
-87 -21 0
-87 -22 0
-87 -23 0
-87 -24 0
-87 25 0
-87 26 0
-87 -27 0
-87 -28 0
-87 29 0
-87 30 0
-87 -31 0
-87 -32 0
-88 1 0
-88 2 0
-88 -3 0
-88 -4 0
-88 5 0
-88 6 0
-88 -7 0
-88 -8 0
-88 -9 0
-88 -10 0
-88 -11 0
-88 -12 0
-88 -13 0
-88 -14 0
-88 -15 0
-88 -16 0
-88 17 0
-88 18 0
-88 -19 0
-88 -20 0
-88 21 0
-88 22 0
-88 -23 0
-88 -24 0
-88 -25 0
-88 -26 0
-88 -27 0
-88 -28 0
-88 -29 0
-88 -30 0
-88 -31 0
-88 -32 0
-89 -1 0
-89 -2 0
-89 -3 0
-89 -4 0
-89 -5 0
-89 -6 0
-89 -7 0
-89 -8 0
-89 -9 0
-89 -10 0
-89 -11 0
-89 -12 0
-89 -13 0
-89 -14 0
-89 -15 0
-89 -16 0
-89 -17 0
-89 -18 0
-89 19 0
-89 20 0
-89 -21 0
-89 -22 0
-89 23 0
-89 24 0
-89 -25 0
-89 -26 0
-89 27 0
-89 28 0
-89 -29 0
-89 -30 0
-89 31 0
-89 32 0
-90 -1 0
-90 -2 0
-90 3 0
-90 4 0
-90 -5 0
-90 -6 0
-90 7 0
-90 8 0
-90 -9 0
-90 -10 0
-90 11 0
-90 12 0
-90 -13 0
-90 -14 0
-90 15 0
-90 16 0
-90 -17 0
-90 -18 0
-90 -19 0
-90 -20 0
-90 -21 0
-90 -22 0
-90 -23 0
-90 -24 0
-90 -25 0
-90 -26 0
-90 -27 0
-90 -28 0
-90 -29 0
-90 -30 0
-90 -31 0
-90 -32 0
-91 -1 0
-91 -2 0
-91 -3 0
-91 -4 0
-91 -5 0
-91 -6 0
-91 -7 0
-91 -8 0
-91 -9 0
-91 -10 0
-91 -11 0
-91 -12 0
-91 -13 0
-91 -14 0
-91 -15 0
-91 -16 0
-91 17 0
-91 18 0
-91 -19 0
-91 -20 0
-91 21 0
-91 22 0
-91 -23 0
-91 -24 0
-91 25 0
-91 26 0
-91 -27 0
-91 -28 0
-91 29 0
-91 30 0
-91 -31 0
-91 -32 0
-92 1 0
-92 2 0
-92 -3 0
-92 -4 0
-92 5 0
-92 6 0
-92 -7 0
-92 -8 0
-92 9 0
-92 10 0
-92 -11 0
-92 -12 0
-92 13 0
-92 14 0
-92 -15 0
-92 -16 0
-92 -17 0
-92 -18 0
-92 -19 0
-92 -20 0
-92 -21 0
-92 -22 0
-92 -23 0
-92 -24 0
-92 -25 0
-92 -26 0
-92 -27 0
-92 -28 0
-92 -29 0
-92 -30 0
-92 -31 0
-92 -32 0
-93 -1 0
-93 -2 0
-93 -3 0
-93 -4 0
-93 -5 0
-93 -6 0
-93 -7 0
-93 -8 0
-93 -9 0
-93 -10 0
-93 -11 0
-93 -12 0
-93 13 0
-93 14 0
-93 15 0
-93 16 0
-93 -17 0
-93 -18 0
-93 -19 0
-93 -20 0
-93 -21 0
-93 -22 0
-93 -23 0
-93 -24 0
-93 -25 0
-93 -26 0
-93 -27 0
-93 -28 0
-93 29 0
-93 30 0
-93 31 0
-93 32 0
-94 -1 0
-94 -2 0
-94 -3 0
-94 -4 0
-94 5 0
-94 6 0
-94 7 0
-94 8 0
-94 -9 0
-94 -10 0
-94 -11 0
-94 -12 0
-94 -13 0
-94 -14 0
-94 -15 0
-94 -16 0
-94 -17 0
-94 -18 0
-94 -19 0
-94 -20 0
-94 21 0
-94 22 0
-94 23 0
-94 24 0
-94 -25 0
-94 -26 0
-94 -27 0
-94 -28 0
-94 -29 0
-94 -30 0
-94 -31 0
-94 -32 0
-95 -1 0
-95 -2 0
-95 -3 0
-95 -4 0
-95 -5 0
-95 -6 0
-95 -7 0
-95 -8 0
-95 9 0
-95 10 0
-95 11 0
-95 12 0
-95 -13 0
-95 -14 0
-95 -15 0
-95 -16 0
-95 -17 0
-95 -18 0
-95 -19 0
-95 -20 0
-95 -21 0
-95 -22 0
-95 -23 0
-95 -24 0
-95 25 0
-95 26 0
-95 27 0
-95 28 0
-95 -29 0
-95 -30 0
-95 -31 0
-95 -32 0
-96 1 0
-96 2 0
-96 3 0
-96 4 0
-96 -5 0
-96 -6 0
-96 -7 0
-96 -8 0
-96 -9 0
-96 -10 0
-96 -11 0
-96 -12 0
-96 -13 0
-96 -14 0
-96 -15 0
-96 -16 0
-96 17 0
-96 18 0
-96 19 0
-96 20 0
-96 -21 0
-96 -22 0
-96 -23 0
-96 -24 0
-96 -25 0
-96 -26 0
-96 -27 0
-96 -28 0
-96 -29 0
-96 -30 0
-96 -31 0
-96 -32 0
-97 -1 0
-97 -2 0
-97 -3 0
-97 -4 0
-97 -5 0
-97 -6 0
-97 -7 0
-97 -8 0
-97 -9 0
-97 -10 0
-97 -11 0
-97 -12 0
-97 -13 0
-97 -14 0
-97 -15 0
-97 -16 0
-97 -17 0
-97 -18 0
-97 -19 0
-97 -20 0
-97 21 0
-97 22 0
-97 23 0
-97 24 0
-97 -25 0
-97 -26 0
-97 -27 0
-97 -28 0
-97 29 0
-97 30 0
-97 31 0
-97 32 0
-98 -1 0
-98 -2 0
-98 -3 0
-98 -4 0
-98 5 0
-98 6 0
-98 7 0
-98 8 0
-98 -9 0
-98 -10 0
-98 -11 0
-98 -12 0
-98 13 0
-98 14 0
-98 15 0
-98 16 0
-98 -17 0
-98 -18 0
-98 -19 0
-98 -20 0
-98 -21 0
-98 -22 0
-98 -23 0
-98 -24 0
-98 -25 0
-98 -26 0
-98 -27 0
-98 -28 0
-98 -29 0
-98 -30 0
-98 -31 0
-98 -32 0
-99 -1 0
-99 -2 0
-99 -3 0
-99 -4 0
-99 -5 0
-99 -6 0
-99 -7 0
-99 -8 0
-99 -9 0
-99 -10 0
-99 -11 0
-99 -12 0
-99 -13 0
-99 -14 0
-99 -15 0
-99 -16 0
-99 17 0
-99 18 0
-99 19 0
-99 20 0
-99 -21 0
-99 -22 0
-99 -23 0
-99 -24 0
-99 25 0
-99 26 0
-99 27 0
-99 28 0
-99 -29 0
-99 -30 0
-99 -31 0
-99 -32 0
-100 1 0
-100 2 0
-100 3 0
-100 4 0
-100 -5 0
-100 -6 0
-100 -7 0
-100 -8 0
-100 9 0
-100 10 0
-100 11 0
-100 12 0
-100 -13 0
-100 -14 0
-100 -15 0
-100 -16 0
-100 -17 0
-100 -18 0
-100 -19 0
-100 -20 0
-100 -21 0
-100 -22 0
-100 -23 0
-100 -24 0
-100 -25 0
-100 -26 0
-100 -27 0
-100 -28 0
-100 -29 0
-100 -30 0
-100 -31 0
-100 -32 0
-101 -1 0
-101 -2 0
-101 -3 0
-101 -4 0
-101 -5 0
-101 -6 0
-101 -7 0
-101 -8 0
-101 -9 0
-101 -10 0
-101 -11 0
-101 -12 0
-101 -13 0
-101 -14 0
-101 -15 0
-101 -16 0
-101 -17 0
-101 -18 0
-101 -19 0
-101 -20 0
-101 -21 0
-101 -22 0
-101 -23 0
-101 -24 0
-101 25 0
-101 26 0
-101 27 0
-101 28 0
-101 29 0
-101 30 0
-101 31 0
-101 32 0
-102 -1 0
-102 -2 0
-102 -3 0
-102 -4 0
-102 -5 0
-102 -6 0
-102 -7 0
-102 -8 0
-102 9 0
-102 10 0
-102 11 0
-102 12 0
-102 13 0
-102 14 0
-102 15 0
-102 16 0
-102 -17 0
-102 -18 0
-102 -19 0
-102 -20 0
-102 -21 0
-102 -22 0
-102 -23 0
-102 -24 0
-102 -25 0
-102 -26 0
-102 -27 0
-102 -28 0
-102 -29 0
-102 -30 0
-102 -31 0
-102 -32 0
-103 -1 0
-103 -2 0
-103 -3 0
-103 -4 0
-103 -5 0
-103 -6 0
-103 -7 0
-103 -8 0
-103 -9 0
-103 -10 0
-103 -11 0
-103 -12 0
-103 -13 0
-103 -14 0
-103 -15 0
-103 -16 0
-103 17 0
-103 18 0
-103 19 0
-103 20 0
-103 21 0
-103 22 0
-103 23 0
-103 24 0
-103 -25 0
-103 -26 0
-103 -27 0
-103 -28 0
-103 -29 0
-103 -30 0
-103 -31 0
-103 -32 0
-104 1 0
-104 2 0
-104 3 0
-104 4 0
-104 5 0
-104 6 0
-104 7 0
-104 8 0
-104 -9 0
-104 -10 0
-104 -11 0
-104 -12 0
-104 -13 0
-104 -14 0
-104 -15 0
-104 -16 0
-104 -17 0
-104 -18 0
-104 -19 0
-104 -20 0
-104 -21 0
-104 -22 0
-104 -23 0
-104 -24 0
-104 -25 0
-104 -26 0
-104 -27 0
-104 -28 0
-104 -29 0
-104 -30 0
-104 -31 0
-104 -32 0
105 106 107 108 109 110 111 112 113 114 115 116 117 118 119 120 121 122 123 124 125 126 127 128 129 130 131 132 133 134 135 136 137 138 139 140 141 142 143 144 145 146 147 148 149 150 151 152 153 154 155 156 157 158 159 160 161 162 163 164 0
-105 -106 0
-105 -107 0
-105 -108 0
-105 -109 0
-105 -110 0
-105 -111 0
-105 -112 0
-105 -113 0
-105 -114 0
-105 -115 0
-105 -116 0
-105 -117 0
-105 -118 0
-105 -119 0
-105 -120 0
-105 -121 0
-105 -122 0
-105 -123 0
-105 -124 0
-105 -125 0
-105 -126 0
-105 -127 0
-105 -128 0
-105 -129 0
-105 -130 0
-105 -131 0
-105 -132 0
-105 -133 0
-105 -134 0
-105 -135 0
-105 -136 0
-105 -137 0
-105 -138 0
-105 -139 0
-105 -140 0
-105 -141 0
-105 -142 0
-105 -143 0
-105 -144 0
-105 -145 0
-105 -146 0
-105 -147 0
-105 -148 0
-105 -149 0
-105 -150 0
-105 -151 0
-105 -152 0
-105 -153 0
-105 -154 0
-105 -155 0
-105 -156 0
-105 -157 0
-105 -158 0
-105 -159 0
-105 -160 0
-105 -161 0
-105 -162 0
-105 -163 0
-105 -164 0
-106 -107 0
-106 -108 0
-106 -109 0
-106 -110 0
-106 -111 0
-106 -112 0
-106 -113 0
-106 -114 0
-106 -115 0
-106 -116 0
-106 -117 0
-106 -118 0
-106 -119 0
-106 -120 0
-106 -121 0
-106 -122 0
-106 -123 0
-106 -124 0
-106 -125 0
-106 -126 0
-106 -127 0
-106 -128 0
-106 -129 0
-106 -130 0
-106 -131 0
-106 -132 0
-106 -133 0
-106 -134 0
-106 -135 0
-106 -136 0
-106 -137 0
-106 -138 0
-106 -139 0
-106 -140 0
-106 -141 0
-106 -142 0
-106 -143 0
-106 -144 0
-106 -145 0
-106 -146 0
-106 -147 0
-106 -148 0
-106 -149 0
-106 -150 0
-106 -151 0
-106 -152 0
-106 -153 0
-106 -154 0
-106 -155 0
-106 -156 0
-106 -157 0
-106 -158 0
-106 -159 0
-106 -160 0
-106 -161 0
-106 -162 0
-106 -163 0
-106 -164 0
-107 -108 0
-107 -109 0
-107 -110 0
-107 -111 0
-107 -112 0
-107 -113 0
-107 -114 0
-107 -115 0
-107 -116 0
-107 -117 0
-107 -118 0
-107 -119 0
-107 -120 0
-107 -121 0
-107 -122 0
-107 -123 0
-107 -124 0
-107 -125 0
-107 -126 0
-107 -127 0
-107 -128 0
-107 -129 0
-107 -130 0
-107 -131 0
-107 -132 0
-107 -133 0
-107 -134 0
-107 -135 0
-107 -136 0
-107 -137 0
-107 -138 0
-107 -139 0
-107 -140 0
-107 -141 0
-107 -142 0
-107 -143 0
-107 -144 0
-107 -145 0
-107 -146 0
-107 -147 0
-107 -148 0
-107 -149 0
-107 -150 0
-107 -151 0
-107 -152 0
-107 -153 0
-107 -154 0
-107 -155 0
-107 -156 0
-107 -157 0
-107 -158 0
-107 -159 0
-107 -160 0
-107 -161 0
-107 -162 0
-107 -163 0
-107 -164 0
-108 -109 0
-108 -110 0
-108 -111 0
-108 -112 0
-108 -113 0
-108 -114 0
-108 -115 0
-108 -116 0
-108 -117 0
-108 -118 0
-108 -119 0
-108 -120 0
-108 -121 0
-108 -122 0
-108 -123 0
-108 -124 0
-108 -125 0
-108 -126 0
-108 -127 0
-108 -128 0
-108 -129 0
-108 -130 0
-108 -131 0
-108 -132 0
-108 -133 0
-108 -134 0
-108 -135 0
-108 -136 0
-108 -137 0
-108 -138 0
-108 -139 0
-108 -140 0
-108 -141 0
-108 -142 0
-108 -143 0
-108 -144 0
-108 -145 0
-108 -146 0
-108 -147 0
-108 -148 0
-108 -149 0
-108 -150 0
-108 -151 0
-108 -152 0
-108 -153 0
-108 -154 0
-108 -155 0
-108 -156 0
-108 -157 0
-108 -158 0
-108 -159 0
-108 -160 0
-108 -161 0
-108 -162 0
-108 -163 0
-108 -164 0
-109 -110 0
-109 -111 0
-109 -112 0
-109 -113 0
-109 -114 0
-109 -115 0
-109 -116 0
-109 -117 0
-109 -118 0
-109 -119 0
-109 -120 0
-109 -121 0
-109 -122 0
-109 -123 0
-109 -124 0
-109 -125 0
-109 -126 0
-109 -127 0
-109 -128 0
-109 -129 0
-109 -130 0
-109 -131 0
-109 -132 0
-109 -133 0
-109 -134 0
-109 -135 0
-109 -136 0
-109 -137 0
-109 -138 0
-109 -139 0
-109 -140 0
-109 -141 0
-109 -142 0
-109 -143 0
-109 -144 0
-109 -145 0
-109 -146 0
-109 -147 0
-109 -148 0
-109 -149 0
-109 -150 0
-109 -151 0
-109 -152 0
-109 -153 0
-109 -154 0
-109 -155 0
-109 -156 0
-109 -157 0
-109 -158 0
-109 -159 0
-109 -160 0
-109 -161 0
-109 -162 0
-109 -163 0
-109 -164 0
-110 -111 0
-110 -112 0
-110 -113 0
-110 -114 0
-110 -115 0
-110 -116 0
-110 -117 0
-110 -118 0
-110 -119 0
-110 -120 0
-110 -121 0
-110 -122 0
-110 -123 0
-110 -124 0
-110 -125 0
-110 -126 0
-110 -127 0
-110 -128 0
-110 -129 0
-110 -130 0
-110 -131 0
-110 -132 0
-110 -133 0
-110 -134 0
-110 -135 0
-110 -136 0
-110 -137 0
-110 -138 0
-110 -139 0
-110 -140 0
-110 -141 0
-110 -142 0
-110 -143 0
-110 -144 0
-110 -145 0
-110 -146 0
-110 -147 0
-110 -148 0
-110 -149 0
-110 -150 0
-110 -151 0
-110 -152 0
-110 -153 0
-110 -154 0
-110 -155 0
-110 -156 0
-110 -157 0
-110 -158 0
-110 -159 0
-110 -160 0
-110 -161 0
-110 -162 0
-110 -163 0
-110 -164 0
-111 -112 0
-111 -113 0
-111 -114 0
-111 -115 0
-111 -116 0
-111 -117 0
-111 -118 0
-111 -119 0
-111 -120 0
-111 -121 0
-111 -122 0
-111 -123 0
-111 -124 0
-111 -125 0
-111 -126 0
-111 -127 0
-111 -128 0
-111 -129 0
-111 -130 0
-111 -131 0
-111 -132 0
-111 -133 0
-111 -134 0
-111 -135 0
-111 -136 0
-111 -137 0
-111 -138 0
-111 -139 0
-111 -140 0
-111 -141 0
-111 -142 0
-111 -143 0
-111 -144 0
-111 -145 0
-111 -146 0
-111 -147 0
-111 -148 0
-111 -149 0
-111 -150 0
-111 -151 0
-111 -152 0
-111 -153 0
-111 -154 0
-111 -155 0
-111 -156 0
-111 -157 0
-111 -158 0
-111 -159 0
-111 -160 0
-111 -161 0
-111 -162 0
-111 -163 0
-111 -164 0
-112 -113 0
-112 -114 0
-112 -115 0
-112 -116 0
-112 -117 0
-112 -118 0
-112 -119 0
-112 -120 0
-112 -121 0
-112 -122 0
-112 -123 0
-112 -124 0
-112 -125 0
-112 -126 0
-112 -127 0
-112 -128 0
-112 -129 0
-112 -130 0
-112 -131 0
-112 -132 0
-112 -133 0
-112 -134 0
-112 -135 0
-112 -136 0
-112 -137 0
-112 -138 0
-112 -139 0
-112 -140 0
-112 -141 0
-112 -142 0
-112 -143 0
-112 -144 0
-112 -145 0
-112 -146 0
-112 -147 0
-112 -148 0
-112 -149 0
-112 -150 0
-112 -151 0
-112 -152 0
-112 -153 0
-112 -154 0
-112 -155 0
-112 -156 0
-112 -157 0
-112 -158 0
-112 -159 0
-112 -160 0
-112 -161 0
-112 -162 0
-112 -163 0
-112 -164 0
-113 -114 0
-113 -115 0
-113 -116 0
-113 -117 0
-113 -118 0
-113 -119 0
-113 -120 0
-113 -121 0
-113 -122 0
-113 -123 0
-113 -124 0
-113 -125 0
-113 -126 0
-113 -127 0
-113 -128 0
-113 -129 0
-113 -130 0
-113 -131 0
-113 -132 0
-113 -133 0
-113 -134 0
-113 -135 0
-113 -136 0
-113 -137 0
-113 -138 0
-113 -139 0
-113 -140 0
-113 -141 0
-113 -142 0
-113 -143 0
-113 -144 0
-113 -145 0
-113 -146 0
-113 -147 0
-113 -148 0
-113 -149 0
-113 -150 0
-113 -151 0
-113 -152 0
-113 -153 0
-113 -154 0
-113 -155 0
-113 -156 0
-113 -157 0
-113 -158 0
-113 -159 0
-113 -160 0
-113 -161 0
-113 -162 0
-113 -163 0
-113 -164 0
-114 -115 0
-114 -116 0
-114 -117 0
-114 -118 0
-114 -119 0
-114 -120 0
-114 -121 0
-114 -122 0
-114 -123 0
-114 -124 0
-114 -125 0
-114 -126 0
-114 -127 0
-114 -128 0
-114 -129 0
-114 -130 0
-114 -131 0
-114 -132 0
-114 -133 0
-114 -134 0
-114 -135 0
-114 -136 0
-114 -137 0
-114 -138 0
-114 -139 0
-114 -140 0
-114 -141 0
-114 -142 0
-114 -143 0
-114 -144 0
-114 -145 0
-114 -146 0
-114 -147 0
-114 -148 0
-114 -149 0
-114 -150 0
-114 -151 0
-114 -152 0
-114 -153 0
-114 -154 0
-114 -155 0
-114 -156 0
-114 -157 0
-114 -158 0
-114 -159 0
-114 -160 0
-114 -161 0
-114 -162 0
-114 -163 0
-114 -164 0
-115 -116 0
-115 -117 0
-115 -118 0
-115 -119 0
-115 -120 0
-115 -121 0
-115 -122 0
-115 -123 0
-115 -124 0
-115 -125 0
-115 -126 0
-115 -127 0
-115 -128 0
-115 -129 0
-115 -130 0
-115 -131 0
-115 -132 0
-115 -133 0
-115 -134 0
-115 -135 0
-115 -136 0
-115 -137 0
-115 -138 0
-115 -139 0
-115 -140 0
-115 -141 0
-115 -142 0
-115 -143 0
-115 -144 0
-115 -145 0
-115 -146 0
-115 -147 0
-115 -148 0
-115 -149 0
-115 -150 0
-115 -151 0
-115 -152 0
-115 -153 0
-115 -154 0
-115 -155 0
-115 -156 0
-115 -157 0
-115 -158 0
-115 -159 0
-115 -160 0
-115 -161 0
-115 -162 0
-115 -163 0
-115 -164 0
-116 -117 0
-116 -118 0
-116 -119 0
-116 -120 0
-116 -121 0
-116 -122 0
-116 -123 0
-116 -124 0
-116 -125 0
-116 -126 0
-116 -127 0
-116 -128 0
-116 -129 0
-116 -130 0
-116 -131 0
-116 -132 0
-116 -133 0
-116 -134 0
-116 -135 0
-116 -136 0
-116 -137 0
-116 -138 0
-116 -139 0
-116 -140 0
-116 -141 0
-116 -142 0
-116 -143 0
-116 -144 0
-116 -145 0
-116 -146 0
-116 -147 0
-116 -148 0
-116 -149 0
-116 -150 0
-116 -151 0
-116 -152 0
-116 -153 0
-116 -154 0
-116 -155 0
-116 -156 0
-116 -157 0
-116 -158 0
-116 -159 0
-116 -160 0
-116 -161 0
-116 -162 0
-116 -163 0
-116 -164 0
-117 -118 0
-117 -119 0
-117 -120 0
-117 -121 0
-117 -122 0
-117 -123 0
-117 -124 0
-117 -125 0
-117 -126 0
-117 -127 0
-117 -128 0
-117 -129 0
-117 -130 0
-117 -131 0
-117 -132 0
-117 -133 0
-117 -134 0
-117 -135 0
-117 -136 0
-117 -137 0
-117 -138 0
-117 -139 0
-117 -140 0
-117 -141 0
-117 -142 0
-117 -143 0
-117 -144 0
-117 -145 0
-117 -146 0
-117 -147 0
-117 -148 0
-117 -149 0
-117 -150 0
-117 -151 0
-117 -152 0
-117 -153 0
-117 -154 0
-117 -155 0
-117 -156 0
-117 -157 0
-117 -158 0
-117 -159 0
-117 -160 0
-117 -161 0
-117 -162 0
-117 -163 0
-117 -164 0
-118 -119 0
-118 -120 0
-118 -121 0
-118 -122 0
-118 -123 0
-118 -124 0
-118 -125 0
-118 -126 0
-118 -127 0
-118 -128 0
-118 -129 0
-118 -130 0
-118 -131 0
-118 -132 0
-118 -133 0
-118 -134 0
-118 -135 0
-118 -136 0
-118 -137 0
-118 -138 0
-118 -139 0
-118 -140 0
-118 -141 0
-118 -142 0
-118 -143 0
-118 -144 0
-118 -145 0
-118 -146 0
-118 -147 0
-118 -148 0
-118 -149 0
-118 -150 0
-118 -151 0
-118 -152 0
-118 -153 0
-118 -154 0
-118 -155 0
-118 -156 0
-118 -157 0
-118 -158 0
-118 -159 0
-118 -160 0
-118 -161 0
-118 -162 0
-118 -163 0
-118 -164 0
-119 -120 0
-119 -121 0
-119 -122 0
-119 -123 0
-119 -124 0
-119 -125 0
-119 -126 0
-119 -127 0
-119 -128 0
-119 -129 0
-119 -130 0
-119 -131 0
-119 -132 0
-119 -133 0
-119 -134 0
-119 -135 0
-119 -136 0
-119 -137 0
-119 -138 0
-119 -139 0
-119 -140 0
-119 -141 0
-119 -142 0
-119 -143 0
-119 -144 0
-119 -145 0
-119 -146 0
-119 -147 0
-119 -148 0
-119 -149 0
-119 -150 0
-119 -151 0
-119 -152 0
-119 -153 0
-119 -154 0
-119 -155 0
-119 -156 0
-119 -157 0
-119 -158 0
-119 -159 0
-119 -160 0
-119 -161 0
-119 -162 0
-119 -163 0
-119 -164 0
-120 -121 0
-120 -122 0
-120 -123 0
-120 -124 0
-120 -125 0
-120 -126 0
-120 -127 0
-120 -128 0
-120 -129 0
-120 -130 0
-120 -131 0
-120 -132 0
-120 -133 0
-120 -134 0
-120 -135 0
-120 -136 0
-120 -137 0
-120 -138 0
-120 -139 0
-120 -140 0
-120 -141 0
-120 -142 0
-120 -143 0
-120 -144 0
-120 -145 0
-120 -146 0
-120 -147 0
-120 -148 0
-120 -149 0
-120 -150 0
-120 -151 0
-120 -152 0
-120 -153 0
-120 -154 0
-120 -155 0
-120 -156 0
-120 -157 0
-120 -158 0
-120 -159 0
-120 -160 0
-120 -161 0
-120 -162 0
-120 -163 0
-120 -164 0
-121 -122 0
-121 -123 0
-121 -124 0
-121 -125 0
-121 -126 0
-121 -127 0
-121 -128 0
-121 -129 0
-121 -130 0
-121 -131 0
-121 -132 0
-121 -133 0
-121 -134 0
-121 -135 0
-121 -136 0
-121 -137 0
-121 -138 0
-121 -139 0
-121 -140 0
-121 -141 0
-121 -142 0
-121 -143 0
-121 -144 0
-121 -145 0
-121 -146 0
-121 -147 0
-121 -148 0
-121 -149 0
-121 -150 0
-121 -151 0
-121 -152 0
-121 -153 0
-121 -154 0
-121 -155 0
-121 -156 0
-121 -157 0
-121 -158 0
-121 -159 0
-121 -160 0
-121 -161 0
-121 -162 0
-121 -163 0
-121 -164 0
-122 -123 0
-122 -124 0
-122 -125 0
-122 -126 0
-122 -127 0
-122 -128 0
-122 -129 0
-122 -130 0
-122 -131 0
-122 -132 0
-122 -133 0
-122 -134 0
-122 -135 0
-122 -136 0
-122 -137 0
-122 -138 0
-122 -139 0
-122 -140 0
-122 -141 0
-122 -142 0
-122 -143 0
-122 -144 0
-122 -145 0
-122 -146 0
-122 -147 0
-122 -148 0
-122 -149 0
-122 -150 0
-122 -151 0
-122 -152 0
-122 -153 0
-122 -154 0
-122 -155 0
-122 -156 0
-122 -157 0
-122 -158 0
-122 -159 0
-122 -160 0
-122 -161 0
-122 -162 0
-122 -163 0
-122 -164 0
-123 -124 0
-123 -125 0
-123 -126 0
-123 -127 0
-123 -128 0
-123 -129 0
-123 -130 0
-123 -131 0
-123 -132 0
-123 -133 0
-123 -134 0
-123 -135 0
-123 -136 0
-123 -137 0
-123 -138 0
-123 -139 0
-123 -140 0
-123 -141 0
-123 -142 0
-123 -143 0
-123 -144 0
-123 -145 0
-123 -146 0
-123 -147 0
-123 -148 0
-123 -149 0
-123 -150 0
-123 -151 0
-123 -152 0
-123 -153 0
-123 -154 0
-123 -155 0
-123 -156 0
-123 -157 0
-123 -158 0
-123 -159 0
-123 -160 0
-123 -161 0
-123 -162 0
-123 -163 0
-123 -164 0
-124 -125 0
-124 -126 0
-124 -127 0
-124 -128 0
-124 -129 0
-124 -130 0
-124 -131 0
-124 -132 0
-124 -133 0
-124 -134 0
-124 -135 0
-124 -136 0
-124 -137 0
-124 -138 0
-124 -139 0
-124 -140 0
-124 -141 0
-124 -142 0
-124 -143 0
-124 -144 0
-124 -145 0
-124 -146 0
-124 -147 0
-124 -148 0
-124 -149 0
-124 -150 0
-124 -151 0
-124 -152 0
-124 -153 0
-124 -154 0
-124 -155 0
-124 -156 0
-124 -157 0
-124 -158 0
-124 -159 0
-124 -160 0
-124 -161 0
-124 -162 0
-124 -163 0
-124 -164 0
-125 -126 0
-125 -127 0
-125 -128 0
-125 -129 0
-125 -130 0
-125 -131 0
-125 -132 0
-125 -133 0
-125 -134 0
-125 -135 0
-125 -136 0
-125 -137 0
-125 -138 0
-125 -139 0
-125 -140 0
-125 -141 0
-125 -142 0
-125 -143 0
-125 -144 0
-125 -145 0
-125 -146 0
-125 -147 0
-125 -148 0
-125 -149 0
-125 -150 0
-125 -151 0
-125 -152 0
-125 -153 0
-125 -154 0
-125 -155 0
-125 -156 0
-125 -157 0
-125 -158 0
-125 -159 0
-125 -160 0
-125 -161 0
-125 -162 0
-125 -163 0
-125 -164 0
-126 -127 0
-126 -128 0
-126 -129 0
-126 -130 0
-126 -131 0
-126 -132 0
-126 -133 0
-126 -134 0
-126 -135 0
-126 -136 0
-126 -137 0
-126 -138 0
-126 -139 0
-126 -140 0
-126 -141 0
-126 -142 0
-126 -143 0
-126 -144 0
-126 -145 0
-126 -146 0
-126 -147 0
-126 -148 0
-126 -149 0
-126 -150 0
-126 -151 0
-126 -152 0
-126 -153 0
-126 -154 0
-126 -155 0
-126 -156 0
-126 -157 0
-126 -158 0
-126 -159 0
-126 -160 0
-126 -161 0
-126 -162 0
-126 -163 0
-126 -164 0
-127 -128 0
-127 -129 0
-127 -130 0
-127 -131 0
-127 -132 0
-127 -133 0
-127 -134 0
-127 -135 0
-127 -136 0
-127 -137 0
-127 -138 0
-127 -139 0
-127 -140 0
-127 -141 0
-127 -142 0
-127 -143 0
-127 -144 0
-127 -145 0
-127 -146 0
-127 -147 0
-127 -148 0
-127 -149 0
-127 -150 0
-127 -151 0
-127 -152 0
-127 -153 0
-127 -154 0
-127 -155 0
-127 -156 0
-127 -157 0
-127 -158 0
-127 -159 0
-127 -160 0
-127 -161 0
-127 -162 0
-127 -163 0
-127 -164 0
-128 -129 0
-128 -130 0
-128 -131 0
-128 -132 0
-128 -133 0
-128 -134 0
-128 -135 0
-128 -136 0
-128 -137 0
-128 -138 0
-128 -139 0
-128 -140 0
-128 -141 0
-128 -142 0
-128 -143 0
-128 -144 0
-128 -145 0
-128 -146 0
-128 -147 0
-128 -148 0
-128 -149 0
-128 -150 0
-128 -151 0
-128 -152 0
-128 -153 0
-128 -154 0
-128 -155 0
-128 -156 0
-128 -157 0
-128 -158 0
-128 -159 0
-128 -160 0
-128 -161 0
-128 -162 0
-128 -163 0
-128 -164 0
-129 -130 0
-129 -131 0
-129 -132 0
-129 -133 0
-129 -134 0
-129 -135 0
-129 -136 0
-129 -137 0
-129 -138 0
-129 -139 0
-129 -140 0
-129 -141 0
-129 -142 0
-129 -143 0
-129 -144 0
-129 -145 0
-129 -146 0
-129 -147 0
-129 -148 0
-129 -149 0
-129 -150 0
-129 -151 0
-129 -152 0
-129 -153 0
-129 -154 0
-129 -155 0
-129 -156 0
-129 -157 0
-129 -158 0
-129 -159 0
-129 -160 0
-129 -161 0
-129 -162 0
-129 -163 0
-129 -164 0
-130 -131 0
-130 -132 0
-130 -133 0
-130 -134 0
-130 -135 0
-130 -136 0
-130 -137 0
-130 -138 0
-130 -139 0
-130 -140 0
-130 -141 0
-130 -142 0
-130 -143 0
-130 -144 0
-130 -145 0
-130 -146 0
-130 -147 0
-130 -148 0
-130 -149 0
-130 -150 0
-130 -151 0
-130 -152 0
-130 -153 0
-130 -154 0
-130 -155 0
-130 -156 0
-130 -157 0
-130 -158 0
-130 -159 0
-130 -160 0
-130 -161 0
-130 -162 0
-130 -163 0
-130 -164 0
-131 -132 0
-131 -133 0
-131 -134 0
-131 -135 0
-131 -136 0
-131 -137 0
-131 -138 0
-131 -139 0
-131 -140 0
-131 -141 0
-131 -142 0
-131 -143 0
-131 -144 0
-131 -145 0
-131 -146 0
-131 -147 0
-131 -148 0
-131 -149 0
-131 -150 0
-131 -151 0
-131 -152 0
-131 -153 0
-131 -154 0
-131 -155 0
-131 -156 0
-131 -157 0
-131 -158 0
-131 -159 0
-131 -160 0
-131 -161 0
-131 -162 0
-131 -163 0
-131 -164 0
-132 -133 0
-132 -134 0
-132 -135 0
-132 -136 0
-132 -137 0
-132 -138 0
-132 -139 0
-132 -140 0
-132 -141 0
-132 -142 0
-132 -143 0
-132 -144 0
-132 -145 0
-132 -146 0
-132 -147 0
-132 -148 0
-132 -149 0
-132 -150 0
-132 -151 0
-132 -152 0
-132 -153 0
-132 -154 0
-132 -155 0
-132 -156 0
-132 -157 0
-132 -158 0
-132 -159 0
-132 -160 0
-132 -161 0
-132 -162 0
-132 -163 0
-132 -164 0
-133 -134 0
-133 -135 0
-133 -136 0
-133 -137 0
-133 -138 0
-133 -139 0
-133 -140 0
-133 -141 0
-133 -142 0
-133 -143 0
-133 -144 0
-133 -145 0
-133 -146 0
-133 -147 0
-133 -148 0
-133 -149 0
-133 -150 0
-133 -151 0
-133 -152 0
-133 -153 0
-133 -154 0
-133 -155 0
-133 -156 0
-133 -157 0
-133 -158 0
-133 -159 0
-133 -160 0
-133 -161 0
-133 -162 0
-133 -163 0
-133 -164 0
-134 -135 0
-134 -136 0
-134 -137 0
-134 -138 0
-134 -139 0
-134 -140 0
-134 -141 0
-134 -142 0
-134 -143 0
-134 -144 0
-134 -145 0
-134 -146 0
-134 -147 0
-134 -148 0
-134 -149 0
-134 -150 0
-134 -151 0
-134 -152 0
-134 -153 0
-134 -154 0
-134 -155 0
-134 -156 0
-134 -157 0
-134 -158 0
-134 -159 0
-134 -160 0
-134 -161 0
-134 -162 0
-134 -163 0
-134 -164 0
-135 -136 0
-135 -137 0
-135 -138 0
-135 -139 0
-135 -140 0
-135 -141 0
-135 -142 0
-135 -143 0
-135 -144 0
-135 -145 0
-135 -146 0
-135 -147 0
-135 -148 0
-135 -149 0
-135 -150 0
-135 -151 0
-135 -152 0
-135 -153 0
-135 -154 0
-135 -155 0
-135 -156 0
-135 -157 0
-135 -158 0
-135 -159 0
-135 -160 0
-135 -161 0
-135 -162 0
-135 -163 0
-135 -164 0
-136 -137 0
-136 -138 0
-136 -139 0
-136 -140 0
-136 -141 0
-136 -142 0
-136 -143 0
-136 -144 0
-136 -145 0
-136 -146 0
-136 -147 0
-136 -148 0
-136 -149 0
-136 -150 0
-136 -151 0
-136 -152 0
-136 -153 0
-136 -154 0
-136 -155 0
-136 -156 0
-136 -157 0
-136 -158 0
-136 -159 0
-136 -160 0
-136 -161 0
-136 -162 0
-136 -163 0
-136 -164 0
-137 -138 0
-137 -139 0
-137 -140 0
-137 -141 0
-137 -142 0
-137 -143 0
-137 -144 0
-137 -145 0
-137 -146 0
-137 -147 0
-137 -148 0
-137 -149 0
-137 -150 0
-137 -151 0
-137 -152 0
-137 -153 0
-137 -154 0
-137 -155 0
-137 -156 0
-137 -157 0
-137 -158 0
-137 -159 0
-137 -160 0
-137 -161 0
-137 -162 0
-137 -163 0
-137 -164 0
-138 -139 0
-138 -140 0
-138 -141 0
-138 -142 0
-138 -143 0
-138 -144 0
-138 -145 0
-138 -146 0
-138 -147 0
-138 -148 0
-138 -149 0
-138 -150 0
-138 -151 0
-138 -152 0
-138 -153 0
-138 -154 0
-138 -155 0
-138 -156 0
-138 -157 0
-138 -158 0
-138 -159 0
-138 -160 0
-138 -161 0
-138 -162 0
-138 -163 0
-138 -164 0
-139 -140 0
-139 -141 0
-139 -142 0
-139 -143 0
-139 -144 0
-139 -145 0
-139 -146 0
-139 -147 0
-139 -148 0
-139 -149 0
-139 -150 0
-139 -151 0
-139 -152 0
-139 -153 0
-139 -154 0
-139 -155 0
-139 -156 0
-139 -157 0
-139 -158 0
-139 -159 0
-139 -160 0
-139 -161 0
-139 -162 0
-139 -163 0
-139 -164 0
-140 -141 0
-140 -142 0
-140 -143 0
-140 -144 0
-140 -145 0
-140 -146 0
-140 -147 0
-140 -148 0
-140 -149 0
-140 -150 0
-140 -151 0
-140 -152 0
-140 -153 0
-140 -154 0
-140 -155 0
-140 -156 0
-140 -157 0
-140 -158 0
-140 -159 0
-140 -160 0
-140 -161 0
-140 -162 0
-140 -163 0
-140 -164 0
-141 -142 0
-141 -143 0
-141 -144 0
-141 -145 0
-141 -146 0
-141 -147 0
-141 -148 0
-141 -149 0
-141 -150 0
-141 -151 0
-141 -152 0
-141 -153 0
-141 -154 0
-141 -155 0
-141 -156 0
-141 -157 0
-141 -158 0
-141 -159 0
-141 -160 0
-141 -161 0
-141 -162 0
-141 -163 0
-141 -164 0
-142 -143 0
-142 -144 0
-142 -145 0
-142 -146 0
-142 -147 0
-142 -148 0
-142 -149 0
-142 -150 0
-142 -151 0
-142 -152 0
-142 -153 0
-142 -154 0
-142 -155 0
-142 -156 0
-142 -157 0
-142 -158 0
-142 -159 0
-142 -160 0
-142 -161 0
-142 -162 0
-142 -163 0
-142 -164 0
-143 -144 0
-143 -145 0
-143 -146 0
-143 -147 0
-143 -148 0
-143 -149 0
-143 -150 0
-143 -151 0
-143 -152 0
-143 -153 0
-143 -154 0
-143 -155 0
-143 -156 0
-143 -157 0
-143 -158 0
-143 -159 0
-143 -160 0
-143 -161 0
-143 -162 0
-143 -163 0
-143 -164 0
-144 -145 0
-144 -146 0
-144 -147 0
-144 -148 0
-144 -149 0
-144 -150 0
-144 -151 0
-144 -152 0
-144 -153 0
-144 -154 0
-144 -155 0
-144 -156 0
-144 -157 0
-144 -158 0
-144 -159 0
-144 -160 0
-144 -161 0
-144 -162 0
-144 -163 0
-144 -164 0
-145 -146 0
-145 -147 0
-145 -148 0
-145 -149 0
-145 -150 0
-145 -151 0
-145 -152 0
-145 -153 0
-145 -154 0
-145 -155 0
-145 -156 0
-145 -157 0
-145 -158 0
-145 -159 0
-145 -160 0
-145 -161 0
-145 -162 0
-145 -163 0
-145 -164 0
-146 -147 0
-146 -148 0
-146 -149 0
-146 -150 0
-146 -151 0
-146 -152 0
-146 -153 0
-146 -154 0
-146 -155 0
-146 -156 0
-146 -157 0
-146 -158 0
-146 -159 0
-146 -160 0
-146 -161 0
-146 -162 0
-146 -163 0
-146 -164 0
-147 -148 0
-147 -149 0
-147 -150 0
-147 -151 0
-147 -152 0
-147 -153 0
-147 -154 0
-147 -155 0
-147 -156 0
-147 -157 0
-147 -158 0
-147 -159 0
-147 -160 0
-147 -161 0
-147 -162 0
-147 -163 0
-147 -164 0
-148 -149 0
-148 -150 0
-148 -151 0
-148 -152 0
-148 -153 0
-148 -154 0
-148 -155 0
-148 -156 0
-148 -157 0
-148 -158 0
-148 -159 0
-148 -160 0
-148 -161 0
-148 -162 0
-148 -163 0
-148 -164 0
-149 -150 0
-149 -151 0
-149 -152 0
-149 -153 0
-149 -154 0
-149 -155 0
-149 -156 0
-149 -157 0
-149 -158 0
-149 -159 0
-149 -160 0
-149 -161 0
-149 -162 0
-149 -163 0
-149 -164 0
-150 -151 0
-150 -152 0
-150 -153 0
-150 -154 0
-150 -155 0
-150 -156 0
-150 -157 0
-150 -158 0
-150 -159 0
-150 -160 0
-150 -161 0
-150 -162 0
-150 -163 0
-150 -164 0
-151 -152 0
-151 -153 0
-151 -154 0
-151 -155 0
-151 -156 0
-151 -157 0
-151 -158 0
-151 -159 0
-151 -160 0
-151 -161 0
-151 -162 0
-151 -163 0
-151 -164 0
-152 -153 0
-152 -154 0
-152 -155 0
-152 -156 0
-152 -157 0
-152 -158 0
-152 -159 0
-152 -160 0
-152 -161 0
-152 -162 0
-152 -163 0
-152 -164 0
-153 -154 0
-153 -155 0
-153 -156 0
-153 -157 0
-153 -158 0
-153 -159 0
-153 -160 0
-153 -161 0
-153 -162 0
-153 -163 0
-153 -164 0
-154 -155 0
-154 -156 0
-154 -157 0
-154 -158 0
-154 -159 0
-154 -160 0
-154 -161 0
-154 -162 0
-154 -163 0
-154 -164 0
-155 -156 0
-155 -157 0
-155 -158 0
-155 -159 0
-155 -160 0
-155 -161 0
-155 -162 0
-155 -163 0
-155 -164 0
-156 -157 0
-156 -158 0
-156 -159 0
-156 -160 0
-156 -161 0
-156 -162 0
-156 -163 0
-156 -164 0
-157 -158 0
-157 -159 0
-157 -160 0
-157 -161 0
-157 -162 0
-157 -163 0
-157 -164 0
-158 -159 0
-158 -160 0
-158 -161 0
-158 -162 0
-158 -163 0
-158 -164 0
-159 -160 0
-159 -161 0
-159 -162 0
-159 -163 0
-159 -164 0
-160 -161 0
-160 -162 0
-160 -163 0
-160 -164 0
-161 -162 0
-161 -163 0
-161 -164 0
-162 -163 0
-162 -164 0
-163 -164 0
-105 -33 0
-105 -34 0
-105 -35 0
-105 36 0
-105 -37 0
-105 -38 0
-105 -39 0
-105 40 0
-105 -41 0
-105 -42 0
-105 -43 0
-105 44 0
-105 -45 0
-105 -46 0
-105 -47 0
-105 48 0
-105 -49 0
-105 -50 0
-105 -51 0
-105 52 0
-105 -53 0
-105 -54 0
-105 -55 0
-105 56 0
-105 -57 0
-105 -58 0
-105 -59 0
-105 60 0
-105 -61 0
-105 -62 0
-105 -63 0
-105 64 0
-106 -33 0
-106 34 0
-106 -35 0
-106 -36 0
-106 -37 0
-106 38 0
-106 -39 0
-106 -40 0
-106 -41 0
-106 42 0
-106 -43 0
-106 -44 0
-106 -45 0
-106 46 0
-106 -47 0
-106 -48 0
-106 -49 0
-106 50 0
-106 -51 0
-106 -52 0
-106 -53 0
-106 54 0
-106 -55 0
-106 -56 0
-106 -57 0
-106 58 0
-106 -59 0
-106 -60 0
-106 -61 0
-106 62 0
-106 -63 0
-106 -64 0
-107 -33 0
-107 -34 0
-107 35 0
-107 -36 0
-107 -37 0
-107 -38 0
-107 39 0
-107 -40 0
-107 -41 0
-107 -42 0
-107 43 0
-107 -44 0
-107 -45 0
-107 -46 0
-107 47 0
-107 -48 0
-107 -49 0
-107 -50 0
-107 51 0
-107 -52 0
-107 -53 0
-107 -54 0
-107 55 0
-107 -56 0
-107 -57 0
-107 -58 0
-107 59 0
-107 -60 0
-107 -61 0
-107 -62 0
-107 63 0
-107 -64 0
-108 33 0
-108 -34 0
-108 -35 0
-108 -36 0
-108 37 0
-108 -38 0
-108 -39 0
-108 -40 0
-108 41 0
-108 -42 0
-108 -43 0
-108 -44 0
-108 45 0
-108 -46 0
-108 -47 0
-108 -48 0
-108 49 0
-108 -50 0
-108 -51 0
-108 -52 0
-108 53 0
-108 -54 0
-108 -55 0
-108 -56 0
-108 57 0
-108 -58 0
-108 -59 0
-108 -60 0
-108 61 0
-108 -62 0
-108 -63 0
-108 -64 0
-109 -33 0
-109 -34 0
-109 -35 0
-109 -36 0
-109 -37 0
-109 38 0
-109 -39 0
-109 40 0
-109 -41 0
-109 -42 0
-109 -43 0
-109 -44 0
-109 -45 0
-109 46 0
-109 -47 0
-109 48 0
-109 -49 0
-109 -50 0
-109 -51 0
-109 -52 0
-109 -53 0
-109 54 0
-109 -55 0
-109 56 0
-109 -57 0
-109 -58 0
-109 -59 0
-109 -60 0
-109 -61 0
-109 62 0
-109 -63 0
-109 64 0
-110 -33 0
-110 34 0
-110 -35 0
-110 36 0
-110 -37 0
-110 -38 0
-110 -39 0
-110 -40 0
-110 -41 0
-110 42 0
-110 -43 0
-110 44 0
-110 -45 0
-110 -46 0
-110 -47 0
-110 -48 0
-110 -49 0
-110 50 0
-110 -51 0
-110 52 0
-110 -53 0
-110 -54 0
-110 -55 0
-110 -56 0
-110 -57 0
-110 58 0
-110 -59 0
-110 60 0
-110 -61 0
-110 -62 0
-110 -63 0
-110 -64 0
-111 -33 0
-111 -34 0
-111 -35 0
-111 -36 0
-111 37 0
-111 -38 0
-111 39 0
-111 -40 0
-111 -41 0
-111 -42 0
-111 -43 0
-111 -44 0
-111 45 0
-111 -46 0
-111 47 0
-111 -48 0
-111 -49 0
-111 -50 0
-111 -51 0
-111 -52 0
-111 53 0
-111 -54 0
-111 55 0
-111 -56 0
-111 -57 0
-111 -58 0
-111 -59 0
-111 -60 0
-111 61 0
-111 -62 0
-111 63 0
-111 -64 0
-112 33 0
-112 -34 0
-112 35 0
-112 -36 0
-112 -37 0
-112 -38 0
-112 -39 0
-112 -40 0
-112 41 0
-112 -42 0
-112 43 0
-112 -44 0
-112 -45 0
-112 -46 0
-112 -47 0
-112 -48 0
-112 49 0
-112 -50 0
-112 51 0
-112 -52 0
-112 -53 0
-112 -54 0
-112 -55 0
-112 -56 0
-112 57 0
-112 -58 0
-112 59 0
-112 -60 0
-112 -61 0
-112 -62 0
-112 -63 0
-112 -64 0
-113 -33 0
-113 -34 0
-113 -35 0
-113 -36 0
-113 -37 0
-113 -38 0
-113 -39 0
-113 -40 0
-113 -41 0
-113 42 0
-113 -43 0
-113 44 0
-113 -45 0
-113 46 0
-113 -47 0
-113 48 0
-113 -49 0
-113 -50 0
-113 -51 0
-113 -52 0
-113 -53 0
-113 -54 0
-113 -55 0
-113 -56 0
-113 -57 0
-113 58 0
-113 -59 0
-113 60 0
-113 -61 0
-113 62 0
-113 -63 0
-113 64 0
-114 -33 0
-114 34 0
-114 -35 0
-114 36 0
-114 -37 0
-114 38 0
-114 -39 0
-114 40 0
-114 -41 0
-114 -42 0
-114 -43 0
-114 -44 0
-114 -45 0
-114 -46 0
-114 -47 0
-114 -48 0
-114 -49 0
-114 50 0
-114 -51 0
-114 52 0
-114 -53 0
-114 54 0
-114 -55 0
-114 56 0
-114 -57 0
-114 -58 0
-114 -59 0
-114 -60 0
-114 -61 0
-114 -62 0
-114 -63 0
-114 -64 0
-115 -33 0
-115 -34 0
-115 -35 0
-115 -36 0
-115 -37 0
-115 -38 0
-115 -39 0
-115 -40 0
-115 41 0
-115 -42 0
-115 43 0
-115 -44 0
-115 45 0
-115 -46 0
-115 47 0
-115 -48 0
-115 -49 0
-115 -50 0
-115 -51 0
-115 -52 0
-115 -53 0
-115 -54 0
-115 -55 0
-115 -56 0
-115 57 0
-115 -58 0
-115 59 0
-115 -60 0
-115 61 0
-115 -62 0
-115 63 0
-115 -64 0
-116 33 0
-116 -34 0
-116 35 0
-116 -36 0
-116 37 0
-116 -38 0
-116 39 0
-116 -40 0
-116 -41 0
-116 -42 0
-116 -43 0
-116 -44 0
-116 -45 0
-116 -46 0
-116 -47 0
-116 -48 0
-116 49 0
-116 -50 0
-116 51 0
-116 -52 0
-116 53 0
-116 -54 0
-116 55 0
-116 -56 0
-116 -57 0
-116 -58 0
-116 -59 0
-116 -60 0
-116 -61 0
-116 -62 0
-116 -63 0
-116 -64 0
-117 -33 0
-117 -34 0
-117 -35 0
-117 -36 0
-117 -37 0
-117 -38 0
-117 -39 0
-117 -40 0
-117 -41 0
-117 -42 0
-117 -43 0
-117 -44 0
-117 -45 0
-117 -46 0
-117 -47 0
-117 -48 0
-117 -49 0
-117 50 0
-117 -51 0
-117 52 0
-117 -53 0
-117 54 0
-117 -55 0
-117 56 0
-117 -57 0
-117 58 0
-117 -59 0
-117 60 0
-117 -61 0
-117 62 0
-117 -63 0
-117 64 0
-118 -33 0
-118 34 0
-118 -35 0
-118 36 0
-118 -37 0
-118 38 0
-118 -39 0
-118 40 0
-118 -41 0
-118 42 0
-118 -43 0
-118 44 0
-118 -45 0
-118 46 0
-118 -47 0
-118 48 0
-118 -49 0
-118 -50 0
-118 -51 0
-118 -52 0
-118 -53 0
-118 -54 0
-118 -55 0
-118 -56 0
-118 -57 0
-118 -58 0
-118 -59 0
-118 -60 0
-118 -61 0
-118 -62 0
-118 -63 0
-118 -64 0
-119 -33 0
-119 -34 0
-119 -35 0
-119 -36 0
-119 -37 0
-119 -38 0
-119 -39 0
-119 -40 0
-119 -41 0
-119 -42 0
-119 -43 0
-119 -44 0
-119 -45 0
-119 -46 0
-119 -47 0
-119 -48 0
-119 49 0
-119 -50 0
-119 51 0
-119 -52 0
-119 53 0
-119 -54 0
-119 55 0
-119 -56 0
-119 57 0
-119 -58 0
-119 59 0
-119 -60 0
-119 61 0
-119 -62 0
-119 63 0
-119 -64 0
-120 33 0
-120 -34 0
-120 35 0
-120 -36 0
-120 37 0
-120 -38 0
-120 39 0
-120 -40 0
-120 41 0
-120 -42 0
-120 43 0
-120 -44 0
-120 45 0
-120 -46 0
-120 47 0
-120 -48 0
-120 -49 0
-120 -50 0
-120 -51 0
-120 -52 0
-120 -53 0
-120 -54 0
-120 -55 0
-120 -56 0
-120 -57 0
-120 -58 0
-120 -59 0
-120 -60 0
-120 -61 0
-120 -62 0
-120 -63 0
-120 -64 0
-121 -33 0
-121 -34 2 0
-121 34 -2 0
-121 -35 0
-121 -36 4 0
-121 36 -4 0
-121 -37 0
-121 -38 6 0
-121 38 -6 0
-121 -39 0
-121 -40 8 0
-121 40 -8 0
-121 -41 0
-121 -42 10 0
-121 42 -10 0
-121 -43 0
-121 -44 12 0
-121 44 -12 0
-121 -45 0
-121 -46 14 0
-121 46 -14 0
-121 -47 0
-121 -48 16 0
-121 48 -16 0
-121 -49 0
-121 -50 18 0
-121 50 -18 0
-121 -51 0
-121 -52 20 0
-121 52 -20 0
-121 -53 0
-121 -54 22 0
-121 54 -22 0
-121 -55 0
-121 -56 24 0
-121 56 -24 0
-121 -57 0
-121 -58 26 0
-121 58 -26 0
-121 -59 0
-121 -60 28 0
-121 60 -28 0
-121 -61 0
-121 -62 30 0
-121 62 -30 0
-121 -63 0
-121 -64 32 0
-121 64 -32 0
-122 -33 0
-122 -34 -2 0
-122 34 2 0
-122 -35 0
-122 -36 -4 0
-122 36 4 0
-122 -37 0
-122 -38 -6 0
-122 38 6 0
-122 -39 0
-122 -40 -8 0
-122 40 8 0
-122 -41 0
-122 -42 -10 0
-122 42 10 0
-122 -43 0
-122 -44 -12 0
-122 44 12 0
-122 -45 0
-122 -46 -14 0
-122 46 14 0
-122 -47 0
-122 -48 -16 0
-122 48 16 0
-122 -49 0
-122 -50 -18 0
-122 50 18 0
-122 -51 0
-122 -52 -20 0
-122 52 20 0
-122 -53 0
-122 -54 -22 0
-122 54 22 0
-122 -55 0
-122 -56 -24 0
-122 56 24 0
-122 -57 0
-122 -58 -26 0
-122 58 26 0
-122 -59 0
-122 -60 -28 0
-122 60 28 0
-122 -61 0
-122 -62 -30 0
-122 62 30 0
-122 -63 0
-122 -64 -32 0
-122 64 32 0
-123 -33 1 0
-123 33 -1 0
-123 -34 0
-123 -35 3 0
-123 35 -3 0
-123 -36 0
-123 -37 5 0
-123 37 -5 0
-123 -38 0
-123 -39 7 0
-123 39 -7 0
-123 -40 0
-123 -41 9 0
-123 41 -9 0
-123 -42 0
-123 -43 11 0
-123 43 -11 0
-123 -44 0
-123 -45 13 0
-123 45 -13 0
-123 -46 0
-123 -47 15 0
-123 47 -15 0
-123 -48 0
-123 -49 17 0
-123 49 -17 0
-123 -50 0
-123 -51 19 0
-123 51 -19 0
-123 -52 0
-123 -53 21 0
-123 53 -21 0
-123 -54 0
-123 -55 23 0
-123 55 -23 0
-123 -56 0
-123 -57 25 0
-123 57 -25 0
-123 -58 0
-123 -59 27 0
-123 59 -27 0
-123 -60 0
-123 -61 29 0
-123 61 -29 0
-123 -62 0
-123 -63 31 0
-123 63 -31 0
-123 -64 0
-124 -33 -1 0
-124 33 1 0
-124 -34 0
-124 -35 -3 0
-124 35 3 0
-124 -36 0
-124 -37 -5 0
-124 37 5 0
-124 -38 0
-124 -39 -7 0
-124 39 7 0
-124 -40 0
-124 -41 -9 0
-124 41 9 0
-124 -42 0
-124 -43 -11 0
-124 43 11 0
-124 -44 0
-124 -45 -13 0
-124 45 13 0
-124 -46 0
-124 -47 -15 0
-124 47 15 0
-124 -48 0
-124 -49 -17 0
-124 49 17 0
-124 -50 0
-124 -51 -19 0
-124 51 19 0
-124 -52 0
-124 -53 -21 0
-124 53 21 0
-124 -54 0
-124 -55 -23 0
-124 55 23 0
-124 -56 0
-124 -57 -25 0
-124 57 25 0
-124 -58 0
-124 -59 -27 0
-124 59 27 0
-124 -60 0
-124 -61 -29 0
-124 61 29 0
-124 -62 0
-124 -63 -31 0
-124 63 31 0
-124 -64 0
-125 -33 0
-125 -34 0
-125 -35 0
-125 -36 0
-125 -37 0
-125 -38 0
-125 39 0
-125 40 0
-125 -41 0
-125 -42 0
-125 -43 0
-125 -44 0
-125 -45 0
-125 -46 0
-125 47 0
-125 48 0
-125 -49 0
-125 -50 0
-125 -51 0
-125 -52 0
-125 -53 0
-125 -54 0
-125 55 0
-125 56 0
-125 -57 0
-125 -58 0
-125 -59 0
-125 -60 0
-125 -61 0
-125 -62 0
-125 63 0
-125 64 0
-126 -33 0
-126 -34 0
-126 35 0
-126 36 0
-126 -37 0
-126 -38 0
-126 -39 0
-126 -40 0
-126 -41 0
-126 -42 0
-126 43 0
-126 44 0
-126 -45 0
-126 -46 0
-126 -47 0
-126 -48 0
-126 -49 0
-126 -50 0
-126 51 0
-126 52 0
-126 -53 0
-126 -54 0
-126 -55 0
-126 -56 0
-126 -57 0
-126 -58 0
-126 59 0
-126 60 0
-126 -61 0
-126 -62 0
-126 -63 0
-126 -64 0
-127 -33 0
-127 -34 0
-127 -35 0
-127 -36 0
-127 37 0
-127 38 0
-127 -39 0
-127 -40 0
-127 -41 0
-127 -42 0
-127 -43 0
-127 -44 0
-127 45 0
-127 46 0
-127 -47 0
-127 -48 0
-127 -49 0
-127 -50 0
-127 -51 0
-127 -52 0
-127 53 0
-127 54 0
-127 -55 0
-127 -56 0
-127 -57 0
-127 -58 0
-127 -59 0
-127 -60 0
-127 61 0
-127 62 0
-127 -63 0
-127 -64 0
-128 33 0
-128 34 0
-128 -35 0
-128 -36 0
-128 -37 0
-128 -38 0
-128 -39 0
-128 -40 0
-128 41 0
-128 42 0
-128 -43 0
-128 -44 0
-128 -45 0
-128 -46 0
-128 -47 0
-128 -48 0
-128 49 0
-128 50 0
-128 -51 0
-128 -52 0
-128 -53 0
-128 -54 0
-128 -55 0
-128 -56 0
-128 57 0
-128 58 0
-128 -59 0
-128 -60 0
-128 -61 0
-128 -62 0
-128 -63 0
-128 -64 0
-129 -33 0
-129 -34 0
-129 -35 0
-129 -36 0
-129 -37 0
-129 -38 0
-129 -39 0
-129 -40 0
-129 -41 0
-129 -42 0
-129 43 0
-129 44 0
-129 -45 0
-129 -46 0
-129 47 0
-129 48 0
-129 -49 0
-129 -50 0
-129 -51 0
-129 -52 0
-129 -53 0
-129 -54 0
-129 -55 0
-129 -56 0
-129 -57 0
-129 -58 0
-129 59 0
-129 60 0
-129 -61 0
-129 -62 0
-129 63 0
-129 64 0
-130 -33 0
-130 -34 0
-130 35 0
-130 36 0
-130 -37 0
-130 -38 0
-130 39 0
-130 40 0
-130 -41 0
-130 -42 0
-130 -43 0
-130 -44 0
-130 -45 0
-130 -46 0
-130 -47 0
-130 -48 0
-130 -49 0
-130 -50 0
-130 51 0
-130 52 0
-130 -53 0
-130 -54 0
-130 55 0
-130 56 0
-130 -57 0
-130 -58 0
-130 -59 0
-130 -60 0
-130 -61 0
-130 -62 0
-130 -63 0
-130 -64 0
-131 -33 0
-131 -34 0
-131 -35 0
-131 -36 0
-131 -37 0
-131 -38 0
-131 -39 0
-131 -40 0
-131 41 0
-131 42 0
-131 -43 0
-131 -44 0
-131 45 0
-131 46 0
-131 -47 0
-131 -48 0
-131 -49 0
-131 -50 0
-131 -51 0
-131 -52 0
-131 -53 0
-131 -54 0
-131 -55 0
-131 -56 0
-131 57 0
-131 58 0
-131 -59 0
-131 -60 0
-131 61 0
-131 62 0
-131 -63 0
-131 -64 0
-132 33 0
-132 34 0
-132 -35 0
-132 -36 0
-132 37 0
-132 38 0
-132 -39 0
-132 -40 0
-132 -41 0
-132 -42 0
-132 -43 0
-132 -44 0
-132 -45 0
-132 -46 0
-132 -47 0
-132 -48 0
-132 49 0
-132 50 0
-132 -51 0
-132 -52 0
-132 53 0
-132 54 0
-132 -55 0
-132 -56 0
-132 -57 0
-132 -58 0
-132 -59 0
-132 -60 0
-132 -61 0
-132 -62 0
-132 -63 0
-132 -64 0
-133 -33 0
-133 -34 0
-133 -35 0
-133 -36 0
-133 -37 0
-133 -38 0
-133 -39 0
-133 -40 0
-133 -41 0
-133 -42 0
-133 -43 0
-133 -44 0
-133 -45 0
-133 -46 0
-133 -47 0
-133 -48 0
-133 -49 0
-133 -50 0
-133 51 0
-133 52 0
-133 -53 0
-133 -54 0
-133 55 0
-133 56 0
-133 -57 0
-133 -58 0
-133 59 0
-133 60 0
-133 -61 0
-133 -62 0
-133 63 0
-133 64 0
-134 -33 0
-134 -34 0
-134 35 0
-134 36 0
-134 -37 0
-134 -38 0
-134 39 0
-134 40 0
-134 -41 0
-134 -42 0
-134 43 0
-134 44 0
-134 -45 0
-134 -46 0
-134 47 0
-134 48 0
-134 -49 0
-134 -50 0
-134 -51 0
-134 -52 0
-134 -53 0
-134 -54 0
-134 -55 0
-134 -56 0
-134 -57 0
-134 -58 0
-134 -59 0
-134 -60 0
-134 -61 0
-134 -62 0
-134 -63 0
-134 -64 0
-135 -33 0
-135 -34 0
-135 -35 0
-135 -36 0
-135 -37 0
-135 -38 0
-135 -39 0
-135 -40 0
-135 -41 0
-135 -42 0
-135 -43 0
-135 -44 0
-135 -45 0
-135 -46 0
-135 -47 0
-135 -48 0
-135 49 0
-135 50 0
-135 -51 0
-135 -52 0
-135 53 0
-135 54 0
-135 -55 0
-135 -56 0
-135 57 0
-135 58 0
-135 -59 0
-135 -60 0
-135 61 0
-135 62 0
-135 -63 0
-135 -64 0
-136 33 0
-136 34 0
-136 -35 0
-136 -36 0
-136 37 0
-136 38 0
-136 -39 0
-136 -40 0
-136 41 0
-136 42 0
-136 -43 0
-136 -44 0
-136 45 0
-136 46 0
-136 -47 0
-136 -48 0
-136 -49 0
-136 -50 0
-136 -51 0
-136 -52 0
-136 -53 0
-136 -54 0
-136 -55 0
-136 -56 0
-136 -57 0
-136 -58 0
-136 -59 0
-136 -60 0
-136 -61 0
-136 -62 0
-136 -63 0
-136 -64 0
-137 -33 0
-137 -34 0
-137 -35 3 0
-137 35 -3 0
-137 -36 4 0
-137 36 -4 0
-137 -37 0
-137 -38 0
-137 -39 7 0
-137 39 -7 0
-137 -40 8 0
-137 40 -8 0
-137 -41 0
-137 -42 0
-137 -43 11 0
-137 43 -11 0
-137 -44 12 0
-137 44 -12 0
-137 -45 0
-137 -46 0
-137 -47 15 0
-137 47 -15 0
-137 -48 16 0
-137 48 -16 0
-137 -49 0
-137 -50 0
-137 -51 19 0
-137 51 -19 0
-137 -52 20 0
-137 52 -20 0
-137 -53 0
-137 -54 0
-137 -55 23 0
-137 55 -23 0
-137 -56 24 0
-137 56 -24 0
-137 -57 0
-137 -58 0
-137 -59 27 0
-137 59 -27 0
-137 -60 28 0
-137 60 -28 0
-137 -61 0
-137 -62 0
-137 -63 31 0
-137 63 -31 0
-137 -64 32 0
-137 64 -32 0
-138 -33 0
-138 -34 0
-138 -35 -3 0
-138 35 3 0
-138 -36 -4 0
-138 36 4 0
-138 -37 0
-138 -38 0
-138 -39 -7 0
-138 39 7 0
-138 -40 -8 0
-138 40 8 0
-138 -41 0
-138 -42 0
-138 -43 -11 0
-138 43 11 0
-138 -44 -12 0
-138 44 12 0
-138 -45 0
-138 -46 0
-138 -47 -15 0
-138 47 15 0
-138 -48 -16 0
-138 48 16 0
-138 -49 0
-138 -50 0
-138 -51 -19 0
-138 51 19 0
-138 -52 -20 0
-138 52 20 0
-138 -53 0
-138 -54 0
-138 -55 -23 0
-138 55 23 0
-138 -56 -24 0
-138 56 24 0
-138 -57 0
-138 -58 0
-138 -59 -27 0
-138 59 27 0
-138 -60 -28 0
-138 60 28 0
-138 -61 0
-138 -62 0
-138 -63 -31 0
-138 63 31 0
-138 -64 -32 0
-138 64 32 0
-139 -33 1 0
-139 33 -1 0
-139 -34 2 0
-139 34 -2 0
-139 -35 0
-139 -36 0
-139 -37 5 0
-139 37 -5 0
-139 -38 6 0
-139 38 -6 0
-139 -39 0
-139 -40 0
-139 -41 9 0
-139 41 -9 0
-139 -42 10 0
-139 42 -10 0
-139 -43 0
-139 -44 0
-139 -45 13 0
-139 45 -13 0
-139 -46 14 0
-139 46 -14 0
-139 -47 0
-139 -48 0
-139 -49 17 0
-139 49 -17 0
-139 -50 18 0
-139 50 -18 0
-139 -51 0
-139 -52 0
-139 -53 21 0
-139 53 -21 0
-139 -54 22 0
-139 54 -22 0
-139 -55 0
-139 -56 0
-139 -57 25 0
-139 57 -25 0
-139 -58 26 0
-139 58 -26 0
-139 -59 0
-139 -60 0
-139 -61 29 0
-139 61 -29 0
-139 -62 30 0
-139 62 -30 0
-139 -63 0
-139 -64 0
-140 -33 -1 0
-140 33 1 0
-140 -34 -2 0
-140 34 2 0
-140 -35 0
-140 -36 0
-140 -37 -5 0
-140 37 5 0
-140 -38 -6 0
-140 38 6 0
-140 -39 0
-140 -40 0
-140 -41 -9 0
-140 41 9 0
-140 -42 -10 0
-140 42 10 0
-140 -43 0
-140 -44 0
-140 -45 -13 0
-140 45 13 0
-140 -46 -14 0
-140 46 14 0
-140 -47 0
-140 -48 0
-140 -49 -17 0
-140 49 17 0
-140 -50 -18 0
-140 50 18 0
-140 -51 0
-140 -52 0
-140 -53 -21 0
-140 53 21 0
-140 -54 -22 0
-140 54 22 0
-140 -55 0
-140 -56 0
-140 -57 -25 0
-140 57 25 0
-140 -58 -26 0
-140 58 26 0
-140 -59 0
-140 -60 0
-140 -61 -29 0
-140 61 29 0
-140 -62 -30 0
-140 62 30 0
-140 -63 0
-140 -64 0
-141 -33 0
-141 -34 0
-141 -35 0
-141 -36 0
-141 -37 0
-141 -38 0
-141 -39 0
-141 -40 0
-141 -41 0
-141 -42 0
-141 -43 0
-141 -44 0
-141 45 0
-141 46 0
-141 47 0
-141 48 0
-141 -49 0
-141 -50 0
-141 -51 0
-141 -52 0
-141 -53 0
-141 -54 0
-141 -55 0
-141 -56 0
-141 -57 0
-141 -58 0
-141 -59 0
-141 -60 0
-141 61 0
-141 62 0
-141 63 0
-141 64 0
-142 -33 0
-142 -34 0
-142 -35 0
-142 -36 0
-142 37 0
-142 38 0
-142 39 0
-142 40 0
-142 -41 0
-142 -42 0
-142 -43 0
-142 -44 0
-142 -45 0
-142 -46 0
-142 -47 0
-142 -48 0
-142 -49 0
-142 -50 0
-142 -51 0
-142 -52 0
-142 53 0
-142 54 0
-142 55 0
-142 56 0
-142 -57 0
-142 -58 0
-142 -59 0
-142 -60 0
-142 -61 0
-142 -62 0
-142 -63 0
-142 -64 0
-143 -33 0
-143 -34 0
-143 -35 0
-143 -36 0
-143 -37 0
-143 -38 0
-143 -39 0
-143 -40 0
-143 41 0
-143 42 0
-143 43 0
-143 44 0
-143 -45 0
-143 -46 0
-143 -47 0
-143 -48 0
-143 -49 0
-143 -50 0
-143 -51 0
-143 -52 0
-143 -53 0
-143 -54 0
-143 -55 0
-143 -56 0
-143 57 0
-143 58 0
-143 59 0
-143 60 0
-143 -61 0
-143 -62 0
-143 -63 0
-143 -64 0
-144 33 0
-144 34 0
-144 35 0
-144 36 0
-144 -37 0
-144 -38 0
-144 -39 0
-144 -40 0
-144 -41 0
-144 -42 0
-144 -43 0
-144 -44 0
-144 -45 0
-144 -46 0
-144 -47 0
-144 -48 0
-144 49 0
-144 50 0
-144 51 0
-144 52 0
-144 -53 0
-144 -54 0
-144 -55 0
-144 -56 0
-144 -57 0
-144 -58 0
-144 -59 0
-144 -60 0
-144 -61 0
-144 -62 0
-144 -63 0
-144 -64 0
-145 -33 0
-145 -34 0
-145 -35 0
-145 -36 0
-145 -37 0
-145 -38 0
-145 -39 0
-145 -40 0
-145 -41 0
-145 -42 0
-145 -43 0
-145 -44 0
-145 -45 0
-145 -46 0
-145 -47 0
-145 -48 0
-145 -49 0
-145 -50 0
-145 -51 0
-145 -52 0
-145 53 0
-145 54 0
-145 55 0
-145 56 0
-145 -57 0
-145 -58 0
-145 -59 0
-145 -60 0
-145 61 0
-145 62 0
-145 63 0
-145 64 0
-146 -33 0
-146 -34 0
-146 -35 0
-146 -36 0
-146 37 0
-146 38 0
-146 39 0
-146 40 0
-146 -41 0
-146 -42 0
-146 -43 0
-146 -44 0
-146 45 0
-146 46 0
-146 47 0
-146 48 0
-146 -49 0
-146 -50 0
-146 -51 0
-146 -52 0
-146 -53 0
-146 -54 0
-146 -55 0
-146 -56 0
-146 -57 0
-146 -58 0
-146 -59 0
-146 -60 0
-146 -61 0
-146 -62 0
-146 -63 0
-146 -64 0
-147 -33 0
-147 -34 0
-147 -35 0
-147 -36 0
-147 -37 0
-147 -38 0
-147 -39 0
-147 -40 0
-147 -41 0
-147 -42 0
-147 -43 0
-147 -44 0
-147 -45 0
-147 -46 0
-147 -47 0
-147 -48 0
-147 49 0
-147 50 0
-147 51 0
-147 52 0
-147 -53 0
-147 -54 0
-147 -55 0
-147 -56 0
-147 57 0
-147 58 0
-147 59 0
-147 60 0
-147 -61 0
-147 -62 0
-147 -63 0
-147 -64 0
-148 33 0
-148 34 0
-148 35 0
-148 36 0
-148 -37 0
-148 -38 0
-148 -39 0
-148 -40 0
-148 41 0
-148 42 0
-148 43 0
-148 44 0
-148 -45 0
-148 -46 0
-148 -47 0
-148 -48 0
-148 -49 0
-148 -50 0
-148 -51 0
-148 -52 0
-148 -53 0
-148 -54 0
-148 -55 0
-148 -56 0
-148 -57 0
-148 -58 0
-148 -59 0
-148 -60 0
-148 -61 0
-148 -62 0
-148 -63 0
-148 -64 0
-149 -33 0
-149 -34 0
-149 -35 0
-149 -36 0
-149 -37 5 0
-149 37 -5 0
-149 -38 6 0
-149 38 -6 0
-149 -39 7 0
-149 39 -7 0
-149 -40 8 0
-149 40 -8 0
-149 -41 0
-149 -42 0
-149 -43 0
-149 -44 0
-149 -45 13 0
-149 45 -13 0
-149 -46 14 0
-149 46 -14 0
-149 -47 15 0
-149 47 -15 0
-149 -48 16 0
-149 48 -16 0
-149 -49 0
-149 -50 0
-149 -51 0
-149 -52 0
-149 -53 21 0
-149 53 -21 0
-149 -54 22 0
-149 54 -22 0
-149 -55 23 0
-149 55 -23 0
-149 -56 24 0
-149 56 -24 0
-149 -57 0
-149 -58 0
-149 -59 0
-149 -60 0
-149 -61 29 0
-149 61 -29 0
-149 -62 30 0
-149 62 -30 0
-149 -63 31 0
-149 63 -31 0
-149 -64 32 0
-149 64 -32 0
-150 -33 0
-150 -34 0
-150 -35 0
-150 -36 0
-150 -37 -5 0
-150 37 5 0
-150 -38 -6 0
-150 38 6 0
-150 -39 -7 0
-150 39 7 0
-150 -40 -8 0
-150 40 8 0
-150 -41 0
-150 -42 0
-150 -43 0
-150 -44 0
-150 -45 -13 0
-150 45 13 0
-150 -46 -14 0
-150 46 14 0
-150 -47 -15 0
-150 47 15 0
-150 -48 -16 0
-150 48 16 0
-150 -49 0
-150 -50 0
-150 -51 0
-150 -52 0
-150 -53 -21 0
-150 53 21 0
-150 -54 -22 0
-150 54 22 0
-150 -55 -23 0
-150 55 23 0
-150 -56 -24 0
-150 56 24 0
-150 -57 0
-150 -58 0
-150 -59 0
-150 -60 0
-150 -61 -29 0
-150 61 29 0
-150 -62 -30 0
-150 62 30 0
-150 -63 -31 0
-150 63 31 0
-150 -64 -32 0
-150 64 32 0
-151 -33 1 0
-151 33 -1 0
-151 -34 2 0
-151 34 -2 0
-151 -35 3 0
-151 35 -3 0
-151 -36 4 0
-151 36 -4 0
-151 -37 0
-151 -38 0
-151 -39 0
-151 -40 0
-151 -41 9 0
-151 41 -9 0
-151 -42 10 0
-151 42 -10 0
-151 -43 11 0
-151 43 -11 0
-151 -44 12 0
-151 44 -12 0
-151 -45 0
-151 -46 0
-151 -47 0
-151 -48 0
-151 -49 17 0
-151 49 -17 0
-151 -50 18 0
-151 50 -18 0
-151 -51 19 0
-151 51 -19 0
-151 -52 20 0
-151 52 -20 0
-151 -53 0
-151 -54 0
-151 -55 0
-151 -56 0
-151 -57 25 0
-151 57 -25 0
-151 -58 26 0
-151 58 -26 0
-151 -59 27 0
-151 59 -27 0
-151 -60 28 0
-151 60 -28 0
-151 -61 0
-151 -62 0
-151 -63 0
-151 -64 0
-152 -33 -1 0
-152 33 1 0
-152 -34 -2 0
-152 34 2 0
-152 -35 -3 0
-152 35 3 0
-152 -36 -4 0
-152 36 4 0
-152 -37 0
-152 -38 0
-152 -39 0
-152 -40 0
-152 -41 -9 0
-152 41 9 0
-152 -42 -10 0
-152 42 10 0
-152 -43 -11 0
-152 43 11 0
-152 -44 -12 0
-152 44 12 0
-152 -45 0
-152 -46 0
-152 -47 0
-152 -48 0
-152 -49 -17 0
-152 49 17 0
-152 -50 -18 0
-152 50 18 0
-152 -51 -19 0
-152 51 19 0
-152 -52 -20 0
-152 52 20 0
-152 -53 0
-152 -54 0
-152 -55 0
-152 -56 0
-152 -57 -25 0
-152 57 25 0
-152 -58 -26 0
-152 58 26 0
-152 -59 -27 0
-152 59 27 0
-152 -60 -28 0
-152 60 28 0
-152 -61 0
-152 -62 0
-152 -63 0
-152 -64 0
-153 -33 0
-153 -34 0
-153 -35 0
-153 -36 0
-153 -37 0
-153 -38 0
-153 -39 0
-153 -40 0
-153 -41 0
-153 -42 0
-153 -43 0
-153 -44 0
-153 -45 0
-153 -46 0
-153 -47 0
-153 -48 0
-153 -49 0
-153 -50 0
-153 -51 0
-153 -52 0
-153 -53 0
-153 -54 0
-153 -55 0
-153 -56 0
-153 57 0
-153 58 0
-153 59 0
-153 60 0
-153 61 0
-153 62 0
-153 63 0
-153 64 0
-154 -33 0
-154 -34 0
-154 -35 0
-154 -36 0
-154 -37 0
-154 -38 0
-154 -39 0
-154 -40 0
-154 41 0
-154 42 0
-154 43 0
-154 44 0
-154 45 0
-154 46 0
-154 47 0
-154 48 0
-154 -49 0
-154 -50 0
-154 -51 0
-154 -52 0
-154 -53 0
-154 -54 0
-154 -55 0
-154 -56 0
-154 -57 0
-154 -58 0
-154 -59 0
-154 -60 0
-154 -61 0
-154 -62 0
-154 -63 0
-154 -64 0
-155 -33 0
-155 -34 0
-155 -35 0
-155 -36 0
-155 -37 0
-155 -38 0
-155 -39 0
-155 -40 0
-155 -41 0
-155 -42 0
-155 -43 0
-155 -44 0
-155 -45 0
-155 -46 0
-155 -47 0
-155 -48 0
-155 49 0
-155 50 0
-155 51 0
-155 52 0
-155 53 0
-155 54 0
-155 55 0
-155 56 0
-155 -57 0
-155 -58 0
-155 -59 0
-155 -60 0
-155 -61 0
-155 -62 0
-155 -63 0
-155 -64 0
-156 33 0
-156 34 0
-156 35 0
-156 36 0
-156 37 0
-156 38 0
-156 39 0
-156 40 0
-156 -41 0
-156 -42 0
-156 -43 0
-156 -44 0
-156 -45 0
-156 -46 0
-156 -47 0
-156 -48 0
-156 -49 0
-156 -50 0
-156 -51 0
-156 -52 0
-156 -53 0
-156 -54 0
-156 -55 0
-156 -56 0
-156 -57 0
-156 -58 0
-156 -59 0
-156 -60 0
-156 -61 0
-156 -62 0
-156 -63 0
-156 -64 0
-157 -33 0
-157 -34 0
-157 -35 0
-157 -36 0
-157 -37 0
-157 -38 0
-157 -39 0
-157 -40 0
-157 -41 9 0
-157 41 -9 0
-157 -42 10 0
-157 42 -10 0
-157 -43 11 0
-157 43 -11 0
-157 -44 12 0
-157 44 -12 0
-157 -45 13 0
-157 45 -13 0
-157 -46 14 0
-157 46 -14 0
-157 -47 15 0
-157 47 -15 0
-157 -48 16 0
-157 48 -16 0
-157 -49 0
-157 -50 0
-157 -51 0
-157 -52 0
-157 -53 0
-157 -54 0
-157 -55 0
-157 -56 0
-157 -57 25 0
-157 57 -25 0
-157 -58 26 0
-157 58 -26 0
-157 -59 27 0
-157 59 -27 0
-157 -60 28 0
-157 60 -28 0
-157 -61 29 0
-157 61 -29 0
-157 -62 30 0
-157 62 -30 0
-157 -63 31 0
-157 63 -31 0
-157 -64 32 0
-157 64 -32 0
-158 -33 0
-158 -34 0
-158 -35 0
-158 -36 0
-158 -37 0
-158 -38 0
-158 -39 0
-158 -40 0
-158 -41 -9 0
-158 41 9 0
-158 -42 -10 0
-158 42 10 0
-158 -43 -11 0
-158 43 11 0
-158 -44 -12 0
-158 44 12 0
-158 -45 -13 0
-158 45 13 0
-158 -46 -14 0
-158 46 14 0
-158 -47 -15 0
-158 47 15 0
-158 -48 -16 0
-158 48 16 0
-158 -49 0
-158 -50 0
-158 -51 0
-158 -52 0
-158 -53 0
-158 -54 0
-158 -55 0
-158 -56 0
-158 -57 -25 0
-158 57 25 0
-158 -58 -26 0
-158 58 26 0
-158 -59 -27 0
-158 59 27 0
-158 -60 -28 0
-158 60 28 0
-158 -61 -29 0
-158 61 29 0
-158 -62 -30 0
-158 62 30 0
-158 -63 -31 0
-158 63 31 0
-158 -64 -32 0
-158 64 32 0
-159 -33 1 0
-159 33 -1 0
-159 -34 2 0
-159 34 -2 0
-159 -35 3 0
-159 35 -3 0
-159 -36 4 0
-159 36 -4 0
-159 -37 5 0
-159 37 -5 0
-159 -38 6 0
-159 38 -6 0
-159 -39 7 0
-159 39 -7 0
-159 -40 8 0
-159 40 -8 0
-159 -41 0
-159 -42 0
-159 -43 0
-159 -44 0
-159 -45 0
-159 -46 0
-159 -47 0
-159 -48 0
-159 -49 17 0
-159 49 -17 0
-159 -50 18 0
-159 50 -18 0
-159 -51 19 0
-159 51 -19 0
-159 -52 20 0
-159 52 -20 0
-159 -53 21 0
-159 53 -21 0
-159 -54 22 0
-159 54 -22 0
-159 -55 23 0
-159 55 -23 0
-159 -56 24 0
-159 56 -24 0
-159 -57 0
-159 -58 0
-159 -59 0
-159 -60 0
-159 -61 0
-159 -62 0
-159 -63 0
-159 -64 0
-160 -33 -1 0
-160 33 1 0
-160 -34 -2 0
-160 34 2 0
-160 -35 -3 0
-160 35 3 0
-160 -36 -4 0
-160 36 4 0
-160 -37 -5 0
-160 37 5 0
-160 -38 -6 0
-160 38 6 0
-160 -39 -7 0
-160 39 7 0
-160 -40 -8 0
-160 40 8 0
-160 -41 0
-160 -42 0
-160 -43 0
-160 -44 0
-160 -45 0
-160 -46 0
-160 -47 0
-160 -48 0
-160 -49 -17 0
-160 49 17 0
-160 -50 -18 0
-160 50 18 0
-160 -51 -19 0
-160 51 19 0
-160 -52 -20 0
-160 52 20 0
-160 -53 -21 0
-160 53 21 0
-160 -54 -22 0
-160 54 22 0
-160 -55 -23 0
-160 55 23 0
-160 -56 -24 0
-160 56 24 0
-160 -57 0
-160 -58 0
-160 -59 0
-160 -60 0
-160 -61 0
-160 -62 0
-160 -63 0
-160 -64 0
-161 -33 0
-161 -34 0
-161 -35 0
-161 -36 0
-161 -37 0
-161 -38 0
-161 -39 0
-161 -40 0
-161 -41 0
-161 -42 0
-161 -43 0
-161 -44 0
-161 -45 0
-161 -46 0
-161 -47 0
-161 -48 0
-161 -49 17 0
-161 49 -17 0
-161 -50 18 0
-161 50 -18 0
-161 -51 19 0
-161 51 -19 0
-161 -52 20 0
-161 52 -20 0
-161 -53 21 0
-161 53 -21 0
-161 -54 22 0
-161 54 -22 0
-161 -55 23 0
-161 55 -23 0
-161 -56 24 0
-161 56 -24 0
-161 -57 25 0
-161 57 -25 0
-161 -58 26 0
-161 58 -26 0
-161 -59 27 0
-161 59 -27 0
-161 -60 28 0
-161 60 -28 0
-161 -61 29 0
-161 61 -29 0
-161 -62 30 0
-161 62 -30 0
-161 -63 31 0
-161 63 -31 0
-161 -64 32 0
-161 64 -32 0
-162 -33 0
-162 -34 0
-162 -35 0
-162 -36 0
-162 -37 0
-162 -38 0
-162 -39 0
-162 -40 0
-162 -41 0
-162 -42 0
-162 -43 0
-162 -44 0
-162 -45 0
-162 -46 0
-162 -47 0
-162 -48 0
-162 -49 -17 0
-162 49 17 0
-162 -50 -18 0
-162 50 18 0
-162 -51 -19 0
-162 51 19 0
-162 -52 -20 0
-162 52 20 0
-162 -53 -21 0
-162 53 21 0
-162 -54 -22 0
-162 54 22 0
-162 -55 -23 0
-162 55 23 0
-162 -56 -24 0
-162 56 24 0
-162 -57 -25 0
-162 57 25 0
-162 -58 -26 0
-162 58 26 0
-162 -59 -27 0
-162 59 27 0
-162 -60 -28 0
-162 60 28 0
-162 -61 -29 0
-162 61 29 0
-162 -62 -30 0
-162 62 30 0
-162 -63 -31 0
-162 63 31 0
-162 -64 -32 0
-162 64 32 0
-163 -33 1 0
-163 33 -1 0
-163 -34 2 0
-163 34 -2 0
-163 -35 3 0
-163 35 -3 0
-163 -36 4 0
-163 36 -4 0
-163 -37 5 0
-163 37 -5 0
-163 -38 6 0
-163 38 -6 0
-163 -39 7 0
-163 39 -7 0
-163 -40 8 0
-163 40 -8 0
-163 -41 9 0
-163 41 -9 0
-163 -42 10 0
-163 42 -10 0
-163 -43 11 0
-163 43 -11 0
-163 -44 12 0
-163 44 -12 0
-163 -45 13 0
-163 45 -13 0
-163 -46 14 0
-163 46 -14 0
-163 -47 15 0
-163 47 -15 0
-163 -48 16 0
-163 48 -16 0
-163 -49 0
-163 -50 0
-163 -51 0
-163 -52 0
-163 -53 0
-163 -54 0
-163 -55 0
-163 -56 0
-163 -57 0
-163 -58 0
-163 -59 0
-163 -60 0
-163 -61 0
-163 -62 0
-163 -63 0
-163 -64 0
-164 -33 -1 0
-164 33 1 0
-164 -34 -2 0
-164 34 2 0
-164 -35 -3 0
-164 35 3 0
-164 -36 -4 0
-164 36 4 0
-164 -37 -5 0
-164 37 5 0
-164 -38 -6 0
-164 38 6 0
-164 -39 -7 0
-164 39 7 0
-164 -40 -8 0
-164 40 8 0
-164 -41 -9 0
-164 41 9 0
-164 -42 -10 0
-164 42 10 0
-164 -43 -11 0
-164 43 11 0
-164 -44 -12 0
-164 44 12 0
-164 -45 -13 0
-164 45 13 0
-164 -46 -14 0
-164 46 14 0
-164 -47 -15 0
-164 47 15 0
-164 -48 -16 0
-164 48 16 0
-164 -49 0
-164 -50 0
-164 -51 0
-164 -52 0
-164 -53 0
-164 -54 0
-164 -55 0
-164 -56 0
-164 -57 0
-164 -58 0
-164 -59 0
-164 -60 0
-164 -61 0
-164 -62 0
-164 -63 0
-164 -64 0
-65 -105 0
-66 -106 0
-67 -107 0
-68 -108 0
-69 -109 0
-70 -110 0
-71 -111 0
-72 -112 0
-73 -113 0
-74 -114 0
-75 -115 0
-76 -116 0
-77 -117 0
-78 -118 0
-79 -119 0
-80 -120 0
-81 -125 0
-82 -126 0
-83 -127 0
-84 -128 0
-85 -129 0
-86 -130 0
-87 -131 0
-88 -132 0
-89 -133 0
-90 -134 0
-91 -135 0
-92 -136 0
-93 -141 0
-94 -142 0
-95 -143 0
-96 -144 0
-97 -145 0
-98 -146 0
-99 -147 0
-100 -148 0
-101 -153 0
-102 -154 0
-103 -155 0
-104 -156 0
121 122 123 124 137 138 139 140 149 150 151 152 157 158 159 160 161 162 163 164 0
165 -33 0
-165 33 0
165 -34 0
-165 34 0
165 35 0
-165 -35 0
165 -36 0
-165 36 0
165 37 0
-165 -37 0
165 -38 0
-165 38 0
165 39 0
-165 -39 0
165 -40 0
-165 40 0
165 41 0
-165 -41 0
165 -42 0
-165 42 0
165 -43 0
-165 43 0
165 -44 0
-165 44 0
165 -45 0
-165 45 0
165 -46 0
-165 46 0
165 -47 0
-165 47 0
165 -48 0
-165 48 0
165 -49 0
-165 49 0
165 50 0
-165 -50 0
165 51 0
-165 -51 0
165 52 0
-165 -52 0
165 53 0
-165 -53 0
165 -54 0
-165 54 0
165 55 0
-165 -55 0
165 56 0
-165 -56 0
165 57 0
-165 -57 0
165 58 0
-165 -58 0
165 -59 0
-165 59 0
165 -60 0
-165 60 0
165 -61 0
-165 61 0
165 -62 0
-165 62 0
165 -63 0
-165 63 0
165 -64 0
-165 64 0
