p cnf 73 2125
33 34 35 36 37 38 39 40 41 42 43 44 45 46 47 48 49 50 51 52 53 54 55 56 57 58 59 60 61 62 63 64 65 66 67 68 69 70 71 72 0
-33 -34 0
-33 -35 0
-33 -36 0
-33 -37 0
-33 -38 0
-33 -39 0
-33 -40 0
-33 -41 0
-33 -42 0
-33 -43 0
-33 -44 0
-33 -45 0
-33 -46 0
-33 -47 0
-33 -48 0
-33 -49 0
-33 -50 0
-33 -51 0
-33 -52 0
-33 -53 0
-33 -54 0
-33 -55 0
-33 -56 0
-33 -57 0
-33 -58 0
-33 -59 0
-33 -60 0
-33 -61 0
-33 -62 0
-33 -63 0
-33 -64 0
-33 -65 0
-33 -66 0
-33 -67 0
-33 -68 0
-33 -69 0
-33 -70 0
-33 -71 0
-33 -72 0
-34 -35 0
-34 -36 0
-34 -37 0
-34 -38 0
-34 -39 0
-34 -40 0
-34 -41 0
-34 -42 0
-34 -43 0
-34 -44 0
-34 -45 0
-34 -46 0
-34 -47 0
-34 -48 0
-34 -49 0
-34 -50 0
-34 -51 0
-34 -52 0
-34 -53 0
-34 -54 0
-34 -55 0
-34 -56 0
-34 -57 0
-34 -58 0
-34 -59 0
-34 -60 0
-34 -61 0
-34 -62 0
-34 -63 0
-34 -64 0
-34 -65 0
-34 -66 0
-34 -67 0
-34 -68 0
-34 -69 0
-34 -70 0
-34 -71 0
-34 -72 0
-35 -36 0
-35 -37 0
-35 -38 0
-35 -39 0
-35 -40 0
-35 -41 0
-35 -42 0
-35 -43 0
-35 -44 0
-35 -45 0
-35 -46 0
-35 -47 0
-35 -48 0
-35 -49 0
-35 -50 0
-35 -51 0
-35 -52 0
-35 -53 0
-35 -54 0
-35 -55 0
-35 -56 0
-35 -57 0
-35 -58 0
-35 -59 0
-35 -60 0
-35 -61 0
-35 -62 0
-35 -63 0
-35 -64 0
-35 -65 0
-35 -66 0
-35 -67 0
-35 -68 0
-35 -69 0
-35 -70 0
-35 -71 0
-35 -72 0
-36 -37 0
-36 -38 0
-36 -39 0
-36 -40 0
-36 -41 0
-36 -42 0
-36 -43 0
-36 -44 0
-36 -45 0
-36 -46 0
-36 -47 0
-36 -48 0
-36 -49 0
-36 -50 0
-36 -51 0
-36 -52 0
-36 -53 0
-36 -54 0
-36 -55 0
-36 -56 0
-36 -57 0
-36 -58 0
-36 -59 0
-36 -60 0
-36 -61 0
-36 -62 0
-36 -63 0
-36 -64 0
-36 -65 0
-36 -66 0
-36 -67 0
-36 -68 0
-36 -69 0
-36 -70 0
-36 -71 0
-36 -72 0
-37 -38 0
-37 -39 0
-37 -40 0
-37 -41 0
-37 -42 0
-37 -43 0
-37 -44 0
-37 -45 0
-37 -46 0
-37 -47 0
-37 -48 0
-37 -49 0
-37 -50 0
-37 -51 0
-37 -52 0
-37 -53 0
-37 -54 0
-37 -55 0
-37 -56 0
-37 -57 0
-37 -58 0
-37 -59 0
-37 -60 0
-37 -61 0
-37 -62 0
-37 -63 0
-37 -64 0
-37 -65 0
-37 -66 0
-37 -67 0
-37 -68 0
-37 -69 0
-37 -70 0
-37 -71 0
-37 -72 0
-38 -39 0
-38 -40 0
-38 -41 0
-38 -42 0
-38 -43 0
-38 -44 0
-38 -45 0
-38 -46 0
-38 -47 0
-38 -48 0
-38 -49 0
-38 -50 0
-38 -51 0
-38 -52 0
-38 -53 0
-38 -54 0
-38 -55 0
-38 -56 0
-38 -57 0
-38 -58 0
-38 -59 0
-38 -60 0
-38 -61 0
-38 -62 0
-38 -63 0
-38 -64 0
-38 -65 0
-38 -66 0
-38 -67 0
-38 -68 0
-38 -69 0
-38 -70 0
-38 -71 0
-38 -72 0
-39 -40 0
-39 -41 0
-39 -42 0
-39 -43 0
-39 -44 0
-39 -45 0
-39 -46 0
-39 -47 0
-39 -48 0
-39 -49 0
-39 -50 0
-39 -51 0
-39 -52 0
-39 -53 0
-39 -54 0
-39 -55 0
-39 -56 0
-39 -57 0
-39 -58 0
-39 -59 0
-39 -60 0
-39 -61 0
-39 -62 0
-39 -63 0
-39 -64 0
-39 -65 0
-39 -66 0
-39 -67 0
-39 -68 0
-39 -69 0
-39 -70 0
-39 -71 0
-39 -72 0
-40 -41 0
-40 -42 0
-40 -43 0
-40 -44 0
-40 -45 0
-40 -46 0
-40 -47 0
-40 -48 0
-40 -49 0
-40 -50 0
-40 -51 0
-40 -52 0
-40 -53 0
-40 -54 0
-40 -55 0
-40 -56 0
-40 -57 0
-40 -58 0
-40 -59 0
-40 -60 0
-40 -61 0
-40 -62 0
-40 -63 0
-40 -64 0
-40 -65 0
-40 -66 0
-40 -67 0
-40 -68 0
-40 -69 0
-40 -70 0
-40 -71 0
-40 -72 0
-41 -42 0
-41 -43 0
-41 -44 0
-41 -45 0
-41 -46 0
-41 -47 0
-41 -48 0
-41 -49 0
-41 -50 0
-41 -51 0
-41 -52 0
-41 -53 0
-41 -54 0
-41 -55 0
-41 -56 0
-41 -57 0
-41 -58 0
-41 -59 0
-41 -60 0
-41 -61 0
-41 -62 0
-41 -63 0
-41 -64 0
-41 -65 0
-41 -66 0
-41 -67 0
-41 -68 0
-41 -69 0
-41 -70 0
-41 -71 0
-41 -72 0
-42 -43 0
-42 -44 0
-42 -45 0
-42 -46 0
-42 -47 0
-42 -48 0
-42 -49 0
-42 -50 0
-42 -51 0
-42 -52 0
-42 -53 0
-42 -54 0
-42 -55 0
-42 -56 0
-42 -57 0
-42 -58 0
-42 -59 0
-42 -60 0
-42 -61 0
-42 -62 0
-42 -63 0
-42 -64 0
-42 -65 0
-42 -66 0
-42 -67 0
-42 -68 0
-42 -69 0
-42 -70 0
-42 -71 0
-42 -72 0
-43 -44 0
-43 -45 0
-43 -46 0
-43 -47 0
-43 -48 0
-43 -49 0
-43 -50 0
-43 -51 0
-43 -52 0
-43 -53 0
-43 -54 0
-43 -55 0
-43 -56 0
-43 -57 0
-43 -58 0
-43 -59 0
-43 -60 0
-43 -61 0
-43 -62 0
-43 -63 0
-43 -64 0
-43 -65 0
-43 -66 0
-43 -67 0
-43 -68 0
-43 -69 0
-43 -70 0
-43 -71 0
-43 -72 0
-44 -45 0
-44 -46 0
-44 -47 0
-44 -48 0
-44 -49 0
-44 -50 0
-44 -51 0
-44 -52 0
-44 -53 0
-44 -54 0
-44 -55 0
-44 -56 0
-44 -57 0
-44 -58 0
-44 -59 0
-44 -60 0
-44 -61 0
-44 -62 0
-44 -63 0
-44 -64 0
-44 -65 0
-44 -66 0
-44 -67 0
-44 -68 0
-44 -69 0
-44 -70 0
-44 -71 0
-44 -72 0
-45 -46 0
-45 -47 0
-45 -48 0
-45 -49 0
-45 -50 0
-45 -51 0
-45 -52 0
-45 -53 0
-45 -54 0
-45 -55 0
-45 -56 0
-45 -57 0
-45 -58 0
-45 -59 0
-45 -60 0
-45 -61 0
-45 -62 0
-45 -63 0
-45 -64 0
-45 -65 0
-45 -66 0
-45 -67 0
-45 -68 0
-45 -69 0
-45 -70 0
-45 -71 0
-45 -72 0
-46 -47 0
-46 -48 0
-46 -49 0
-46 -50 0
-46 -51 0
-46 -52 0
-46 -53 0
-46 -54 0
-46 -55 0
-46 -56 0
-46 -57 0
-46 -58 0
-46 -59 0
-46 -60 0
-46 -61 0
-46 -62 0
-46 -63 0
-46 -64 0
-46 -65 0
-46 -66 0
-46 -67 0
-46 -68 0
-46 -69 0
-46 -70 0
-46 -71 0
-46 -72 0
-47 -48 0
-47 -49 0
-47 -50 0
-47 -51 0
-47 -52 0
-47 -53 0
-47 -54 0
-47 -55 0
-47 -56 0
-47 -57 0
-47 -58 0
-47 -59 0
-47 -60 0
-47 -61 0
-47 -62 0
-47 -63 0
-47 -64 0
-47 -65 0
-47 -66 0
-47 -67 0
-47 -68 0
-47 -69 0
-47 -70 0
-47 -71 0
-47 -72 0
-48 -49 0
-48 -50 0
-48 -51 0
-48 -52 0
-48 -53 0
-48 -54 0
-48 -55 0
-48 -56 0
-48 -57 0
-48 -58 0
-48 -59 0
-48 -60 0
-48 -61 0
-48 -62 0
-48 -63 0
-48 -64 0
-48 -65 0
-48 -66 0
-48 -67 0
-48 -68 0
-48 -69 0
-48 -70 0
-48 -71 0
-48 -72 0
-49 -50 0
-49 -51 0
-49 -52 0
-49 -53 0
-49 -54 0
-49 -55 0
-49 -56 0
-49 -57 0
-49 -58 0
-49 -59 0
-49 -60 0
-49 -61 0
-49 -62 0
-49 -63 0
-49 -64 0
-49 -65 0
-49 -66 0
-49 -67 0
-49 -68 0
-49 -69 0
-49 -70 0
-49 -71 0
-49 -72 0
-50 -51 0
-50 -52 0
-50 -53 0
-50 -54 0
-50 -55 0
-50 -56 0
-50 -57 0
-50 -58 0
-50 -59 0
-50 -60 0
-50 -61 0
-50 -62 0
-50 -63 0
-50 -64 0
-50 -65 0
-50 -66 0
-50 -67 0
-50 -68 0
-50 -69 0
-50 -70 0
-50 -71 0
-50 -72 0
-51 -52 0
-51 -53 0
-51 -54 0
-51 -55 0
-51 -56 0
-51 -57 0
-51 -58 0
-51 -59 0
-51 -60 0
-51 -61 0
-51 -62 0
-51 -63 0
-51 -64 0
-51 -65 0
-51 -66 0
-51 -67 0
-51 -68 0
-51 -69 0
-51 -70 0
-51 -71 0
-51 -72 0
-52 -53 0
-52 -54 0
-52 -55 0
-52 -56 0
-52 -57 0
-52 -58 0
-52 -59 0
-52 -60 0
-52 -61 0
-52 -62 0
-52 -63 0
-52 -64 0
-52 -65 0
-52 -66 0
-52 -67 0
-52 -68 0
-52 -69 0
-52 -70 0
-52 -71 0
-52 -72 0
-53 -54 0
-53 -55 0
-53 -56 0
-53 -57 0
-53 -58 0
-53 -59 0
-53 -60 0
-53 -61 0
-53 -62 0
-53 -63 0
-53 -64 0
-53 -65 0
-53 -66 0
-53 -67 0
-53 -68 0
-53 -69 0
-53 -70 0
-53 -71 0
-53 -72 0
-54 -55 0
-54 -56 0
-54 -57 0
-54 -58 0
-54 -59 0
-54 -60 0
-54 -61 0
-54 -62 0
-54 -63 0
-54 -64 0
-54 -65 0
-54 -66 0
-54 -67 0
-54 -68 0
-54 -69 0
-54 -70 0
-54 -71 0
-54 -72 0
-55 -56 0
-55 -57 0
-55 -58 0
-55 -59 0
-55 -60 0
-55 -61 0
-55 -62 0
-55 -63 0
-55 -64 0
-55 -65 0
-55 -66 0
-55 -67 0
-55 -68 0
-55 -69 0
-55 -70 0
-55 -71 0
-55 -72 0
-56 -57 0
-56 -58 0
-56 -59 0
-56 -60 0
-56 -61 0
-56 -62 0
-56 -63 0
-56 -64 0
-56 -65 0
-56 -66 0
-56 -67 0
-56 -68 0
-56 -69 0
-56 -70 0
-56 -71 0
-56 -72 0
-57 -58 0
-57 -59 0
-57 -60 0
-57 -61 0
-57 -62 0
-57 -63 0
-57 -64 0
-57 -65 0
-57 -66 0
-57 -67 0
-57 -68 0
-57 -69 0
-57 -70 0
-57 -71 0
-57 -72 0
-58 -59 0
-58 -60 0
-58 -61 0
-58 -62 0
-58 -63 0
-58 -64 0
-58 -65 0
-58 -66 0
-58 -67 0
-58 -68 0
-58 -69 0
-58 -70 0
-58 -71 0
-58 -72 0
-59 -60 0
-59 -61 0
-59 -62 0
-59 -63 0
-59 -64 0
-59 -65 0
-59 -66 0
-59 -67 0
-59 -68 0
-59 -69 0
-59 -70 0
-59 -71 0
-59 -72 0
-60 -61 0
-60 -62 0
-60 -63 0
-60 -64 0
-60 -65 0
-60 -66 0
-60 -67 0
-60 -68 0
-60 -69 0
-60 -70 0
-60 -71 0
-60 -72 0
-61 -62 0
-61 -63 0
-61 -64 0
-61 -65 0
-61 -66 0
-61 -67 0
-61 -68 0
-61 -69 0
-61 -70 0
-61 -71 0
-61 -72 0
-62 -63 0
-62 -64 0
-62 -65 0
-62 -66 0
-62 -67 0
-62 -68 0
-62 -69 0
-62 -70 0
-62 -71 0
-62 -72 0
-63 -64 0
-63 -65 0
-63 -66 0
-63 -67 0
-63 -68 0
-63 -69 0
-63 -70 0
-63 -71 0
-63 -72 0
-64 -65 0
-64 -66 0
-64 -67 0
-64 -68 0
-64 -69 0
-64 -70 0
-64 -71 0
-64 -72 0
-65 -66 0
-65 -67 0
-65 -68 0
-65 -69 0
-65 -70 0
-65 -71 0
-65 -72 0
-66 -67 0
-66 -68 0
-66 -69 0
-66 -70 0
-66 -71 0
-66 -72 0
-67 -68 0
-67 -69 0
-67 -70 0
-67 -71 0
-67 -72 0
-68 -69 0
-68 -70 0
-68 -71 0
-68 -72 0
-69 -70 0
-69 -71 0
-69 -72 0
-70 -71 0
-70 -72 0
-71 -72 0
-33 -1 0
-33 -2 0
-33 -3 0
-33 4 0
-33 -5 0
-33 -6 0
-33 -7 0
-33 8 0
-33 -9 0
-33 -10 0
-33 -11 0
-33 12 0
-33 -13 0
-33 -14 0
-33 -15 0
-33 16 0
-33 -17 0
-33 -18 0
-33 -19 0
-33 20 0
-33 -21 0
-33 -22 0
-33 -23 0
-33 24 0
-33 -25 0
-33 -26 0
-33 -27 0
-33 28 0
-33 -29 0
-33 -30 0
-33 -31 0
-33 32 0
-34 -1 0
-34 2 0
-34 -3 0
-34 -4 0
-34 -5 0
-34 6 0
-34 -7 0
-34 -8 0
-34 -9 0
-34 10 0
-34 -11 0
-34 -12 0
-34 -13 0
-34 14 0
-34 -15 0
-34 -16 0
-34 -17 0
-34 18 0
-34 -19 0
-34 -20 0
-34 -21 0
-34 22 0
-34 -23 0
-34 -24 0
-34 -25 0
-34 26 0
-34 -27 0
-34 -28 0
-34 -29 0
-34 30 0
-34 -31 0
-34 -32 0
-35 -1 0
-35 -2 0
-35 3 0
-35 -4 0
-35 -5 0
-35 -6 0
-35 7 0
-35 -8 0
-35 -9 0
-35 -10 0
-35 11 0
-35 -12 0
-35 -13 0
-35 -14 0
-35 15 0
-35 -16 0
-35 -17 0
-35 -18 0
-35 19 0
-35 -20 0
-35 -21 0
-35 -22 0
-35 23 0
-35 -24 0
-35 -25 0
-35 -26 0
-35 27 0
-35 -28 0
-35 -29 0
-35 -30 0
-35 31 0
-35 -32 0
-36 1 0
-36 -2 0
-36 -3 0
-36 -4 0
-36 5 0
-36 -6 0
-36 -7 0
-36 -8 0
-36 9 0
-36 -10 0
-36 -11 0
-36 -12 0
-36 13 0
-36 -14 0
-36 -15 0
-36 -16 0
-36 17 0
-36 -18 0
-36 -19 0
-36 -20 0
-36 21 0
-36 -22 0
-36 -23 0
-36 -24 0
-36 25 0
-36 -26 0
-36 -27 0
-36 -28 0
-36 29 0
-36 -30 0
-36 -31 0
-36 -32 0
-37 -1 0
-37 -2 0
-37 -3 0
-37 -4 0
-37 -5 0
-37 6 0
-37 -7 0
-37 8 0
-37 -9 0
-37 -10 0
-37 -11 0
-37 -12 0
-37 -13 0
-37 14 0
-37 -15 0
-37 16 0
-37 -17 0
-37 -18 0
-37 -19 0
-37 -20 0
-37 -21 0
-37 22 0
-37 -23 0
-37 24 0
-37 -25 0
-37 -26 0
-37 -27 0
-37 -28 0
-37 -29 0
-37 30 0
-37 -31 0
-37 32 0
-38 -1 0
-38 2 0
-38 -3 0
-38 4 0
-38 -5 0
-38 -6 0
-38 -7 0
-38 -8 0
-38 -9 0
-38 10 0
-38 -11 0
-38 12 0
-38 -13 0
-38 -14 0
-38 -15 0
-38 -16 0
-38 -17 0
-38 18 0
-38 -19 0
-38 20 0
-38 -21 0
-38 -22 0
-38 -23 0
-38 -24 0
-38 -25 0
-38 26 0
-38 -27 0
-38 28 0
-38 -29 0
-38 -30 0
-38 -31 0
-38 -32 0
-39 -1 0
-39 -2 0
-39 -3 0
-39 -4 0
-39 5 0
-39 -6 0
-39 7 0
-39 -8 0
-39 -9 0
-39 -10 0
-39 -11 0
-39 -12 0
-39 13 0
-39 -14 0
-39 15 0
-39 -16 0
-39 -17 0
-39 -18 0
-39 -19 0
-39 -20 0
-39 21 0
-39 -22 0
-39 23 0
-39 -24 0
-39 -25 0
-39 -26 0
-39 -27 0
-39 -28 0
-39 29 0
-39 -30 0
-39 31 0
-39 -32 0
-40 1 0
-40 -2 0
-40 3 0
-40 -4 0
-40 -5 0
-40 -6 0
-40 -7 0
-40 -8 0
-40 9 0
-40 -10 0
-40 11 0
-40 -12 0
-40 -13 0
-40 -14 0
-40 -15 0
-40 -16 0
-40 17 0
-40 -18 0
-40 19 0
-40 -20 0
-40 -21 0
-40 -22 0
-40 -23 0
-40 -24 0
-40 25 0
-40 -26 0
-40 27 0
-40 -28 0
-40 -29 0
-40 -30 0
-40 -31 0
-40 -32 0
-41 -1 0
-41 -2 0
-41 -3 0
-41 -4 0
-41 -5 0
-41 -6 0
-41 -7 0
-41 -8 0
-41 -9 0
-41 10 0
-41 -11 0
-41 12 0
-41 -13 0
-41 14 0
-41 -15 0
-41 16 0
-41 -17 0
-41 -18 0
-41 -19 0
-41 -20 0
-41 -21 0
-41 -22 0
-41 -23 0
-41 -24 0
-41 -25 0
-41 26 0
-41 -27 0
-41 28 0
-41 -29 0
-41 30 0
-41 -31 0
-41 32 0
-42 -1 0
-42 2 0
-42 -3 0
-42 4 0
-42 -5 0
-42 6 0
-42 -7 0
-42 8 0
-42 -9 0
-42 -10 0
-42 -11 0
-42 -12 0
-42 -13 0
-42 -14 0
-42 -15 0
-42 -16 0
-42 -17 0
-42 18 0
-42 -19 0
-42 20 0
-42 -21 0
-42 22 0
-42 -23 0
-42 24 0
-42 -25 0
-42 -26 0
-42 -27 0
-42 -28 0
-42 -29 0
-42 -30 0
-42 -31 0
-42 -32 0
-43 -1 0
-43 -2 0
-43 -3 0
-43 -4 0
-43 -5 0
-43 -6 0
-43 -7 0
-43 -8 0
-43 9 0
-43 -10 0
-43 11 0
-43 -12 0
-43 13 0
-43 -14 0
-43 15 0
-43 -16 0
-43 -17 0
-43 -18 0
-43 -19 0
-43 -20 0
-43 -21 0
-43 -22 0
-43 -23 0
-43 -24 0
-43 25 0
-43 -26 0
-43 27 0
-43 -28 0
-43 29 0
-43 -30 0
-43 31 0
-43 -32 0
-44 1 0
-44 -2 0
-44 3 0
-44 -4 0
-44 5 0
-44 -6 0
-44 7 0
-44 -8 0
-44 -9 0
-44 -10 0
-44 -11 0
-44 -12 0
-44 -13 0
-44 -14 0
-44 -15 0
-44 -16 0
-44 17 0
-44 -18 0
-44 19 0
-44 -20 0
-44 21 0
-44 -22 0
-44 23 0
-44 -24 0
-44 -25 0
-44 -26 0
-44 -27 0
-44 -28 0
-44 -29 0
-44 -30 0
-44 -31 0
-44 -32 0
-45 -1 0
-45 -2 0
-45 -3 0
-45 -4 0
-45 -5 0
-45 -6 0
-45 -7 0
-45 -8 0
-45 -9 0
-45 -10 0
-45 -11 0
-45 -12 0
-45 -13 0
-45 -14 0
-45 -15 0
-45 -16 0
-45 -17 0
-45 18 0
-45 -19 0
-45 20 0
-45 -21 0
-45 22 0
-45 -23 0
-45 24 0
-45 -25 0
-45 26 0
-45 -27 0
-45 28 0
-45 -29 0
-45 30 0
-45 -31 0
-45 32 0
-46 -1 0
-46 2 0
-46 -3 0
-46 4 0
-46 -5 0
-46 6 0
-46 -7 0
-46 8 0
-46 -9 0
-46 10 0
-46 -11 0
-46 12 0
-46 -13 0
-46 14 0
-46 -15 0
-46 16 0
-46 -17 0
-46 -18 0
-46 -19 0
-46 -20 0
-46 -21 0
-46 -22 0
-46 -23 0
-46 -24 0
-46 -25 0
-46 -26 0
-46 -27 0
-46 -28 0
-46 -29 0
-46 -30 0
-46 -31 0
-46 -32 0
-47 -1 0
-47 -2 0
-47 -3 0
-47 -4 0
-47 -5 0
-47 -6 0
-47 -7 0
-47 -8 0
-47 -9 0
-47 -10 0
-47 -11 0
-47 -12 0
-47 -13 0
-47 -14 0
-47 -15 0
-47 -16 0
-47 17 0
-47 -18 0
-47 19 0
-47 -20 0
-47 21 0
-47 -22 0
-47 23 0
-47 -24 0
-47 25 0
-47 -26 0
-47 27 0
-47 -28 0
-47 29 0
-47 -30 0
-47 31 0
-47 -32 0
-48 1 0
-48 -2 0
-48 3 0
-48 -4 0
-48 5 0
-48 -6 0
-48 7 0
-48 -8 0
-48 9 0
-48 -10 0
-48 11 0
-48 -12 0
-48 13 0
-48 -14 0
-48 15 0
-48 -16 0
-48 -17 0
-48 -18 0
-48 -19 0
-48 -20 0
-48 -21 0
-48 -22 0
-48 -23 0
-48 -24 0
-48 -25 0
-48 -26 0
-48 -27 0
-48 -28 0
-48 -29 0
-48 -30 0
-48 -31 0
-48 -32 0
-49 -1 0
-49 -2 0
-49 -3 0
-49 -4 0
-49 -5 0
-49 -6 0
-49 7 0
-49 8 0
-49 -9 0
-49 -10 0
-49 -11 0
-49 -12 0
-49 -13 0
-49 -14 0
-49 15 0
-49 16 0
-49 -17 0
-49 -18 0
-49 -19 0
-49 -20 0
-49 -21 0
-49 -22 0
-49 23 0
-49 24 0
-49 -25 0
-49 -26 0
-49 -27 0
-49 -28 0
-49 -29 0
-49 -30 0
-49 31 0
-49 32 0
-50 -1 0
-50 -2 0
-50 3 0
-50 4 0
-50 -5 0
-50 -6 0
-50 -7 0
-50 -8 0
-50 -9 0
-50 -10 0
-50 11 0
-50 12 0
-50 -13 0
-50 -14 0
-50 -15 0
-50 -16 0
-50 -17 0
-50 -18 0
-50 19 0
-50 20 0
-50 -21 0
-50 -22 0
-50 -23 0
-50 -24 0
-50 -25 0
-50 -26 0
-50 27 0
-50 28 0
-50 -29 0
-50 -30 0
-50 -31 0
-50 -32 0
-51 -1 0
-51 -2 0
-51 -3 0
-51 -4 0
-51 5 0
-51 6 0
-51 -7 0
-51 -8 0
-51 -9 0
-51 -10 0
-51 -11 0
-51 -12 0
-51 13 0
-51 14 0
-51 -15 0
-51 -16 0
-51 -17 0
-51 -18 0
-51 -19 0
-51 -20 0
-51 21 0
-51 22 0
-51 -23 0
-51 -24 0
-51 -25 0
-51 -26 0
-51 -27 0
-51 -28 0
-51 29 0
-51 30 0
-51 -31 0
-51 -32 0
-52 1 0
-52 2 0
-52 -3 0
-52 -4 0
-52 -5 0
-52 -6 0
-52 -7 0
-52 -8 0
-52 9 0
-52 10 0
-52 -11 0
-52 -12 0
-52 -13 0
-52 -14 0
-52 -15 0
-52 -16 0
-52 17 0
-52 18 0
-52 -19 0
-52 -20 0
-52 -21 0
-52 -22 0
-52 -23 0
-52 -24 0
-52 25 0
-52 26 0
-52 -27 0
-52 -28 0
-52 -29 0
-52 -30 0
-52 -31 0
-52 -32 0
-53 -1 0
-53 -2 0
-53 -3 0
-53 -4 0
-53 -5 0
-53 -6 0
-53 -7 0
-53 -8 0
-53 -9 0
-53 -10 0
-53 11 0
-53 12 0
-53 -13 0
-53 -14 0
-53 15 0
-53 16 0
-53 -17 0
-53 -18 0
-53 -19 0
-53 -20 0
-53 -21 0
-53 -22 0
-53 -23 0
-53 -24 0
-53 -25 0
-53 -26 0
-53 27 0
-53 28 0
-53 -29 0
-53 -30 0
-53 31 0
-53 32 0
-54 -1 0
-54 -2 0
-54 3 0
-54 4 0
-54 -5 0
-54 -6 0
-54 7 0
-54 8 0
-54 -9 0
-54 -10 0
-54 -11 0
-54 -12 0
-54 -13 0
-54 -14 0
-54 -15 0
-54 -16 0
-54 -17 0
-54 -18 0
-54 19 0
-54 20 0
-54 -21 0
-54 -22 0
-54 23 0
-54 24 0
-54 -25 0
-54 -26 0
-54 -27 0
-54 -28 0
-54 -29 0
-54 -30 0
-54 -31 0
-54 -32 0
-55 -1 0
-55 -2 0
-55 -3 0
-55 -4 0
-55 -5 0
-55 -6 0
-55 -7 0
-55 -8 0
-55 9 0
-55 10 0
-55 -11 0
-55 -12 0
-55 13 0
-55 14 0
-55 -15 0
-55 -16 0
-55 -17 0
-55 -18 0
-55 -19 0
-55 -20 0
-55 -21 0
-55 -22 0
-55 -23 0
-55 -24 0
-55 25 0
-55 26 0
-55 -27 0
-55 -28 0
-55 29 0
-55 30 0
-55 -31 0
-55 -32 0
-56 1 0
-56 2 0
-56 -3 0
-56 -4 0
-56 5 0
-56 6 0
-56 -7 0
-56 -8 0
-56 -9 0
-56 -10 0
-56 -11 0
-56 -12 0
-56 -13 0
-56 -14 0
-56 -15 0
-56 -16 0
-56 17 0
-56 18 0
-56 -19 0
-56 -20 0
-56 21 0
-56 22 0
-56 -23 0
-56 -24 0
-56 -25 0
-56 -26 0
-56 -27 0
-56 -28 0
-56 -29 0
-56 -30 0
-56 -31 0
-56 -32 0
-57 -1 0
-57 -2 0
-57 -3 0
-57 -4 0
-57 -5 0
-57 -6 0
-57 -7 0
-57 -8 0
-57 -9 0
-57 -10 0
-57 -11 0
-57 -12 0
-57 -13 0
-57 -14 0
-57 -15 0
-57 -16 0
-57 -17 0
-57 -18 0
-57 19 0
-57 20 0
-57 -21 0
-57 -22 0
-57 23 0
-57 24 0
-57 -25 0
-57 -26 0
-57 27 0
-57 28 0
-57 -29 0
-57 -30 0
-57 31 0
-57 32 0
-58 -1 0
-58 -2 0
-58 3 0
-58 4 0
-58 -5 0
-58 -6 0
-58 7 0
-58 8 0
-58 -9 0
-58 -10 0
-58 11 0
-58 12 0
-58 -13 0
-58 -14 0
-58 15 0
-58 16 0
-58 -17 0
-58 -18 0
-58 -19 0
-58 -20 0
-58 -21 0
-58 -22 0
-58 -23 0
-58 -24 0
-58 -25 0
-58 -26 0
-58 -27 0
-58 -28 0
-58 -29 0
-58 -30 0
-58 -31 0
-58 -32 0
-59 -1 0
-59 -2 0
-59 -3 0
-59 -4 0
-59 -5 0
-59 -6 0
-59 -7 0
-59 -8 0
-59 -9 0
-59 -10 0
-59 -11 0
-59 -12 0
-59 -13 0
-59 -14 0
-59 -15 0
-59 -16 0
-59 17 0
-59 18 0
-59 -19 0
-59 -20 0
-59 21 0
-59 22 0
-59 -23 0
-59 -24 0
-59 25 0
-59 26 0
-59 -27 0
-59 -28 0
-59 29 0
-59 30 0
-59 -31 0
-59 -32 0
-60 1 0
-60 2 0
-60 -3 0
-60 -4 0
-60 5 0
-60 6 0
-60 -7 0
-60 -8 0
-60 9 0
-60 10 0
-60 -11 0
-60 -12 0
-60 13 0
-60 14 0
-60 -15 0
-60 -16 0
-60 -17 0
-60 -18 0
-60 -19 0
-60 -20 0
-60 -21 0
-60 -22 0
-60 -23 0
-60 -24 0
-60 -25 0
-60 -26 0
-60 -27 0
-60 -28 0
-60 -29 0
-60 -30 0
-60 -31 0
-60 -32 0
-61 -1 0
-61 -2 0
-61 -3 0
-61 -4 0
-61 -5 0
-61 -6 0
-61 -7 0
-61 -8 0
-61 -9 0
-61 -10 0
-61 -11 0
-61 -12 0
-61 13 0
-61 14 0
-61 15 0
-61 16 0
-61 -17 0
-61 -18 0
-61 -19 0
-61 -20 0
-61 -21 0
-61 -22 0
-61 -23 0
-61 -24 0
-61 -25 0
-61 -26 0
-61 -27 0
-61 -28 0
-61 29 0
-61 30 0
-61 31 0
-61 32 0
-62 -1 0
-62 -2 0
-62 -3 0
-62 -4 0
-62 5 0
-62 6 0
-62 7 0
-62 8 0
-62 -9 0
-62 -10 0
-62 -11 0
-62 -12 0
-62 -13 0
-62 -14 0
-62 -15 0
-62 -16 0
-62 -17 0
-62 -18 0
-62 -19 0
-62 -20 0
-62 21 0
-62 22 0
-62 23 0
-62 24 0
-62 -25 0
-62 -26 0
-62 -27 0
-62 -28 0
-62 -29 0
-62 -30 0
-62 -31 0
-62 -32 0
-63 -1 0
-63 -2 0
-63 -3 0
-63 -4 0
-63 -5 0
-63 -6 0
-63 -7 0
-63 -8 0
-63 9 0
-63 10 0
-63 11 0
-63 12 0
-63 -13 0
-63 -14 0
-63 -15 0
-63 -16 0
-63 -17 0
-63 -18 0
-63 -19 0
-63 -20 0
-63 -21 0
-63 -22 0
-63 -23 0
-63 -24 0
-63 25 0
-63 26 0
-63 27 0
-63 28 0
-63 -29 0
-63 -30 0
-63 -31 0
-63 -32 0
-64 1 0
-64 2 0
-64 3 0
-64 4 0
-64 -5 0
-64 -6 0
-64 -7 0
-64 -8 0
-64 -9 0
-64 -10 0
-64 -11 0
-64 -12 0
-64 -13 0
-64 -14 0
-64 -15 0
-64 -16 0
-64 17 0
-64 18 0
-64 19 0
-64 20 0
-64 -21 0
-64 -22 0
-64 -23 0
-64 -24 0
-64 -25 0
-64 -26 0
-64 -27 0
-64 -28 0
-64 -29 0
-64 -30 0
-64 -31 0
-64 -32 0
-65 -1 0
-65 -2 0
-65 -3 0
-65 -4 0
-65 -5 0
-65 -6 0
-65 -7 0
-65 -8 0
-65 -9 0
-65 -10 0
-65 -11 0
-65 -12 0
-65 -13 0
-65 -14 0
-65 -15 0
-65 -16 0
-65 -17 0
-65 -18 0
-65 -19 0
-65 -20 0
-65 21 0
-65 22 0
-65 23 0
-65 24 0
-65 -25 0
-65 -26 0
-65 -27 0
-65 -28 0
-65 29 0
-65 30 0
-65 31 0
-65 32 0
-66 -1 0
-66 -2 0
-66 -3 0
-66 -4 0
-66 5 0
-66 6 0
-66 7 0
-66 8 0
-66 -9 0
-66 -10 0
-66 -11 0
-66 -12 0
-66 13 0
-66 14 0
-66 15 0
-66 16 0
-66 -17 0
-66 -18 0
-66 -19 0
-66 -20 0
-66 -21 0
-66 -22 0
-66 -23 0
-66 -24 0
-66 -25 0
-66 -26 0
-66 -27 0
-66 -28 0
-66 -29 0
-66 -30 0
-66 -31 0
-66 -32 0
-67 -1 0
-67 -2 0
-67 -3 0
-67 -4 0
-67 -5 0
-67 -6 0
-67 -7 0
-67 -8 0
-67 -9 0
-67 -10 0
-67 -11 0
-67 -12 0
-67 -13 0
-67 -14 0
-67 -15 0
-67 -16 0
-67 17 0
-67 18 0
-67 19 0
-67 20 0
-67 -21 0
-67 -22 0
-67 -23 0
-67 -24 0
-67 25 0
-67 26 0
-67 27 0
-67 28 0
-67 -29 0
-67 -30 0
-67 -31 0
-67 -32 0
-68 1 0
-68 2 0
-68 3 0
-68 4 0
-68 -5 0
-68 -6 0
-68 -7 0
-68 -8 0
-68 9 0
-68 10 0
-68 11 0
-68 12 0
-68 -13 0
-68 -14 0
-68 -15 0
-68 -16 0
-68 -17 0
-68 -18 0
-68 -19 0
-68 -20 0
-68 -21 0
-68 -22 0
-68 -23 0
-68 -24 0
-68 -25 0
-68 -26 0
-68 -27 0
-68 -28 0
-68 -29 0
-68 -30 0
-68 -31 0
-68 -32 0
-69 -1 0
-69 -2 0
-69 -3 0
-69 -4 0
-69 -5 0
-69 -6 0
-69 -7 0
-69 -8 0
-69 -9 0
-69 -10 0
-69 -11 0
-69 -12 0
-69 -13 0
-69 -14 0
-69 -15 0
-69 -16 0
-69 -17 0
-69 -18 0
-69 -19 0
-69 -20 0
-69 -21 0
-69 -22 0
-69 -23 0
-69 -24 0
-69 25 0
-69 26 0
-69 27 0
-69 28 0
-69 29 0
-69 30 0
-69 31 0
-69 32 0
-70 -1 0
-70 -2 0
-70 -3 0
-70 -4 0
-70 -5 0
-70 -6 0
-70 -7 0
-70 -8 0
-70 9 0
-70 10 0
-70 11 0
-70 12 0
-70 13 0
-70 14 0
-70 15 0
-70 16 0
-70 -17 0
-70 -18 0
-70 -19 0
-70 -20 0
-70 -21 0
-70 -22 0
-70 -23 0
-70 -24 0
-70 -25 0
-70 -26 0
-70 -27 0
-70 -28 0
-70 -29 0
-70 -30 0
-70 -31 0
-70 -32 0
-71 -1 0
-71 -2 0
-71 -3 0
-71 -4 0
-71 -5 0
-71 -6 0
-71 -7 0
-71 -8 0
-71 -9 0
-71 -10 0
-71 -11 0
-71 -12 0
-71 -13 0
-71 -14 0
-71 -15 0
-71 -16 0
-71 17 0
-71 18 0
-71 19 0
-71 20 0
-71 21 0
-71 22 0
-71 23 0
-71 24 0
-71 -25 0
-71 -26 0
-71 -27 0
-71 -28 0
-71 -29 0
-71 -30 0
-71 -31 0
-71 -32 0
-72 1 0
-72 2 0
-72 3 0
-72 4 0
-72 5 0
-72 6 0
-72 7 0
-72 8 0
-72 -9 0
-72 -10 0
-72 -11 0
-72 -12 0
-72 -13 0
-72 -14 0
-72 -15 0
-72 -16 0
-72 -17 0
-72 -18 0
-72 -19 0
-72 -20 0
-72 -21 0
-72 -22 0
-72 -23 0
-72 -24 0
-72 -25 0
-72 -26 0
-72 -27 0
-72 -28 0
-72 -29 0
-72 -30 0
-72 -31 0
-72 -32 0
73 1 0
-73 -1 0
73 -2 0
-73 2 0
73 -3 0
-73 3 0
73 4 0
-73 -4 0
73 -5 0
-73 5 0
73 -6 0
-73 6 0
73 7 0
-73 -7 0
73 8 0
-73 -8 0
73 -9 0
-73 9 0
73 10 0
-73 -10 0
73 -11 0
-73 11 0
73 12 0
-73 -12 0
73 -13 0
-73 13 0
73 14 0
-73 -14 0
73 -15 0
-73 15 0
73 16 0
-73 -16 0
73 17 0
-73 -17 0
73 -18 0
-73 18 0
73 -19 0
-73 19 0
73 -20 0
-73 20 0
73 -21 0
-73 21 0
73 -22 0
-73 22 0
73 -23 0
-73 23 0
73 -24 0
-73 24 0
73 -25 0
-73 25 0
73 -26 0
-73 26 0
73 -27 0
-73 27 0
73 -28 0
-73 28 0
73 -29 0
-73 29 0
73 -30 0
-73 30 0
73 -31 0
-73 31 0
73 -32 0
-73 32 0
