p cnf 813 69553
193 194 195 196 197 198 199 200 201 202 203 204 205 206 207 208 209 210 211 212 213 214 215 216 217 218 219 220 221 222 223 224 225 226 227 228 229 230 231 232 0
-193 -194 0
-193 -195 0
-193 -196 0
-193 -197 0
-193 -198 0
-193 -199 0
-193 -200 0
-193 -201 0
-193 -202 0
-193 -203 0
-193 -204 0
-193 -205 0
-193 -206 0
-193 -207 0
-193 -208 0
-193 -209 0
-193 -210 0
-193 -211 0
-193 -212 0
-193 -213 0
-193 -214 0
-193 -215 0
-193 -216 0
-193 -217 0
-193 -218 0
-193 -219 0
-193 -220 0
-193 -221 0
-193 -222 0
-193 -223 0
-193 -224 0
-193 -225 0
-193 -226 0
-193 -227 0
-193 -228 0
-193 -229 0
-193 -230 0
-193 -231 0
-193 -232 0
-194 -195 0
-194 -196 0
-194 -197 0
-194 -198 0
-194 -199 0
-194 -200 0
-194 -201 0
-194 -202 0
-194 -203 0
-194 -204 0
-194 -205 0
-194 -206 0
-194 -207 0
-194 -208 0
-194 -209 0
-194 -210 0
-194 -211 0
-194 -212 0
-194 -213 0
-194 -214 0
-194 -215 0
-194 -216 0
-194 -217 0
-194 -218 0
-194 -219 0
-194 -220 0
-194 -221 0
-194 -222 0
-194 -223 0
-194 -224 0
-194 -225 0
-194 -226 0
-194 -227 0
-194 -228 0
-194 -229 0
-194 -230 0
-194 -231 0
-194 -232 0
-195 -196 0
-195 -197 0
-195 -198 0
-195 -199 0
-195 -200 0
-195 -201 0
-195 -202 0
-195 -203 0
-195 -204 0
-195 -205 0
-195 -206 0
-195 -207 0
-195 -208 0
-195 -209 0
-195 -210 0
-195 -211 0
-195 -212 0
-195 -213 0
-195 -214 0
-195 -215 0
-195 -216 0
-195 -217 0
-195 -218 0
-195 -219 0
-195 -220 0
-195 -221 0
-195 -222 0
-195 -223 0
-195 -224 0
-195 -225 0
-195 -226 0
-195 -227 0
-195 -228 0
-195 -229 0
-195 -230 0
-195 -231 0
-195 -232 0
-196 -197 0
-196 -198 0
-196 -199 0
-196 -200 0
-196 -201 0
-196 -202 0
-196 -203 0
-196 -204 0
-196 -205 0
-196 -206 0
-196 -207 0
-196 -208 0
-196 -209 0
-196 -210 0
-196 -211 0
-196 -212 0
-196 -213 0
-196 -214 0
-196 -215 0
-196 -216 0
-196 -217 0
-196 -218 0
-196 -219 0
-196 -220 0
-196 -221 0
-196 -222 0
-196 -223 0
-196 -224 0
-196 -225 0
-196 -226 0
-196 -227 0
-196 -228 0
-196 -229 0
-196 -230 0
-196 -231 0
-196 -232 0
-197 -198 0
-197 -199 0
-197 -200 0
-197 -201 0
-197 -202 0
-197 -203 0
-197 -204 0
-197 -205 0
-197 -206 0
-197 -207 0
-197 -208 0
-197 -209 0
-197 -210 0
-197 -211 0
-197 -212 0
-197 -213 0
-197 -214 0
-197 -215 0
-197 -216 0
-197 -217 0
-197 -218 0
-197 -219 0
-197 -220 0
-197 -221 0
-197 -222 0
-197 -223 0
-197 -224 0
-197 -225 0
-197 -226 0
-197 -227 0
-197 -228 0
-197 -229 0
-197 -230 0
-197 -231 0
-197 -232 0
-198 -199 0
-198 -200 0
-198 -201 0
-198 -202 0
-198 -203 0
-198 -204 0
-198 -205 0
-198 -206 0
-198 -207 0
-198 -208 0
-198 -209 0
-198 -210 0
-198 -211 0
-198 -212 0
-198 -213 0
-198 -214 0
-198 -215 0
-198 -216 0
-198 -217 0
-198 -218 0
-198 -219 0
-198 -220 0
-198 -221 0
-198 -222 0
-198 -223 0
-198 -224 0
-198 -225 0
-198 -226 0
-198 -227 0
-198 -228 0
-198 -229 0
-198 -230 0
-198 -231 0
-198 -232 0
-199 -200 0
-199 -201 0
-199 -202 0
-199 -203 0
-199 -204 0
-199 -205 0
-199 -206 0
-199 -207 0
-199 -208 0
-199 -209 0
-199 -210 0
-199 -211 0
-199 -212 0
-199 -213 0
-199 -214 0
-199 -215 0
-199 -216 0
-199 -217 0
-199 -218 0
-199 -219 0
-199 -220 0
-199 -221 0
-199 -222 0
-199 -223 0
-199 -224 0
-199 -225 0
-199 -226 0
-199 -227 0
-199 -228 0
-199 -229 0
-199 -230 0
-199 -231 0
-199 -232 0
-200 -201 0
-200 -202 0
-200 -203 0
-200 -204 0
-200 -205 0
-200 -206 0
-200 -207 0
-200 -208 0
-200 -209 0
-200 -210 0
-200 -211 0
-200 -212 0
-200 -213 0
-200 -214 0
-200 -215 0
-200 -216 0
-200 -217 0
-200 -218 0
-200 -219 0
-200 -220 0
-200 -221 0
-200 -222 0
-200 -223 0
-200 -224 0
-200 -225 0
-200 -226 0
-200 -227 0
-200 -228 0
-200 -229 0
-200 -230 0
-200 -231 0
-200 -232 0
-201 -202 0
-201 -203 0
-201 -204 0
-201 -205 0
-201 -206 0
-201 -207 0
-201 -208 0
-201 -209 0
-201 -210 0
-201 -211 0
-201 -212 0
-201 -213 0
-201 -214 0
-201 -215 0
-201 -216 0
-201 -217 0
-201 -218 0
-201 -219 0
-201 -220 0
-201 -221 0
-201 -222 0
-201 -223 0
-201 -224 0
-201 -225 0
-201 -226 0
-201 -227 0
-201 -228 0
-201 -229 0
-201 -230 0
-201 -231 0
-201 -232 0
-202 -203 0
-202 -204 0
-202 -205 0
-202 -206 0
-202 -207 0
-202 -208 0
-202 -209 0
-202 -210 0
-202 -211 0
-202 -212 0
-202 -213 0
-202 -214 0
-202 -215 0
-202 -216 0
-202 -217 0
-202 -218 0
-202 -219 0
-202 -220 0
-202 -221 0
-202 -222 0
-202 -223 0
-202 -224 0
-202 -225 0
-202 -226 0
-202 -227 0
-202 -228 0
-202 -229 0
-202 -230 0
-202 -231 0
-202 -232 0
-203 -204 0
-203 -205 0
-203 -206 0
-203 -207 0
-203 -208 0
-203 -209 0
-203 -210 0
-203 -211 0
-203 -212 0
-203 -213 0
-203 -214 0
-203 -215 0
-203 -216 0
-203 -217 0
-203 -218 0
-203 -219 0
-203 -220 0
-203 -221 0
-203 -222 0
-203 -223 0
-203 -224 0
-203 -225 0
-203 -226 0
-203 -227 0
-203 -228 0
-203 -229 0
-203 -230 0
-203 -231 0
-203 -232 0
-204 -205 0
-204 -206 0
-204 -207 0
-204 -208 0
-204 -209 0
-204 -210 0
-204 -211 0
-204 -212 0
-204 -213 0
-204 -214 0
-204 -215 0
-204 -216 0
-204 -217 0
-204 -218 0
-204 -219 0
-204 -220 0
-204 -221 0
-204 -222 0
-204 -223 0
-204 -224 0
-204 -225 0
-204 -226 0
-204 -227 0
-204 -228 0
-204 -229 0
-204 -230 0
-204 -231 0
-204 -232 0
-205 -206 0
-205 -207 0
-205 -208 0
-205 -209 0
-205 -210 0
-205 -211 0
-205 -212 0
-205 -213 0
-205 -214 0
-205 -215 0
-205 -216 0
-205 -217 0
-205 -218 0
-205 -219 0
-205 -220 0
-205 -221 0
-205 -222 0
-205 -223 0
-205 -224 0
-205 -225 0
-205 -226 0
-205 -227 0
-205 -228 0
-205 -229 0
-205 -230 0
-205 -231 0
-205 -232 0
-206 -207 0
-206 -208 0
-206 -209 0
-206 -210 0
-206 -211 0
-206 -212 0
-206 -213 0
-206 -214 0
-206 -215 0
-206 -216 0
-206 -217 0
-206 -218 0
-206 -219 0
-206 -220 0
-206 -221 0
-206 -222 0
-206 -223 0
-206 -224 0
-206 -225 0
-206 -226 0
-206 -227 0
-206 -228 0
-206 -229 0
-206 -230 0
-206 -231 0
-206 -232 0
-207 -208 0
-207 -209 0
-207 -210 0
-207 -211 0
-207 -212 0
-207 -213 0
-207 -214 0
-207 -215 0
-207 -216 0
-207 -217 0
-207 -218 0
-207 -219 0
-207 -220 0
-207 -221 0
-207 -222 0
-207 -223 0
-207 -224 0
-207 -225 0
-207 -226 0
-207 -227 0
-207 -228 0
-207 -229 0
-207 -230 0
-207 -231 0
-207 -232 0
-208 -209 0
-208 -210 0
-208 -211 0
-208 -212 0
-208 -213 0
-208 -214 0
-208 -215 0
-208 -216 0
-208 -217 0
-208 -218 0
-208 -219 0
-208 -220 0
-208 -221 0
-208 -222 0
-208 -223 0
-208 -224 0
-208 -225 0
-208 -226 0
-208 -227 0
-208 -228 0
-208 -229 0
-208 -230 0
-208 -231 0
-208 -232 0
-209 -210 0
-209 -211 0
-209 -212 0
-209 -213 0
-209 -214 0
-209 -215 0
-209 -216 0
-209 -217 0
-209 -218 0
-209 -219 0
-209 -220 0
-209 -221 0
-209 -222 0
-209 -223 0
-209 -224 0
-209 -225 0
-209 -226 0
-209 -227 0
-209 -228 0
-209 -229 0
-209 -230 0
-209 -231 0
-209 -232 0
-210 -211 0
-210 -212 0
-210 -213 0
-210 -214 0
-210 -215 0
-210 -216 0
-210 -217 0
-210 -218 0
-210 -219 0
-210 -220 0
-210 -221 0
-210 -222 0
-210 -223 0
-210 -224 0
-210 -225 0
-210 -226 0
-210 -227 0
-210 -228 0
-210 -229 0
-210 -230 0
-210 -231 0
-210 -232 0
-211 -212 0
-211 -213 0
-211 -214 0
-211 -215 0
-211 -216 0
-211 -217 0
-211 -218 0
-211 -219 0
-211 -220 0
-211 -221 0
-211 -222 0
-211 -223 0
-211 -224 0
-211 -225 0
-211 -226 0
-211 -227 0
-211 -228 0
-211 -229 0
-211 -230 0
-211 -231 0
-211 -232 0
-212 -213 0
-212 -214 0
-212 -215 0
-212 -216 0
-212 -217 0
-212 -218 0
-212 -219 0
-212 -220 0
-212 -221 0
-212 -222 0
-212 -223 0
-212 -224 0
-212 -225 0
-212 -226 0
-212 -227 0
-212 -228 0
-212 -229 0
-212 -230 0
-212 -231 0
-212 -232 0
-213 -214 0
-213 -215 0
-213 -216 0
-213 -217 0
-213 -218 0
-213 -219 0
-213 -220 0
-213 -221 0
-213 -222 0
-213 -223 0
-213 -224 0
-213 -225 0
-213 -226 0
-213 -227 0
-213 -228 0
-213 -229 0
-213 -230 0
-213 -231 0
-213 -232 0
-214 -215 0
-214 -216 0
-214 -217 0
-214 -218 0
-214 -219 0
-214 -220 0
-214 -221 0
-214 -222 0
-214 -223 0
-214 -224 0
-214 -225 0
-214 -226 0
-214 -227 0
-214 -228 0
-214 -229 0
-214 -230 0
-214 -231 0
-214 -232 0
-215 -216 0
-215 -217 0
-215 -218 0
-215 -219 0
-215 -220 0
-215 -221 0
-215 -222 0
-215 -223 0
-215 -224 0
-215 -225 0
-215 -226 0
-215 -227 0
-215 -228 0
-215 -229 0
-215 -230 0
-215 -231 0
-215 -232 0
-216 -217 0
-216 -218 0
-216 -219 0
-216 -220 0
-216 -221 0
-216 -222 0
-216 -223 0
-216 -224 0
-216 -225 0
-216 -226 0
-216 -227 0
-216 -228 0
-216 -229 0
-216 -230 0
-216 -231 0
-216 -232 0
-217 -218 0
-217 -219 0
-217 -220 0
-217 -221 0
-217 -222 0
-217 -223 0
-217 -224 0
-217 -225 0
-217 -226 0
-217 -227 0
-217 -228 0
-217 -229 0
-217 -230 0
-217 -231 0
-217 -232 0
-218 -219 0
-218 -220 0
-218 -221 0
-218 -222 0
-218 -223 0
-218 -224 0
-218 -225 0
-218 -226 0
-218 -227 0
-218 -228 0
-218 -229 0
-218 -230 0
-218 -231 0
-218 -232 0
-219 -220 0
-219 -221 0
-219 -222 0
-219 -223 0
-219 -224 0
-219 -225 0
-219 -226 0
-219 -227 0
-219 -228 0
-219 -229 0
-219 -230 0
-219 -231 0
-219 -232 0
-220 -221 0
-220 -222 0
-220 -223 0
-220 -224 0
-220 -225 0
-220 -226 0
-220 -227 0
-220 -228 0
-220 -229 0
-220 -230 0
-220 -231 0
-220 -232 0
-221 -222 0
-221 -223 0
-221 -224 0
-221 -225 0
-221 -226 0
-221 -227 0
-221 -228 0
-221 -229 0
-221 -230 0
-221 -231 0
-221 -232 0
-222 -223 0
-222 -224 0
-222 -225 0
-222 -226 0
-222 -227 0
-222 -228 0
-222 -229 0
-222 -230 0
-222 -231 0
-222 -232 0
-223 -224 0
-223 -225 0
-223 -226 0
-223 -227 0
-223 -228 0
-223 -229 0
-223 -230 0
-223 -231 0
-223 -232 0
-224 -225 0
-224 -226 0
-224 -227 0
-224 -228 0
-224 -229 0
-224 -230 0
-224 -231 0
-224 -232 0
-225 -226 0
-225 -227 0
-225 -228 0
-225 -229 0
-225 -230 0
-225 -231 0
-225 -232 0
-226 -227 0
-226 -228 0
-226 -229 0
-226 -230 0
-226 -231 0
-226 -232 0
-227 -228 0
-227 -229 0
-227 -230 0
-227 -231 0
-227 -232 0
-228 -229 0
-228 -230 0
-228 -231 0
-228 -232 0
-229 -230 0
-229 -231 0
-229 -232 0
-230 -231 0
-230 -232 0
-231 -232 0
-193 -1 0
-193 -2 0
-193 -3 0
-193 4 0
-193 -5 0
-193 -6 0
-193 -7 0
-193 8 0
-193 -9 0
-193 -10 0
-193 -11 0
-193 12 0
-193 -13 0
-193 -14 0
-193 -15 0
-193 16 0
-193 -17 0
-193 -18 0
-193 -19 0
-193 20 0
-193 -21 0
-193 -22 0
-193 -23 0
-193 24 0
-193 -25 0
-193 -26 0
-193 -27 0
-193 28 0
-193 -29 0
-193 -30 0
-193 -31 0
-193 32 0
-194 -1 0
-194 2 0
-194 -3 0
-194 -4 0
-194 -5 0
-194 6 0
-194 -7 0
-194 -8 0
-194 -9 0
-194 10 0
-194 -11 0
-194 -12 0
-194 -13 0
-194 14 0
-194 -15 0
-194 -16 0
-194 -17 0
-194 18 0
-194 -19 0
-194 -20 0
-194 -21 0
-194 22 0
-194 -23 0
-194 -24 0
-194 -25 0
-194 26 0
-194 -27 0
-194 -28 0
-194 -29 0
-194 30 0
-194 -31 0
-194 -32 0
-195 -1 0
-195 -2 0
-195 3 0
-195 -4 0
-195 -5 0
-195 -6 0
-195 7 0
-195 -8 0
-195 -9 0
-195 -10 0
-195 11 0
-195 -12 0
-195 -13 0
-195 -14 0
-195 15 0
-195 -16 0
-195 -17 0
-195 -18 0
-195 19 0
-195 -20 0
-195 -21 0
-195 -22 0
-195 23 0
-195 -24 0
-195 -25 0
-195 -26 0
-195 27 0
-195 -28 0
-195 -29 0
-195 -30 0
-195 31 0
-195 -32 0
-196 1 0
-196 -2 0
-196 -3 0
-196 -4 0
-196 5 0
-196 -6 0
-196 -7 0
-196 -8 0
-196 9 0
-196 -10 0
-196 -11 0
-196 -12 0
-196 13 0
-196 -14 0
-196 -15 0
-196 -16 0
-196 17 0
-196 -18 0
-196 -19 0
-196 -20 0
-196 21 0
-196 -22 0
-196 -23 0
-196 -24 0
-196 25 0
-196 -26 0
-196 -27 0
-196 -28 0
-196 29 0
-196 -30 0
-196 -31 0
-196 -32 0
-197 -1 0
-197 -2 0
-197 -3 0
-197 -4 0
-197 -5 0
-197 6 0
-197 -7 0
-197 8 0
-197 -9 0
-197 -10 0
-197 -11 0
-197 -12 0
-197 -13 0
-197 14 0
-197 -15 0
-197 16 0
-197 -17 0
-197 -18 0
-197 -19 0
-197 -20 0
-197 -21 0
-197 22 0
-197 -23 0
-197 24 0
-197 -25 0
-197 -26 0
-197 -27 0
-197 -28 0
-197 -29 0
-197 30 0
-197 -31 0
-197 32 0
-198 -1 0
-198 2 0
-198 -3 0
-198 4 0
-198 -5 0
-198 -6 0
-198 -7 0
-198 -8 0
-198 -9 0
-198 10 0
-198 -11 0
-198 12 0
-198 -13 0
-198 -14 0
-198 -15 0
-198 -16 0
-198 -17 0
-198 18 0
-198 -19 0
-198 20 0
-198 -21 0
-198 -22 0
-198 -23 0
-198 -24 0
-198 -25 0
-198 26 0
-198 -27 0
-198 28 0
-198 -29 0
-198 -30 0
-198 -31 0
-198 -32 0
-199 -1 0
-199 -2 0
-199 -3 0
-199 -4 0
-199 5 0
-199 -6 0
-199 7 0
-199 -8 0
-199 -9 0
-199 -10 0
-199 -11 0
-199 -12 0
-199 13 0
-199 -14 0
-199 15 0
-199 -16 0
-199 -17 0
-199 -18 0
-199 -19 0
-199 -20 0
-199 21 0
-199 -22 0
-199 23 0
-199 -24 0
-199 -25 0
-199 -26 0
-199 -27 0
-199 -28 0
-199 29 0
-199 -30 0
-199 31 0
-199 -32 0
-200 1 0
-200 -2 0
-200 3 0
-200 -4 0
-200 -5 0
-200 -6 0
-200 -7 0
-200 -8 0
-200 9 0
-200 -10 0
-200 11 0
-200 -12 0
-200 -13 0
-200 -14 0
-200 -15 0
-200 -16 0
-200 17 0
-200 -18 0
-200 19 0
-200 -20 0
-200 -21 0
-200 -22 0
-200 -23 0
-200 -24 0
-200 25 0
-200 -26 0
-200 27 0
-200 -28 0
-200 -29 0
-200 -30 0
-200 -31 0
-200 -32 0
-201 -1 0
-201 -2 0
-201 -3 0
-201 -4 0
-201 -5 0
-201 -6 0
-201 -7 0
-201 -8 0
-201 -9 0
-201 10 0
-201 -11 0
-201 12 0
-201 -13 0
-201 14 0
-201 -15 0
-201 16 0
-201 -17 0
-201 -18 0
-201 -19 0
-201 -20 0
-201 -21 0
-201 -22 0
-201 -23 0
-201 -24 0
-201 -25 0
-201 26 0
-201 -27 0
-201 28 0
-201 -29 0
-201 30 0
-201 -31 0
-201 32 0
-202 -1 0
-202 2 0
-202 -3 0
-202 4 0
-202 -5 0
-202 6 0
-202 -7 0
-202 8 0
-202 -9 0
-202 -10 0
-202 -11 0
-202 -12 0
-202 -13 0
-202 -14 0
-202 -15 0
-202 -16 0
-202 -17 0
-202 18 0
-202 -19 0
-202 20 0
-202 -21 0
-202 22 0
-202 -23 0
-202 24 0
-202 -25 0
-202 -26 0
-202 -27 0
-202 -28 0
-202 -29 0
-202 -30 0
-202 -31 0
-202 -32 0
-203 -1 0
-203 -2 0
-203 -3 0
-203 -4 0
-203 -5 0
-203 -6 0
-203 -7 0
-203 -8 0
-203 9 0
-203 -10 0
-203 11 0
-203 -12 0
-203 13 0
-203 -14 0
-203 15 0
-203 -16 0
-203 -17 0
-203 -18 0
-203 -19 0
-203 -20 0
-203 -21 0
-203 -22 0
-203 -23 0
-203 -24 0
-203 25 0
-203 -26 0
-203 27 0
-203 -28 0
-203 29 0
-203 -30 0
-203 31 0
-203 -32 0
-204 1 0
-204 -2 0
-204 3 0
-204 -4 0
-204 5 0
-204 -6 0
-204 7 0
-204 -8 0
-204 -9 0
-204 -10 0
-204 -11 0
-204 -12 0
-204 -13 0
-204 -14 0
-204 -15 0
-204 -16 0
-204 17 0
-204 -18 0
-204 19 0
-204 -20 0
-204 21 0
-204 -22 0
-204 23 0
-204 -24 0
-204 -25 0
-204 -26 0
-204 -27 0
-204 -28 0
-204 -29 0
-204 -30 0
-204 -31 0
-204 -32 0
-205 -1 0
-205 -2 0
-205 -3 0
-205 -4 0
-205 -5 0
-205 -6 0
-205 -7 0
-205 -8 0
-205 -9 0
-205 -10 0
-205 -11 0
-205 -12 0
-205 -13 0
-205 -14 0
-205 -15 0
-205 -16 0
-205 -17 0
-205 18 0
-205 -19 0
-205 20 0
-205 -21 0
-205 22 0
-205 -23 0
-205 24 0
-205 -25 0
-205 26 0
-205 -27 0
-205 28 0
-205 -29 0
-205 30 0
-205 -31 0
-205 32 0
-206 -1 0
-206 2 0
-206 -3 0
-206 4 0
-206 -5 0
-206 6 0
-206 -7 0
-206 8 0
-206 -9 0
-206 10 0
-206 -11 0
-206 12 0
-206 -13 0
-206 14 0
-206 -15 0
-206 16 0
-206 -17 0
-206 -18 0
-206 -19 0
-206 -20 0
-206 -21 0
-206 -22 0
-206 -23 0
-206 -24 0
-206 -25 0
-206 -26 0
-206 -27 0
-206 -28 0
-206 -29 0
-206 -30 0
-206 -31 0
-206 -32 0
-207 -1 0
-207 -2 0
-207 -3 0
-207 -4 0
-207 -5 0
-207 -6 0
-207 -7 0
-207 -8 0
-207 -9 0
-207 -10 0
-207 -11 0
-207 -12 0
-207 -13 0
-207 -14 0
-207 -15 0
-207 -16 0
-207 17 0
-207 -18 0
-207 19 0
-207 -20 0
-207 21 0
-207 -22 0
-207 23 0
-207 -24 0
-207 25 0
-207 -26 0
-207 27 0
-207 -28 0
-207 29 0
-207 -30 0
-207 31 0
-207 -32 0
-208 1 0
-208 -2 0
-208 3 0
-208 -4 0
-208 5 0
-208 -6 0
-208 7 0
-208 -8 0
-208 9 0
-208 -10 0
-208 11 0
-208 -12 0
-208 13 0
-208 -14 0
-208 15 0
-208 -16 0
-208 -17 0
-208 -18 0
-208 -19 0
-208 -20 0
-208 -21 0
-208 -22 0
-208 -23 0
-208 -24 0
-208 -25 0
-208 -26 0
-208 -27 0
-208 -28 0
-208 -29 0
-208 -30 0
-208 -31 0
-208 -32 0
-209 -1 0
-209 -2 0
-209 -3 0
-209 -4 0
-209 -5 0
-209 -6 0
-209 7 0
-209 8 0
-209 -9 0
-209 -10 0
-209 -11 0
-209 -12 0
-209 -13 0
-209 -14 0
-209 15 0
-209 16 0
-209 -17 0
-209 -18 0
-209 -19 0
-209 -20 0
-209 -21 0
-209 -22 0
-209 23 0
-209 24 0
-209 -25 0
-209 -26 0
-209 -27 0
-209 -28 0
-209 -29 0
-209 -30 0
-209 31 0
-209 32 0
-210 -1 0
-210 -2 0
-210 3 0
-210 4 0
-210 -5 0
-210 -6 0
-210 -7 0
-210 -8 0
-210 -9 0
-210 -10 0
-210 11 0
-210 12 0
-210 -13 0
-210 -14 0
-210 -15 0
-210 -16 0
-210 -17 0
-210 -18 0
-210 19 0
-210 20 0
-210 -21 0
-210 -22 0
-210 -23 0
-210 -24 0
-210 -25 0
-210 -26 0
-210 27 0
-210 28 0
-210 -29 0
-210 -30 0
-210 -31 0
-210 -32 0
-211 -1 0
-211 -2 0
-211 -3 0
-211 -4 0
-211 5 0
-211 6 0
-211 -7 0
-211 -8 0
-211 -9 0
-211 -10 0
-211 -11 0
-211 -12 0
-211 13 0
-211 14 0
-211 -15 0
-211 -16 0
-211 -17 0
-211 -18 0
-211 -19 0
-211 -20 0
-211 21 0
-211 22 0
-211 -23 0
-211 -24 0
-211 -25 0
-211 -26 0
-211 -27 0
-211 -28 0
-211 29 0
-211 30 0
-211 -31 0
-211 -32 0
-212 1 0
-212 2 0
-212 -3 0
-212 -4 0
-212 -5 0
-212 -6 0
-212 -7 0
-212 -8 0
-212 9 0
-212 10 0
-212 -11 0
-212 -12 0
-212 -13 0
-212 -14 0
-212 -15 0
-212 -16 0
-212 17 0
-212 18 0
-212 -19 0
-212 -20 0
-212 -21 0
-212 -22 0
-212 -23 0
-212 -24 0
-212 25 0
-212 26 0
-212 -27 0
-212 -28 0
-212 -29 0
-212 -30 0
-212 -31 0
-212 -32 0
-213 -1 0
-213 -2 0
-213 -3 0
-213 -4 0
-213 -5 0
-213 -6 0
-213 -7 0
-213 -8 0
-213 -9 0
-213 -10 0
-213 11 0
-213 12 0
-213 -13 0
-213 -14 0
-213 15 0
-213 16 0
-213 -17 0
-213 -18 0
-213 -19 0
-213 -20 0
-213 -21 0
-213 -22 0
-213 -23 0
-213 -24 0
-213 -25 0
-213 -26 0
-213 27 0
-213 28 0
-213 -29 0
-213 -30 0
-213 31 0
-213 32 0
-214 -1 0
-214 -2 0
-214 3 0
-214 4 0
-214 -5 0
-214 -6 0
-214 7 0
-214 8 0
-214 -9 0
-214 -10 0
-214 -11 0
-214 -12 0
-214 -13 0
-214 -14 0
-214 -15 0
-214 -16 0
-214 -17 0
-214 -18 0
-214 19 0
-214 20 0
-214 -21 0
-214 -22 0
-214 23 0
-214 24 0
-214 -25 0
-214 -26 0
-214 -27 0
-214 -28 0
-214 -29 0
-214 -30 0
-214 -31 0
-214 -32 0
-215 -1 0
-215 -2 0
-215 -3 0
-215 -4 0
-215 -5 0
-215 -6 0
-215 -7 0
-215 -8 0
-215 9 0
-215 10 0
-215 -11 0
-215 -12 0
-215 13 0
-215 14 0
-215 -15 0
-215 -16 0
-215 -17 0
-215 -18 0
-215 -19 0
-215 -20 0
-215 -21 0
-215 -22 0
-215 -23 0
-215 -24 0
-215 25 0
-215 26 0
-215 -27 0
-215 -28 0
-215 29 0
-215 30 0
-215 -31 0
-215 -32 0
-216 1 0
-216 2 0
-216 -3 0
-216 -4 0
-216 5 0
-216 6 0
-216 -7 0
-216 -8 0
-216 -9 0
-216 -10 0
-216 -11 0
-216 -12 0
-216 -13 0
-216 -14 0
-216 -15 0
-216 -16 0
-216 17 0
-216 18 0
-216 -19 0
-216 -20 0
-216 21 0
-216 22 0
-216 -23 0
-216 -24 0
-216 -25 0
-216 -26 0
-216 -27 0
-216 -28 0
-216 -29 0
-216 -30 0
-216 -31 0
-216 -32 0
-217 -1 0
-217 -2 0
-217 -3 0
-217 -4 0
-217 -5 0
-217 -6 0
-217 -7 0
-217 -8 0
-217 -9 0
-217 -10 0
-217 -11 0
-217 -12 0
-217 -13 0
-217 -14 0
-217 -15 0
-217 -16 0
-217 -17 0
-217 -18 0
-217 19 0
-217 20 0
-217 -21 0
-217 -22 0
-217 23 0
-217 24 0
-217 -25 0
-217 -26 0
-217 27 0
-217 28 0
-217 -29 0
-217 -30 0
-217 31 0
-217 32 0
-218 -1 0
-218 -2 0
-218 3 0
-218 4 0
-218 -5 0
-218 -6 0
-218 7 0
-218 8 0
-218 -9 0
-218 -10 0
-218 11 0
-218 12 0
-218 -13 0
-218 -14 0
-218 15 0
-218 16 0
-218 -17 0
-218 -18 0
-218 -19 0
-218 -20 0
-218 -21 0
-218 -22 0
-218 -23 0
-218 -24 0
-218 -25 0
-218 -26 0
-218 -27 0
-218 -28 0
-218 -29 0
-218 -30 0
-218 -31 0
-218 -32 0
-219 -1 0
-219 -2 0
-219 -3 0
-219 -4 0
-219 -5 0
-219 -6 0
-219 -7 0
-219 -8 0
-219 -9 0
-219 -10 0
-219 -11 0
-219 -12 0
-219 -13 0
-219 -14 0
-219 -15 0
-219 -16 0
-219 17 0
-219 18 0
-219 -19 0
-219 -20 0
-219 21 0
-219 22 0
-219 -23 0
-219 -24 0
-219 25 0
-219 26 0
-219 -27 0
-219 -28 0
-219 29 0
-219 30 0
-219 -31 0
-219 -32 0
-220 1 0
-220 2 0
-220 -3 0
-220 -4 0
-220 5 0
-220 6 0
-220 -7 0
-220 -8 0
-220 9 0
-220 10 0
-220 -11 0
-220 -12 0
-220 13 0
-220 14 0
-220 -15 0
-220 -16 0
-220 -17 0
-220 -18 0
-220 -19 0
-220 -20 0
-220 -21 0
-220 -22 0
-220 -23 0
-220 -24 0
-220 -25 0
-220 -26 0
-220 -27 0
-220 -28 0
-220 -29 0
-220 -30 0
-220 -31 0
-220 -32 0
-221 -1 0
-221 -2 0
-221 -3 0
-221 -4 0
-221 -5 0
-221 -6 0
-221 -7 0
-221 -8 0
-221 -9 0
-221 -10 0
-221 -11 0
-221 -12 0
-221 13 0
-221 14 0
-221 15 0
-221 16 0
-221 -17 0
-221 -18 0
-221 -19 0
-221 -20 0
-221 -21 0
-221 -22 0
-221 -23 0
-221 -24 0
-221 -25 0
-221 -26 0
-221 -27 0
-221 -28 0
-221 29 0
-221 30 0
-221 31 0
-221 32 0
-222 -1 0
-222 -2 0
-222 -3 0
-222 -4 0
-222 5 0
-222 6 0
-222 7 0
-222 8 0
-222 -9 0
-222 -10 0
-222 -11 0
-222 -12 0
-222 -13 0
-222 -14 0
-222 -15 0
-222 -16 0
-222 -17 0
-222 -18 0
-222 -19 0
-222 -20 0
-222 21 0
-222 22 0
-222 23 0
-222 24 0
-222 -25 0
-222 -26 0
-222 -27 0
-222 -28 0
-222 -29 0
-222 -30 0
-222 -31 0
-222 -32 0
-223 -1 0
-223 -2 0
-223 -3 0
-223 -4 0
-223 -5 0
-223 -6 0
-223 -7 0
-223 -8 0
-223 9 0
-223 10 0
-223 11 0
-223 12 0
-223 -13 0
-223 -14 0
-223 -15 0
-223 -16 0
-223 -17 0
-223 -18 0
-223 -19 0
-223 -20 0
-223 -21 0
-223 -22 0
-223 -23 0
-223 -24 0
-223 25 0
-223 26 0
-223 27 0
-223 28 0
-223 -29 0
-223 -30 0
-223 -31 0
-223 -32 0
-224 1 0
-224 2 0
-224 3 0
-224 4 0
-224 -5 0
-224 -6 0
-224 -7 0
-224 -8 0
-224 -9 0
-224 -10 0
-224 -11 0
-224 -12 0
-224 -13 0
-224 -14 0
-224 -15 0
-224 -16 0
-224 17 0
-224 18 0
-224 19 0
-224 20 0
-224 -21 0
-224 -22 0
-224 -23 0
-224 -24 0
-224 -25 0
-224 -26 0
-224 -27 0
-224 -28 0
-224 -29 0
-224 -30 0
-224 -31 0
-224 -32 0
-225 -1 0
-225 -2 0
-225 -3 0
-225 -4 0
-225 -5 0
-225 -6 0
-225 -7 0
-225 -8 0
-225 -9 0
-225 -10 0
-225 -11 0
-225 -12 0
-225 -13 0
-225 -14 0
-225 -15 0
-225 -16 0
-225 -17 0
-225 -18 0
-225 -19 0
-225 -20 0
-225 21 0
-225 22 0
-225 23 0
-225 24 0
-225 -25 0
-225 -26 0
-225 -27 0
-225 -28 0
-225 29 0
-225 30 0
-225 31 0
-225 32 0
-226 -1 0
-226 -2 0
-226 -3 0
-226 -4 0
-226 5 0
-226 6 0
-226 7 0
-226 8 0
-226 -9 0
-226 -10 0
-226 -11 0
-226 -12 0
-226 13 0
-226 14 0
-226 15 0
-226 16 0
-226 -17 0
-226 -18 0
-226 -19 0
-226 -20 0
-226 -21 0
-226 -22 0
-226 -23 0
-226 -24 0
-226 -25 0
-226 -26 0
-226 -27 0
-226 -28 0
-226 -29 0
-226 -30 0
-226 -31 0
-226 -32 0
-227 -1 0
-227 -2 0
-227 -3 0
-227 -4 0
-227 -5 0
-227 -6 0
-227 -7 0
-227 -8 0
-227 -9 0
-227 -10 0
-227 -11 0
-227 -12 0
-227 -13 0
-227 -14 0
-227 -15 0
-227 -16 0
-227 17 0
-227 18 0
-227 19 0
-227 20 0
-227 -21 0
-227 -22 0
-227 -23 0
-227 -24 0
-227 25 0
-227 26 0
-227 27 0
-227 28 0
-227 -29 0
-227 -30 0
-227 -31 0
-227 -32 0
-228 1 0
-228 2 0
-228 3 0
-228 4 0
-228 -5 0
-228 -6 0
-228 -7 0
-228 -8 0
-228 9 0
-228 10 0
-228 11 0
-228 12 0
-228 -13 0
-228 -14 0
-228 -15 0
-228 -16 0
-228 -17 0
-228 -18 0
-228 -19 0
-228 -20 0
-228 -21 0
-228 -22 0
-228 -23 0
-228 -24 0
-228 -25 0
-228 -26 0
-228 -27 0
-228 -28 0
-228 -29 0
-228 -30 0
-228 -31 0
-228 -32 0
-229 -1 0
-229 -2 0
-229 -3 0
-229 -4 0
-229 -5 0
-229 -6 0
-229 -7 0
-229 -8 0
-229 -9 0
-229 -10 0
-229 -11 0
-229 -12 0
-229 -13 0
-229 -14 0
-229 -15 0
-229 -16 0
-229 -17 0
-229 -18 0
-229 -19 0
-229 -20 0
-229 -21 0
-229 -22 0
-229 -23 0
-229 -24 0
-229 25 0
-229 26 0
-229 27 0
-229 28 0
-229 29 0
-229 30 0
-229 31 0
-229 32 0
-230 -1 0
-230 -2 0
-230 -3 0
-230 -4 0
-230 -5 0
-230 -6 0
-230 -7 0
-230 -8 0
-230 9 0
-230 10 0
-230 11 0
-230 12 0
-230 13 0
-230 14 0
-230 15 0
-230 16 0
-230 -17 0
-230 -18 0
-230 -19 0
-230 -20 0
-230 -21 0
-230 -22 0
-230 -23 0
-230 -24 0
-230 -25 0
-230 -26 0
-230 -27 0
-230 -28 0
-230 -29 0
-230 -30 0
-230 -31 0
-230 -32 0
-231 -1 0
-231 -2 0
-231 -3 0
-231 -4 0
-231 -5 0
-231 -6 0
-231 -7 0
-231 -8 0
-231 -9 0
-231 -10 0
-231 -11 0
-231 -12 0
-231 -13 0
-231 -14 0
-231 -15 0
-231 -16 0
-231 17 0
-231 18 0
-231 19 0
-231 20 0
-231 21 0
-231 22 0
-231 23 0
-231 24 0
-231 -25 0
-231 -26 0
-231 -27 0
-231 -28 0
-231 -29 0
-231 -30 0
-231 -31 0
-231 -32 0
-232 1 0
-232 2 0
-232 3 0
-232 4 0
-232 5 0
-232 6 0
-232 7 0
-232 8 0
-232 -9 0
-232 -10 0
-232 -11 0
-232 -12 0
-232 -13 0
-232 -14 0
-232 -15 0
-232 -16 0
-232 -17 0
-232 -18 0
-232 -19 0
-232 -20 0
-232 -21 0
-232 -22 0
-232 -23 0
-232 -24 0
-232 -25 0
-232 -26 0
-232 -27 0
-232 -28 0
-232 -29 0
-232 -30 0
-232 -31 0
-232 -32 0
233 234 235 236 237 238 239 240 241 242 243 244 245 246 247 248 249 250 251 252 253 254 255 256 257 258 259 260 261 262 263 264 265 266 267 268 269 270 271 272 273 274 275 276 277 278 279 280 281 282 283 284 285 286 287 288 289 290 291 292 0
-233 -234 0
-233 -235 0
-233 -236 0
-233 -237 0
-233 -238 0
-233 -239 0
-233 -240 0
-233 -241 0
-233 -242 0
-233 -243 0
-233 -244 0
-233 -245 0
-233 -246 0
-233 -247 0
-233 -248 0
-233 -249 0
-233 -250 0
-233 -251 0
-233 -252 0
-233 -253 0
-233 -254 0
-233 -255 0
-233 -256 0
-233 -257 0
-233 -258 0
-233 -259 0
-233 -260 0
-233 -261 0
-233 -262 0
-233 -263 0
-233 -264 0
-233 -265 0
-233 -266 0
-233 -267 0
-233 -268 0
-233 -269 0
-233 -270 0
-233 -271 0
-233 -272 0
-233 -273 0
-233 -274 0
-233 -275 0
-233 -276 0
-233 -277 0
-233 -278 0
-233 -279 0
-233 -280 0
-233 -281 0
-233 -282 0
-233 -283 0
-233 -284 0
-233 -285 0
-233 -286 0
-233 -287 0
-233 -288 0
-233 -289 0
-233 -290 0
-233 -291 0
-233 -292 0
-234 -235 0
-234 -236 0
-234 -237 0
-234 -238 0
-234 -239 0
-234 -240 0
-234 -241 0
-234 -242 0
-234 -243 0
-234 -244 0
-234 -245 0
-234 -246 0
-234 -247 0
-234 -248 0
-234 -249 0
-234 -250 0
-234 -251 0
-234 -252 0
-234 -253 0
-234 -254 0
-234 -255 0
-234 -256 0
-234 -257 0
-234 -258 0
-234 -259 0
-234 -260 0
-234 -261 0
-234 -262 0
-234 -263 0
-234 -264 0
-234 -265 0
-234 -266 0
-234 -267 0
-234 -268 0
-234 -269 0
-234 -270 0
-234 -271 0
-234 -272 0
-234 -273 0
-234 -274 0
-234 -275 0
-234 -276 0
-234 -277 0
-234 -278 0
-234 -279 0
-234 -280 0
-234 -281 0
-234 -282 0
-234 -283 0
-234 -284 0
-234 -285 0
-234 -286 0
-234 -287 0
-234 -288 0
-234 -289 0
-234 -290 0
-234 -291 0
-234 -292 0
-235 -236 0
-235 -237 0
-235 -238 0
-235 -239 0
-235 -240 0
-235 -241 0
-235 -242 0
-235 -243 0
-235 -244 0
-235 -245 0
-235 -246 0
-235 -247 0
-235 -248 0
-235 -249 0
-235 -250 0
-235 -251 0
-235 -252 0
-235 -253 0
-235 -254 0
-235 -255 0
-235 -256 0
-235 -257 0
-235 -258 0
-235 -259 0
-235 -260 0
-235 -261 0
-235 -262 0
-235 -263 0
-235 -264 0
-235 -265 0
-235 -266 0
-235 -267 0
-235 -268 0
-235 -269 0
-235 -270 0
-235 -271 0
-235 -272 0
-235 -273 0
-235 -274 0
-235 -275 0
-235 -276 0
-235 -277 0
-235 -278 0
-235 -279 0
-235 -280 0
-235 -281 0
-235 -282 0
-235 -283 0
-235 -284 0
-235 -285 0
-235 -286 0
-235 -287 0
-235 -288 0
-235 -289 0
-235 -290 0
-235 -291 0
-235 -292 0
-236 -237 0
-236 -238 0
-236 -239 0
-236 -240 0
-236 -241 0
-236 -242 0
-236 -243 0
-236 -244 0
-236 -245 0
-236 -246 0
-236 -247 0
-236 -248 0
-236 -249 0
-236 -250 0
-236 -251 0
-236 -252 0
-236 -253 0
-236 -254 0
-236 -255 0
-236 -256 0
-236 -257 0
-236 -258 0
-236 -259 0
-236 -260 0
-236 -261 0
-236 -262 0
-236 -263 0
-236 -264 0
-236 -265 0
-236 -266 0
-236 -267 0
-236 -268 0
-236 -269 0
-236 -270 0
-236 -271 0
-236 -272 0
-236 -273 0
-236 -274 0
-236 -275 0
-236 -276 0
-236 -277 0
-236 -278 0
-236 -279 0
-236 -280 0
-236 -281 0
-236 -282 0
-236 -283 0
-236 -284 0
-236 -285 0
-236 -286 0
-236 -287 0
-236 -288 0
-236 -289 0
-236 -290 0
-236 -291 0
-236 -292 0
-237 -238 0
-237 -239 0
-237 -240 0
-237 -241 0
-237 -242 0
-237 -243 0
-237 -244 0
-237 -245 0
-237 -246 0
-237 -247 0
-237 -248 0
-237 -249 0
-237 -250 0
-237 -251 0
-237 -252 0
-237 -253 0
-237 -254 0
-237 -255 0
-237 -256 0
-237 -257 0
-237 -258 0
-237 -259 0
-237 -260 0
-237 -261 0
-237 -262 0
-237 -263 0
-237 -264 0
-237 -265 0
-237 -266 0
-237 -267 0
-237 -268 0
-237 -269 0
-237 -270 0
-237 -271 0
-237 -272 0
-237 -273 0
-237 -274 0
-237 -275 0
-237 -276 0
-237 -277 0
-237 -278 0
-237 -279 0
-237 -280 0
-237 -281 0
-237 -282 0
-237 -283 0
-237 -284 0
-237 -285 0
-237 -286 0
-237 -287 0
-237 -288 0
-237 -289 0
-237 -290 0
-237 -291 0
-237 -292 0
-238 -239 0
-238 -240 0
-238 -241 0
-238 -242 0
-238 -243 0
-238 -244 0
-238 -245 0
-238 -246 0
-238 -247 0
-238 -248 0
-238 -249 0
-238 -250 0
-238 -251 0
-238 -252 0
-238 -253 0
-238 -254 0
-238 -255 0
-238 -256 0
-238 -257 0
-238 -258 0
-238 -259 0
-238 -260 0
-238 -261 0
-238 -262 0
-238 -263 0
-238 -264 0
-238 -265 0
-238 -266 0
-238 -267 0
-238 -268 0
-238 -269 0
-238 -270 0
-238 -271 0
-238 -272 0
-238 -273 0
-238 -274 0
-238 -275 0
-238 -276 0
-238 -277 0
-238 -278 0
-238 -279 0
-238 -280 0
-238 -281 0
-238 -282 0
-238 -283 0
-238 -284 0
-238 -285 0
-238 -286 0
-238 -287 0
-238 -288 0
-238 -289 0
-238 -290 0
-238 -291 0
-238 -292 0
-239 -240 0
-239 -241 0
-239 -242 0
-239 -243 0
-239 -244 0
-239 -245 0
-239 -246 0
-239 -247 0
-239 -248 0
-239 -249 0
-239 -250 0
-239 -251 0
-239 -252 0
-239 -253 0
-239 -254 0
-239 -255 0
-239 -256 0
-239 -257 0
-239 -258 0
-239 -259 0
-239 -260 0
-239 -261 0
-239 -262 0
-239 -263 0
-239 -264 0
-239 -265 0
-239 -266 0
-239 -267 0
-239 -268 0
-239 -269 0
-239 -270 0
-239 -271 0
-239 -272 0
-239 -273 0
-239 -274 0
-239 -275 0
-239 -276 0
-239 -277 0
-239 -278 0
-239 -279 0
-239 -280 0
-239 -281 0
-239 -282 0
-239 -283 0
-239 -284 0
-239 -285 0
-239 -286 0
-239 -287 0
-239 -288 0
-239 -289 0
-239 -290 0
-239 -291 0
-239 -292 0
-240 -241 0
-240 -242 0
-240 -243 0
-240 -244 0
-240 -245 0
-240 -246 0
-240 -247 0
-240 -248 0
-240 -249 0
-240 -250 0
-240 -251 0
-240 -252 0
-240 -253 0
-240 -254 0
-240 -255 0
-240 -256 0
-240 -257 0
-240 -258 0
-240 -259 0
-240 -260 0
-240 -261 0
-240 -262 0
-240 -263 0
-240 -264 0
-240 -265 0
-240 -266 0
-240 -267 0
-240 -268 0
-240 -269 0
-240 -270 0
-240 -271 0
-240 -272 0
-240 -273 0
-240 -274 0
-240 -275 0
-240 -276 0
-240 -277 0
-240 -278 0
-240 -279 0
-240 -280 0
-240 -281 0
-240 -282 0
-240 -283 0
-240 -284 0
-240 -285 0
-240 -286 0
-240 -287 0
-240 -288 0
-240 -289 0
-240 -290 0
-240 -291 0
-240 -292 0
-241 -242 0
-241 -243 0
-241 -244 0
-241 -245 0
-241 -246 0
-241 -247 0
-241 -248 0
-241 -249 0
-241 -250 0
-241 -251 0
-241 -252 0
-241 -253 0
-241 -254 0
-241 -255 0
-241 -256 0
-241 -257 0
-241 -258 0
-241 -259 0
-241 -260 0
-241 -261 0
-241 -262 0
-241 -263 0
-241 -264 0
-241 -265 0
-241 -266 0
-241 -267 0
-241 -268 0
-241 -269 0
-241 -270 0
-241 -271 0
-241 -272 0
-241 -273 0
-241 -274 0
-241 -275 0
-241 -276 0
-241 -277 0
-241 -278 0
-241 -279 0
-241 -280 0
-241 -281 0
-241 -282 0
-241 -283 0
-241 -284 0
-241 -285 0
-241 -286 0
-241 -287 0
-241 -288 0
-241 -289 0
-241 -290 0
-241 -291 0
-241 -292 0
-242 -243 0
-242 -244 0
-242 -245 0
-242 -246 0
-242 -247 0
-242 -248 0
-242 -249 0
-242 -250 0
-242 -251 0
-242 -252 0
-242 -253 0
-242 -254 0
-242 -255 0
-242 -256 0
-242 -257 0
-242 -258 0
-242 -259 0
-242 -260 0
-242 -261 0
-242 -262 0
-242 -263 0
-242 -264 0
-242 -265 0
-242 -266 0
-242 -267 0
-242 -268 0
-242 -269 0
-242 -270 0
-242 -271 0
-242 -272 0
-242 -273 0
-242 -274 0
-242 -275 0
-242 -276 0
-242 -277 0
-242 -278 0
-242 -279 0
-242 -280 0
-242 -281 0
-242 -282 0
-242 -283 0
-242 -284 0
-242 -285 0
-242 -286 0
-242 -287 0
-242 -288 0
-242 -289 0
-242 -290 0
-242 -291 0
-242 -292 0
-243 -244 0
-243 -245 0
-243 -246 0
-243 -247 0
-243 -248 0
-243 -249 0
-243 -250 0
-243 -251 0
-243 -252 0
-243 -253 0
-243 -254 0
-243 -255 0
-243 -256 0
-243 -257 0
-243 -258 0
-243 -259 0
-243 -260 0
-243 -261 0
-243 -262 0
-243 -263 0
-243 -264 0
-243 -265 0
-243 -266 0
-243 -267 0
-243 -268 0
-243 -269 0
-243 -270 0
-243 -271 0
-243 -272 0
-243 -273 0
-243 -274 0
-243 -275 0
-243 -276 0
-243 -277 0
-243 -278 0
-243 -279 0
-243 -280 0
-243 -281 0
-243 -282 0
-243 -283 0
-243 -284 0
-243 -285 0
-243 -286 0
-243 -287 0
-243 -288 0
-243 -289 0
-243 -290 0
-243 -291 0
-243 -292 0
-244 -245 0
-244 -246 0
-244 -247 0
-244 -248 0
-244 -249 0
-244 -250 0
-244 -251 0
-244 -252 0
-244 -253 0
-244 -254 0
-244 -255 0
-244 -256 0
-244 -257 0
-244 -258 0
-244 -259 0
-244 -260 0
-244 -261 0
-244 -262 0
-244 -263 0
-244 -264 0
-244 -265 0
-244 -266 0
-244 -267 0
-244 -268 0
-244 -269 0
-244 -270 0
-244 -271 0
-244 -272 0
-244 -273 0
-244 -274 0
-244 -275 0
-244 -276 0
-244 -277 0
-244 -278 0
-244 -279 0
-244 -280 0
-244 -281 0
-244 -282 0
-244 -283 0
-244 -284 0
-244 -285 0
-244 -286 0
-244 -287 0
-244 -288 0
-244 -289 0
-244 -290 0
-244 -291 0
-244 -292 0
-245 -246 0
-245 -247 0
-245 -248 0
-245 -249 0
-245 -250 0
-245 -251 0
-245 -252 0
-245 -253 0
-245 -254 0
-245 -255 0
-245 -256 0
-245 -257 0
-245 -258 0
-245 -259 0
-245 -260 0
-245 -261 0
-245 -262 0
-245 -263 0
-245 -264 0
-245 -265 0
-245 -266 0
-245 -267 0
-245 -268 0
-245 -269 0
-245 -270 0
-245 -271 0
-245 -272 0
-245 -273 0
-245 -274 0
-245 -275 0
-245 -276 0
-245 -277 0
-245 -278 0
-245 -279 0
-245 -280 0
-245 -281 0
-245 -282 0
-245 -283 0
-245 -284 0
-245 -285 0
-245 -286 0
-245 -287 0
-245 -288 0
-245 -289 0
-245 -290 0
-245 -291 0
-245 -292 0
-246 -247 0
-246 -248 0
-246 -249 0
-246 -250 0
-246 -251 0
-246 -252 0
-246 -253 0
-246 -254 0
-246 -255 0
-246 -256 0
-246 -257 0
-246 -258 0
-246 -259 0
-246 -260 0
-246 -261 0
-246 -262 0
-246 -263 0
-246 -264 0
-246 -265 0
-246 -266 0
-246 -267 0
-246 -268 0
-246 -269 0
-246 -270 0
-246 -271 0
-246 -272 0
-246 -273 0
-246 -274 0
-246 -275 0
-246 -276 0
-246 -277 0
-246 -278 0
-246 -279 0
-246 -280 0
-246 -281 0
-246 -282 0
-246 -283 0
-246 -284 0
-246 -285 0
-246 -286 0
-246 -287 0
-246 -288 0
-246 -289 0
-246 -290 0
-246 -291 0
-246 -292 0
-247 -248 0
-247 -249 0
-247 -250 0
-247 -251 0
-247 -252 0
-247 -253 0
-247 -254 0
-247 -255 0
-247 -256 0
-247 -257 0
-247 -258 0
-247 -259 0
-247 -260 0
-247 -261 0
-247 -262 0
-247 -263 0
-247 -264 0
-247 -265 0
-247 -266 0
-247 -267 0
-247 -268 0
-247 -269 0
-247 -270 0
-247 -271 0
-247 -272 0
-247 -273 0
-247 -274 0
-247 -275 0
-247 -276 0
-247 -277 0
-247 -278 0
-247 -279 0
-247 -280 0
-247 -281 0
-247 -282 0
-247 -283 0
-247 -284 0
-247 -285 0
-247 -286 0
-247 -287 0
-247 -288 0
-247 -289 0
-247 -290 0
-247 -291 0
-247 -292 0
-248 -249 0
-248 -250 0
-248 -251 0
-248 -252 0
-248 -253 0
-248 -254 0
-248 -255 0
-248 -256 0
-248 -257 0
-248 -258 0
-248 -259 0
-248 -260 0
-248 -261 0
-248 -262 0
-248 -263 0
-248 -264 0
-248 -265 0
-248 -266 0
-248 -267 0
-248 -268 0
-248 -269 0
-248 -270 0
-248 -271 0
-248 -272 0
-248 -273 0
-248 -274 0
-248 -275 0
-248 -276 0
-248 -277 0
-248 -278 0
-248 -279 0
-248 -280 0
-248 -281 0
-248 -282 0
-248 -283 0
-248 -284 0
-248 -285 0
-248 -286 0
-248 -287 0
-248 -288 0
-248 -289 0
-248 -290 0
-248 -291 0
-248 -292 0
-249 -250 0
-249 -251 0
-249 -252 0
-249 -253 0
-249 -254 0
-249 -255 0
-249 -256 0
-249 -257 0
-249 -258 0
-249 -259 0
-249 -260 0
-249 -261 0
-249 -262 0
-249 -263 0
-249 -264 0
-249 -265 0
-249 -266 0
-249 -267 0
-249 -268 0
-249 -269 0
-249 -270 0
-249 -271 0
-249 -272 0
-249 -273 0
-249 -274 0
-249 -275 0
-249 -276 0
-249 -277 0
-249 -278 0
-249 -279 0
-249 -280 0
-249 -281 0
-249 -282 0
-249 -283 0
-249 -284 0
-249 -285 0
-249 -286 0
-249 -287 0
-249 -288 0
-249 -289 0
-249 -290 0
-249 -291 0
-249 -292 0
-250 -251 0
-250 -252 0
-250 -253 0
-250 -254 0
-250 -255 0
-250 -256 0
-250 -257 0
-250 -258 0
-250 -259 0
-250 -260 0
-250 -261 0
-250 -262 0
-250 -263 0
-250 -264 0
-250 -265 0
-250 -266 0
-250 -267 0
-250 -268 0
-250 -269 0
-250 -270 0
-250 -271 0
-250 -272 0
-250 -273 0
-250 -274 0
-250 -275 0
-250 -276 0
-250 -277 0
-250 -278 0
-250 -279 0
-250 -280 0
-250 -281 0
-250 -282 0
-250 -283 0
-250 -284 0
-250 -285 0
-250 -286 0
-250 -287 0
-250 -288 0
-250 -289 0
-250 -290 0
-250 -291 0
-250 -292 0
-251 -252 0
-251 -253 0
-251 -254 0
-251 -255 0
-251 -256 0
-251 -257 0
-251 -258 0
-251 -259 0
-251 -260 0
-251 -261 0
-251 -262 0
-251 -263 0
-251 -264 0
-251 -265 0
-251 -266 0
-251 -267 0
-251 -268 0
-251 -269 0
-251 -270 0
-251 -271 0
-251 -272 0
-251 -273 0
-251 -274 0
-251 -275 0
-251 -276 0
-251 -277 0
-251 -278 0
-251 -279 0
-251 -280 0
-251 -281 0
-251 -282 0
-251 -283 0
-251 -284 0
-251 -285 0
-251 -286 0
-251 -287 0
-251 -288 0
-251 -289 0
-251 -290 0
-251 -291 0
-251 -292 0
-252 -253 0
-252 -254 0
-252 -255 0
-252 -256 0
-252 -257 0
-252 -258 0
-252 -259 0
-252 -260 0
-252 -261 0
-252 -262 0
-252 -263 0
-252 -264 0
-252 -265 0
-252 -266 0
-252 -267 0
-252 -268 0
-252 -269 0
-252 -270 0
-252 -271 0
-252 -272 0
-252 -273 0
-252 -274 0
-252 -275 0
-252 -276 0
-252 -277 0
-252 -278 0
-252 -279 0
-252 -280 0
-252 -281 0
-252 -282 0
-252 -283 0
-252 -284 0
-252 -285 0
-252 -286 0
-252 -287 0
-252 -288 0
-252 -289 0
-252 -290 0
-252 -291 0
-252 -292 0
-253 -254 0
-253 -255 0
-253 -256 0
-253 -257 0
-253 -258 0
-253 -259 0
-253 -260 0
-253 -261 0
-253 -262 0
-253 -263 0
-253 -264 0
-253 -265 0
-253 -266 0
-253 -267 0
-253 -268 0
-253 -269 0
-253 -270 0
-253 -271 0
-253 -272 0
-253 -273 0
-253 -274 0
-253 -275 0
-253 -276 0
-253 -277 0
-253 -278 0
-253 -279 0
-253 -280 0
-253 -281 0
-253 -282 0
-253 -283 0
-253 -284 0
-253 -285 0
-253 -286 0
-253 -287 0
-253 -288 0
-253 -289 0
-253 -290 0
-253 -291 0
-253 -292 0
-254 -255 0
-254 -256 0
-254 -257 0
-254 -258 0
-254 -259 0
-254 -260 0
-254 -261 0
-254 -262 0
-254 -263 0
-254 -264 0
-254 -265 0
-254 -266 0
-254 -267 0
-254 -268 0
-254 -269 0
-254 -270 0
-254 -271 0
-254 -272 0
-254 -273 0
-254 -274 0
-254 -275 0
-254 -276 0
-254 -277 0
-254 -278 0
-254 -279 0
-254 -280 0
-254 -281 0
-254 -282 0
-254 -283 0
-254 -284 0
-254 -285 0
-254 -286 0
-254 -287 0
-254 -288 0
-254 -289 0
-254 -290 0
-254 -291 0
-254 -292 0
-255 -256 0
-255 -257 0
-255 -258 0
-255 -259 0
-255 -260 0
-255 -261 0
-255 -262 0
-255 -263 0
-255 -264 0
-255 -265 0
-255 -266 0
-255 -267 0
-255 -268 0
-255 -269 0
-255 -270 0
-255 -271 0
-255 -272 0
-255 -273 0
-255 -274 0
-255 -275 0
-255 -276 0
-255 -277 0
-255 -278 0
-255 -279 0
-255 -280 0
-255 -281 0
-255 -282 0
-255 -283 0
-255 -284 0
-255 -285 0
-255 -286 0
-255 -287 0
-255 -288 0
-255 -289 0
-255 -290 0
-255 -291 0
-255 -292 0
-256 -257 0
-256 -258 0
-256 -259 0
-256 -260 0
-256 -261 0
-256 -262 0
-256 -263 0
-256 -264 0
-256 -265 0
-256 -266 0
-256 -267 0
-256 -268 0
-256 -269 0
-256 -270 0
-256 -271 0
-256 -272 0
-256 -273 0
-256 -274 0
-256 -275 0
-256 -276 0
-256 -277 0
-256 -278 0
-256 -279 0
-256 -280 0
-256 -281 0
-256 -282 0
-256 -283 0
-256 -284 0
-256 -285 0
-256 -286 0
-256 -287 0
-256 -288 0
-256 -289 0
-256 -290 0
-256 -291 0
-256 -292 0
-257 -258 0
-257 -259 0
-257 -260 0
-257 -261 0
-257 -262 0
-257 -263 0
-257 -264 0
-257 -265 0
-257 -266 0
-257 -267 0
-257 -268 0
-257 -269 0
-257 -270 0
-257 -271 0
-257 -272 0
-257 -273 0
-257 -274 0
-257 -275 0
-257 -276 0
-257 -277 0
-257 -278 0
-257 -279 0
-257 -280 0
-257 -281 0
-257 -282 0
-257 -283 0
-257 -284 0
-257 -285 0
-257 -286 0
-257 -287 0
-257 -288 0
-257 -289 0
-257 -290 0
-257 -291 0
-257 -292 0
-258 -259 0
-258 -260 0
-258 -261 0
-258 -262 0
-258 -263 0
-258 -264 0
-258 -265 0
-258 -266 0
-258 -267 0
-258 -268 0
-258 -269 0
-258 -270 0
-258 -271 0
-258 -272 0
-258 -273 0
-258 -274 0
-258 -275 0
-258 -276 0
-258 -277 0
-258 -278 0
-258 -279 0
-258 -280 0
-258 -281 0
-258 -282 0
-258 -283 0
-258 -284 0
-258 -285 0
-258 -286 0
-258 -287 0
-258 -288 0
-258 -289 0
-258 -290 0
-258 -291 0
-258 -292 0
-259 -260 0
-259 -261 0
-259 -262 0
-259 -263 0
-259 -264 0
-259 -265 0
-259 -266 0
-259 -267 0
-259 -268 0
-259 -269 0
-259 -270 0
-259 -271 0
-259 -272 0
-259 -273 0
-259 -274 0
-259 -275 0
-259 -276 0
-259 -277 0
-259 -278 0
-259 -279 0
-259 -280 0
-259 -281 0
-259 -282 0
-259 -283 0
-259 -284 0
-259 -285 0
-259 -286 0
-259 -287 0
-259 -288 0
-259 -289 0
-259 -290 0
-259 -291 0
-259 -292 0
-260 -261 0
-260 -262 0
-260 -263 0
-260 -264 0
-260 -265 0
-260 -266 0
-260 -267 0
-260 -268 0
-260 -269 0
-260 -270 0
-260 -271 0
-260 -272 0
-260 -273 0
-260 -274 0
-260 -275 0
-260 -276 0
-260 -277 0
-260 -278 0
-260 -279 0
-260 -280 0
-260 -281 0
-260 -282 0
-260 -283 0
-260 -284 0
-260 -285 0
-260 -286 0
-260 -287 0
-260 -288 0
-260 -289 0
-260 -290 0
-260 -291 0
-260 -292 0
-261 -262 0
-261 -263 0
-261 -264 0
-261 -265 0
-261 -266 0
-261 -267 0
-261 -268 0
-261 -269 0
-261 -270 0
-261 -271 0
-261 -272 0
-261 -273 0
-261 -274 0
-261 -275 0
-261 -276 0
-261 -277 0
-261 -278 0
-261 -279 0
-261 -280 0
-261 -281 0
-261 -282 0
-261 -283 0
-261 -284 0
-261 -285 0
-261 -286 0
-261 -287 0
-261 -288 0
-261 -289 0
-261 -290 0
-261 -291 0
-261 -292 0
-262 -263 0
-262 -264 0
-262 -265 0
-262 -266 0
-262 -267 0
-262 -268 0
-262 -269 0
-262 -270 0
-262 -271 0
-262 -272 0
-262 -273 0
-262 -274 0
-262 -275 0
-262 -276 0
-262 -277 0
-262 -278 0
-262 -279 0
-262 -280 0
-262 -281 0
-262 -282 0
-262 -283 0
-262 -284 0
-262 -285 0
-262 -286 0
-262 -287 0
-262 -288 0
-262 -289 0
-262 -290 0
-262 -291 0
-262 -292 0
-263 -264 0
-263 -265 0
-263 -266 0
-263 -267 0
-263 -268 0
-263 -269 0
-263 -270 0
-263 -271 0
-263 -272 0
-263 -273 0
-263 -274 0
-263 -275 0
-263 -276 0
-263 -277 0
-263 -278 0
-263 -279 0
-263 -280 0
-263 -281 0
-263 -282 0
-263 -283 0
-263 -284 0
-263 -285 0
-263 -286 0
-263 -287 0
-263 -288 0
-263 -289 0
-263 -290 0
-263 -291 0
-263 -292 0
-264 -265 0
-264 -266 0
-264 -267 0
-264 -268 0
-264 -269 0
-264 -270 0
-264 -271 0
-264 -272 0
-264 -273 0
-264 -274 0
-264 -275 0
-264 -276 0
-264 -277 0
-264 -278 0
-264 -279 0
-264 -280 0
-264 -281 0
-264 -282 0
-264 -283 0
-264 -284 0
-264 -285 0
-264 -286 0
-264 -287 0
-264 -288 0
-264 -289 0
-264 -290 0
-264 -291 0
-264 -292 0
-265 -266 0
-265 -267 0
-265 -268 0
-265 -269 0
-265 -270 0
-265 -271 0
-265 -272 0
-265 -273 0
-265 -274 0
-265 -275 0
-265 -276 0
-265 -277 0
-265 -278 0
-265 -279 0
-265 -280 0
-265 -281 0
-265 -282 0
-265 -283 0
-265 -284 0
-265 -285 0
-265 -286 0
-265 -287 0
-265 -288 0
-265 -289 0
-265 -290 0
-265 -291 0
-265 -292 0
-266 -267 0
-266 -268 0
-266 -269 0
-266 -270 0
-266 -271 0
-266 -272 0
-266 -273 0
-266 -274 0
-266 -275 0
-266 -276 0
-266 -277 0
-266 -278 0
-266 -279 0
-266 -280 0
-266 -281 0
-266 -282 0
-266 -283 0
-266 -284 0
-266 -285 0
-266 -286 0
-266 -287 0
-266 -288 0
-266 -289 0
-266 -290 0
-266 -291 0
-266 -292 0
-267 -268 0
-267 -269 0
-267 -270 0
-267 -271 0
-267 -272 0
-267 -273 0
-267 -274 0
-267 -275 0
-267 -276 0
-267 -277 0
-267 -278 0
-267 -279 0
-267 -280 0
-267 -281 0
-267 -282 0
-267 -283 0
-267 -284 0
-267 -285 0
-267 -286 0
-267 -287 0
-267 -288 0
-267 -289 0
-267 -290 0
-267 -291 0
-267 -292 0
-268 -269 0
-268 -270 0
-268 -271 0
-268 -272 0
-268 -273 0
-268 -274 0
-268 -275 0
-268 -276 0
-268 -277 0
-268 -278 0
-268 -279 0
-268 -280 0
-268 -281 0
-268 -282 0
-268 -283 0
-268 -284 0
-268 -285 0
-268 -286 0
-268 -287 0
-268 -288 0
-268 -289 0
-268 -290 0
-268 -291 0
-268 -292 0
-269 -270 0
-269 -271 0
-269 -272 0
-269 -273 0
-269 -274 0
-269 -275 0
-269 -276 0
-269 -277 0
-269 -278 0
-269 -279 0
-269 -280 0
-269 -281 0
-269 -282 0
-269 -283 0
-269 -284 0
-269 -285 0
-269 -286 0
-269 -287 0
-269 -288 0
-269 -289 0
-269 -290 0
-269 -291 0
-269 -292 0
-270 -271 0
-270 -272 0
-270 -273 0
-270 -274 0
-270 -275 0
-270 -276 0
-270 -277 0
-270 -278 0
-270 -279 0
-270 -280 0
-270 -281 0
-270 -282 0
-270 -283 0
-270 -284 0
-270 -285 0
-270 -286 0
-270 -287 0
-270 -288 0
-270 -289 0
-270 -290 0
-270 -291 0
-270 -292 0
-271 -272 0
-271 -273 0
-271 -274 0
-271 -275 0
-271 -276 0
-271 -277 0
-271 -278 0
-271 -279 0
-271 -280 0
-271 -281 0
-271 -282 0
-271 -283 0
-271 -284 0
-271 -285 0
-271 -286 0
-271 -287 0
-271 -288 0
-271 -289 0
-271 -290 0
-271 -291 0
-271 -292 0
-272 -273 0
-272 -274 0
-272 -275 0
-272 -276 0
-272 -277 0
-272 -278 0
-272 -279 0
-272 -280 0
-272 -281 0
-272 -282 0
-272 -283 0
-272 -284 0
-272 -285 0
-272 -286 0
-272 -287 0
-272 -288 0
-272 -289 0
-272 -290 0
-272 -291 0
-272 -292 0
-273 -274 0
-273 -275 0
-273 -276 0
-273 -277 0
-273 -278 0
-273 -279 0
-273 -280 0
-273 -281 0
-273 -282 0
-273 -283 0
-273 -284 0
-273 -285 0
-273 -286 0
-273 -287 0
-273 -288 0
-273 -289 0
-273 -290 0
-273 -291 0
-273 -292 0
-274 -275 0
-274 -276 0
-274 -277 0
-274 -278 0
-274 -279 0
-274 -280 0
-274 -281 0
-274 -282 0
-274 -283 0
-274 -284 0
-274 -285 0
-274 -286 0
-274 -287 0
-274 -288 0
-274 -289 0
-274 -290 0
-274 -291 0
-274 -292 0
-275 -276 0
-275 -277 0
-275 -278 0
-275 -279 0
-275 -280 0
-275 -281 0
-275 -282 0
-275 -283 0
-275 -284 0
-275 -285 0
-275 -286 0
-275 -287 0
-275 -288 0
-275 -289 0
-275 -290 0
-275 -291 0
-275 -292 0
-276 -277 0
-276 -278 0
-276 -279 0
-276 -280 0
-276 -281 0
-276 -282 0
-276 -283 0
-276 -284 0
-276 -285 0
-276 -286 0
-276 -287 0
-276 -288 0
-276 -289 0
-276 -290 0
-276 -291 0
-276 -292 0
-277 -278 0
-277 -279 0
-277 -280 0
-277 -281 0
-277 -282 0
-277 -283 0
-277 -284 0
-277 -285 0
-277 -286 0
-277 -287 0
-277 -288 0
-277 -289 0
-277 -290 0
-277 -291 0
-277 -292 0
-278 -279 0
-278 -280 0
-278 -281 0
-278 -282 0
-278 -283 0
-278 -284 0
-278 -285 0
-278 -286 0
-278 -287 0
-278 -288 0
-278 -289 0
-278 -290 0
-278 -291 0
-278 -292 0
-279 -280 0
-279 -281 0
-279 -282 0
-279 -283 0
-279 -284 0
-279 -285 0
-279 -286 0
-279 -287 0
-279 -288 0
-279 -289 0
-279 -290 0
-279 -291 0
-279 -292 0
-280 -281 0
-280 -282 0
-280 -283 0
-280 -284 0
-280 -285 0
-280 -286 0
-280 -287 0
-280 -288 0
-280 -289 0
-280 -290 0
-280 -291 0
-280 -292 0
-281 -282 0
-281 -283 0
-281 -284 0
-281 -285 0
-281 -286 0
-281 -287 0
-281 -288 0
-281 -289 0
-281 -290 0
-281 -291 0
-281 -292 0
-282 -283 0
-282 -284 0
-282 -285 0
-282 -286 0
-282 -287 0
-282 -288 0
-282 -289 0
-282 -290 0
-282 -291 0
-282 -292 0
-283 -284 0
-283 -285 0
-283 -286 0
-283 -287 0
-283 -288 0
-283 -289 0
-283 -290 0
-283 -291 0
-283 -292 0
-284 -285 0
-284 -286 0
-284 -287 0
-284 -288 0
-284 -289 0
-284 -290 0
-284 -291 0
-284 -292 0
-285 -286 0
-285 -287 0
-285 -288 0
-285 -289 0
-285 -290 0
-285 -291 0
-285 -292 0
-286 -287 0
-286 -288 0
-286 -289 0
-286 -290 0
-286 -291 0
-286 -292 0
-287 -288 0
-287 -289 0
-287 -290 0
-287 -291 0
-287 -292 0
-288 -289 0
-288 -290 0
-288 -291 0
-288 -292 0
-289 -290 0
-289 -291 0
-289 -292 0
-290 -291 0
-290 -292 0
-291 -292 0
-233 -33 0
-233 -34 0
-233 -35 0
-233 36 0
-233 -37 0
-233 -38 0
-233 -39 0
-233 40 0
-233 -41 0
-233 -42 0
-233 -43 0
-233 44 0
-233 -45 0
-233 -46 0
-233 -47 0
-233 48 0
-233 -49 0
-233 -50 0
-233 -51 0
-233 52 0
-233 -53 0
-233 -54 0
-233 -55 0
-233 56 0
-233 -57 0
-233 -58 0
-233 -59 0
-233 60 0
-233 -61 0
-233 -62 0
-233 -63 0
-233 64 0
-234 -33 0
-234 34 0
-234 -35 0
-234 -36 0
-234 -37 0
-234 38 0
-234 -39 0
-234 -40 0
-234 -41 0
-234 42 0
-234 -43 0
-234 -44 0
-234 -45 0
-234 46 0
-234 -47 0
-234 -48 0
-234 -49 0
-234 50 0
-234 -51 0
-234 -52 0
-234 -53 0
-234 54 0
-234 -55 0
-234 -56 0
-234 -57 0
-234 58 0
-234 -59 0
-234 -60 0
-234 -61 0
-234 62 0
-234 -63 0
-234 -64 0
-235 -33 0
-235 -34 0
-235 35 0
-235 -36 0
-235 -37 0
-235 -38 0
-235 39 0
-235 -40 0
-235 -41 0
-235 -42 0
-235 43 0
-235 -44 0
-235 -45 0
-235 -46 0
-235 47 0
-235 -48 0
-235 -49 0
-235 -50 0
-235 51 0
-235 -52 0
-235 -53 0
-235 -54 0
-235 55 0
-235 -56 0
-235 -57 0
-235 -58 0
-235 59 0
-235 -60 0
-235 -61 0
-235 -62 0
-235 63 0
-235 -64 0
-236 33 0
-236 -34 0
-236 -35 0
-236 -36 0
-236 37 0
-236 -38 0
-236 -39 0
-236 -40 0
-236 41 0
-236 -42 0
-236 -43 0
-236 -44 0
-236 45 0
-236 -46 0
-236 -47 0
-236 -48 0
-236 49 0
-236 -50 0
-236 -51 0
-236 -52 0
-236 53 0
-236 -54 0
-236 -55 0
-236 -56 0
-236 57 0
-236 -58 0
-236 -59 0
-236 -60 0
-236 61 0
-236 -62 0
-236 -63 0
-236 -64 0
-237 -33 0
-237 -34 0
-237 -35 0
-237 -36 0
-237 -37 0
-237 38 0
-237 -39 0
-237 40 0
-237 -41 0
-237 -42 0
-237 -43 0
-237 -44 0
-237 -45 0
-237 46 0
-237 -47 0
-237 48 0
-237 -49 0
-237 -50 0
-237 -51 0
-237 -52 0
-237 -53 0
-237 54 0
-237 -55 0
-237 56 0
-237 -57 0
-237 -58 0
-237 -59 0
-237 -60 0
-237 -61 0
-237 62 0
-237 -63 0
-237 64 0
-238 -33 0
-238 34 0
-238 -35 0
-238 36 0
-238 -37 0
-238 -38 0
-238 -39 0
-238 -40 0
-238 -41 0
-238 42 0
-238 -43 0
-238 44 0
-238 -45 0
-238 -46 0
-238 -47 0
-238 -48 0
-238 -49 0
-238 50 0
-238 -51 0
-238 52 0
-238 -53 0
-238 -54 0
-238 -55 0
-238 -56 0
-238 -57 0
-238 58 0
-238 -59 0
-238 60 0
-238 -61 0
-238 -62 0
-238 -63 0
-238 -64 0
-239 -33 0
-239 -34 0
-239 -35 0
-239 -36 0
-239 37 0
-239 -38 0
-239 39 0
-239 -40 0
-239 -41 0
-239 -42 0
-239 -43 0
-239 -44 0
-239 45 0
-239 -46 0
-239 47 0
-239 -48 0
-239 -49 0
-239 -50 0
-239 -51 0
-239 -52 0
-239 53 0
-239 -54 0
-239 55 0
-239 -56 0
-239 -57 0
-239 -58 0
-239 -59 0
-239 -60 0
-239 61 0
-239 -62 0
-239 63 0
-239 -64 0
-240 33 0
-240 -34 0
-240 35 0
-240 -36 0
-240 -37 0
-240 -38 0
-240 -39 0
-240 -40 0
-240 41 0
-240 -42 0
-240 43 0
-240 -44 0
-240 -45 0
-240 -46 0
-240 -47 0
-240 -48 0
-240 49 0
-240 -50 0
-240 51 0
-240 -52 0
-240 -53 0
-240 -54 0
-240 -55 0
-240 -56 0
-240 57 0
-240 -58 0
-240 59 0
-240 -60 0
-240 -61 0
-240 -62 0
-240 -63 0
-240 -64 0
-241 -33 0
-241 -34 0
-241 -35 0
-241 -36 0
-241 -37 0
-241 -38 0
-241 -39 0
-241 -40 0
-241 -41 0
-241 42 0
-241 -43 0
-241 44 0
-241 -45 0
-241 46 0
-241 -47 0
-241 48 0
-241 -49 0
-241 -50 0
-241 -51 0
-241 -52 0
-241 -53 0
-241 -54 0
-241 -55 0
-241 -56 0
-241 -57 0
-241 58 0
-241 -59 0
-241 60 0
-241 -61 0
-241 62 0
-241 -63 0
-241 64 0
-242 -33 0
-242 34 0
-242 -35 0
-242 36 0
-242 -37 0
-242 38 0
-242 -39 0
-242 40 0
-242 -41 0
-242 -42 0
-242 -43 0
-242 -44 0
-242 -45 0
-242 -46 0
-242 -47 0
-242 -48 0
-242 -49 0
-242 50 0
-242 -51 0
-242 52 0
-242 -53 0
-242 54 0
-242 -55 0
-242 56 0
-242 -57 0
-242 -58 0
-242 -59 0
-242 -60 0
-242 -61 0
-242 -62 0
-242 -63 0
-242 -64 0
-243 -33 0
-243 -34 0
-243 -35 0
-243 -36 0
-243 -37 0
-243 -38 0
-243 -39 0
-243 -40 0
-243 41 0
-243 -42 0
-243 43 0
-243 -44 0
-243 45 0
-243 -46 0
-243 47 0
-243 -48 0
-243 -49 0
-243 -50 0
-243 -51 0
-243 -52 0
-243 -53 0
-243 -54 0
-243 -55 0
-243 -56 0
-243 57 0
-243 -58 0
-243 59 0
-243 -60 0
-243 61 0
-243 -62 0
-243 63 0
-243 -64 0
-244 33 0
-244 -34 0
-244 35 0
-244 -36 0
-244 37 0
-244 -38 0
-244 39 0
-244 -40 0
-244 -41 0
-244 -42 0
-244 -43 0
-244 -44 0
-244 -45 0
-244 -46 0
-244 -47 0
-244 -48 0
-244 49 0
-244 -50 0
-244 51 0
-244 -52 0
-244 53 0
-244 -54 0
-244 55 0
-244 -56 0
-244 -57 0
-244 -58 0
-244 -59 0
-244 -60 0
-244 -61 0
-244 -62 0
-244 -63 0
-244 -64 0
-245 -33 0
-245 -34 0
-245 -35 0
-245 -36 0
-245 -37 0
-245 -38 0
-245 -39 0
-245 -40 0
-245 -41 0
-245 -42 0
-245 -43 0
-245 -44 0
-245 -45 0
-245 -46 0
-245 -47 0
-245 -48 0
-245 -49 0
-245 50 0
-245 -51 0
-245 52 0
-245 -53 0
-245 54 0
-245 -55 0
-245 56 0
-245 -57 0
-245 58 0
-245 -59 0
-245 60 0
-245 -61 0
-245 62 0
-245 -63 0
-245 64 0
-246 -33 0
-246 34 0
-246 -35 0
-246 36 0
-246 -37 0
-246 38 0
-246 -39 0
-246 40 0
-246 -41 0
-246 42 0
-246 -43 0
-246 44 0
-246 -45 0
-246 46 0
-246 -47 0
-246 48 0
-246 -49 0
-246 -50 0
-246 -51 0
-246 -52 0
-246 -53 0
-246 -54 0
-246 -55 0
-246 -56 0
-246 -57 0
-246 -58 0
-246 -59 0
-246 -60 0
-246 -61 0
-246 -62 0
-246 -63 0
-246 -64 0
-247 -33 0
-247 -34 0
-247 -35 0
-247 -36 0
-247 -37 0
-247 -38 0
-247 -39 0
-247 -40 0
-247 -41 0
-247 -42 0
-247 -43 0
-247 -44 0
-247 -45 0
-247 -46 0
-247 -47 0
-247 -48 0
-247 49 0
-247 -50 0
-247 51 0
-247 -52 0
-247 53 0
-247 -54 0
-247 55 0
-247 -56 0
-247 57 0
-247 -58 0
-247 59 0
-247 -60 0
-247 61 0
-247 -62 0
-247 63 0
-247 -64 0
-248 33 0
-248 -34 0
-248 35 0
-248 -36 0
-248 37 0
-248 -38 0
-248 39 0
-248 -40 0
-248 41 0
-248 -42 0
-248 43 0
-248 -44 0
-248 45 0
-248 -46 0
-248 47 0
-248 -48 0
-248 -49 0
-248 -50 0
-248 -51 0
-248 -52 0
-248 -53 0
-248 -54 0
-248 -55 0
-248 -56 0
-248 -57 0
-248 -58 0
-248 -59 0
-248 -60 0
-248 -61 0
-248 -62 0
-248 -63 0
-248 -64 0
-249 -33 0
-249 -34 2 0
-249 34 -2 0
-249 -35 0
-249 -36 4 0
-249 36 -4 0
-249 -37 0
-249 -38 6 0
-249 38 -6 0
-249 -39 0
-249 -40 8 0
-249 40 -8 0
-249 -41 0
-249 -42 10 0
-249 42 -10 0
-249 -43 0
-249 -44 12 0
-249 44 -12 0
-249 -45 0
-249 -46 14 0
-249 46 -14 0
-249 -47 0
-249 -48 16 0
-249 48 -16 0
-249 -49 0
-249 -50 18 0
-249 50 -18 0
-249 -51 0
-249 -52 20 0
-249 52 -20 0
-249 -53 0
-249 -54 22 0
-249 54 -22 0
-249 -55 0
-249 -56 24 0
-249 56 -24 0
-249 -57 0
-249 -58 26 0
-249 58 -26 0
-249 -59 0
-249 -60 28 0
-249 60 -28 0
-249 -61 0
-249 -62 30 0
-249 62 -30 0
-249 -63 0
-249 -64 32 0
-249 64 -32 0
-250 -33 0
-250 -34 -2 0
-250 34 2 0
-250 -35 0
-250 -36 -4 0
-250 36 4 0
-250 -37 0
-250 -38 -6 0
-250 38 6 0
-250 -39 0
-250 -40 -8 0
-250 40 8 0
-250 -41 0
-250 -42 -10 0
-250 42 10 0
-250 -43 0
-250 -44 -12 0
-250 44 12 0
-250 -45 0
-250 -46 -14 0
-250 46 14 0
-250 -47 0
-250 -48 -16 0
-250 48 16 0
-250 -49 0
-250 -50 -18 0
-250 50 18 0
-250 -51 0
-250 -52 -20 0
-250 52 20 0
-250 -53 0
-250 -54 -22 0
-250 54 22 0
-250 -55 0
-250 -56 -24 0
-250 56 24 0
-250 -57 0
-250 -58 -26 0
-250 58 26 0
-250 -59 0
-250 -60 -28 0
-250 60 28 0
-250 -61 0
-250 -62 -30 0
-250 62 30 0
-250 -63 0
-250 -64 -32 0
-250 64 32 0
-251 -33 1 0
-251 33 -1 0
-251 -34 0
-251 -35 3 0
-251 35 -3 0
-251 -36 0
-251 -37 5 0
-251 37 -5 0
-251 -38 0
-251 -39 7 0
-251 39 -7 0
-251 -40 0
-251 -41 9 0
-251 41 -9 0
-251 -42 0
-251 -43 11 0
-251 43 -11 0
-251 -44 0
-251 -45 13 0
-251 45 -13 0
-251 -46 0
-251 -47 15 0
-251 47 -15 0
-251 -48 0
-251 -49 17 0
-251 49 -17 0
-251 -50 0
-251 -51 19 0
-251 51 -19 0
-251 -52 0
-251 -53 21 0
-251 53 -21 0
-251 -54 0
-251 -55 23 0
-251 55 -23 0
-251 -56 0
-251 -57 25 0
-251 57 -25 0
-251 -58 0
-251 -59 27 0
-251 59 -27 0
-251 -60 0
-251 -61 29 0
-251 61 -29 0
-251 -62 0
-251 -63 31 0
-251 63 -31 0
-251 -64 0
-252 -33 -1 0
-252 33 1 0
-252 -34 0
-252 -35 -3 0
-252 35 3 0
-252 -36 0
-252 -37 -5 0
-252 37 5 0
-252 -38 0
-252 -39 -7 0
-252 39 7 0
-252 -40 0
-252 -41 -9 0
-252 41 9 0
-252 -42 0
-252 -43 -11 0
-252 43 11 0
-252 -44 0
-252 -45 -13 0
-252 45 13 0
-252 -46 0
-252 -47 -15 0
-252 47 15 0
-252 -48 0
-252 -49 -17 0
-252 49 17 0
-252 -50 0
-252 -51 -19 0
-252 51 19 0
-252 -52 0
-252 -53 -21 0
-252 53 21 0
-252 -54 0
-252 -55 -23 0
-252 55 23 0
-252 -56 0
-252 -57 -25 0
-252 57 25 0
-252 -58 0
-252 -59 -27 0
-252 59 27 0
-252 -60 0
-252 -61 -29 0
-252 61 29 0
-252 -62 0
-252 -63 -31 0
-252 63 31 0
-252 -64 0
-253 -33 0
-253 -34 0
-253 -35 0
-253 -36 0
-253 -37 0
-253 -38 0
-253 39 0
-253 40 0
-253 -41 0
-253 -42 0
-253 -43 0
-253 -44 0
-253 -45 0
-253 -46 0
-253 47 0
-253 48 0
-253 -49 0
-253 -50 0
-253 -51 0
-253 -52 0
-253 -53 0
-253 -54 0
-253 55 0
-253 56 0
-253 -57 0
-253 -58 0
-253 -59 0
-253 -60 0
-253 -61 0
-253 -62 0
-253 63 0
-253 64 0
-254 -33 0
-254 -34 0
-254 35 0
-254 36 0
-254 -37 0
-254 -38 0
-254 -39 0
-254 -40 0
-254 -41 0
-254 -42 0
-254 43 0
-254 44 0
-254 -45 0
-254 -46 0
-254 -47 0
-254 -48 0
-254 -49 0
-254 -50 0
-254 51 0
-254 52 0
-254 -53 0
-254 -54 0
-254 -55 0
-254 -56 0
-254 -57 0
-254 -58 0
-254 59 0
-254 60 0
-254 -61 0
-254 -62 0
-254 -63 0
-254 -64 0
-255 -33 0
-255 -34 0
-255 -35 0
-255 -36 0
-255 37 0
-255 38 0
-255 -39 0
-255 -40 0
-255 -41 0
-255 -42 0
-255 -43 0
-255 -44 0
-255 45 0
-255 46 0
-255 -47 0
-255 -48 0
-255 -49 0
-255 -50 0
-255 -51 0
-255 -52 0
-255 53 0
-255 54 0
-255 -55 0
-255 -56 0
-255 -57 0
-255 -58 0
-255 -59 0
-255 -60 0
-255 61 0
-255 62 0
-255 -63 0
-255 -64 0
-256 33 0
-256 34 0
-256 -35 0
-256 -36 0
-256 -37 0
-256 -38 0
-256 -39 0
-256 -40 0
-256 41 0
-256 42 0
-256 -43 0
-256 -44 0
-256 -45 0
-256 -46 0
-256 -47 0
-256 -48 0
-256 49 0
-256 50 0
-256 -51 0
-256 -52 0
-256 -53 0
-256 -54 0
-256 -55 0
-256 -56 0
-256 57 0
-256 58 0
-256 -59 0
-256 -60 0
-256 -61 0
-256 -62 0
-256 -63 0
-256 -64 0
-257 -33 0
-257 -34 0
-257 -35 0
-257 -36 0
-257 -37 0
-257 -38 0
-257 -39 0
-257 -40 0
-257 -41 0
-257 -42 0
-257 43 0
-257 44 0
-257 -45 0
-257 -46 0
-257 47 0
-257 48 0
-257 -49 0
-257 -50 0
-257 -51 0
-257 -52 0
-257 -53 0
-257 -54 0
-257 -55 0
-257 -56 0
-257 -57 0
-257 -58 0
-257 59 0
-257 60 0
-257 -61 0
-257 -62 0
-257 63 0
-257 64 0
-258 -33 0
-258 -34 0
-258 35 0
-258 36 0
-258 -37 0
-258 -38 0
-258 39 0
-258 40 0
-258 -41 0
-258 -42 0
-258 -43 0
-258 -44 0
-258 -45 0
-258 -46 0
-258 -47 0
-258 -48 0
-258 -49 0
-258 -50 0
-258 51 0
-258 52 0
-258 -53 0
-258 -54 0
-258 55 0
-258 56 0
-258 -57 0
-258 -58 0
-258 -59 0
-258 -60 0
-258 -61 0
-258 -62 0
-258 -63 0
-258 -64 0
-259 -33 0
-259 -34 0
-259 -35 0
-259 -36 0
-259 -37 0
-259 -38 0
-259 -39 0
-259 -40 0
-259 41 0
-259 42 0
-259 -43 0
-259 -44 0
-259 45 0
-259 46 0
-259 -47 0
-259 -48 0
-259 -49 0
-259 -50 0
-259 -51 0
-259 -52 0
-259 -53 0
-259 -54 0
-259 -55 0
-259 -56 0
-259 57 0
-259 58 0
-259 -59 0
-259 -60 0
-259 61 0
-259 62 0
-259 -63 0
-259 -64 0
-260 33 0
-260 34 0
-260 -35 0
-260 -36 0
-260 37 0
-260 38 0
-260 -39 0
-260 -40 0
-260 -41 0
-260 -42 0
-260 -43 0
-260 -44 0
-260 -45 0
-260 -46 0
-260 -47 0
-260 -48 0
-260 49 0
-260 50 0
-260 -51 0
-260 -52 0
-260 53 0
-260 54 0
-260 -55 0
-260 -56 0
-260 -57 0
-260 -58 0
-260 -59 0
-260 -60 0
-260 -61 0
-260 -62 0
-260 -63 0
-260 -64 0
-261 -33 0
-261 -34 0
-261 -35 0
-261 -36 0
-261 -37 0
-261 -38 0
-261 -39 0
-261 -40 0
-261 -41 0
-261 -42 0
-261 -43 0
-261 -44 0
-261 -45 0
-261 -46 0
-261 -47 0
-261 -48 0
-261 -49 0
-261 -50 0
-261 51 0
-261 52 0
-261 -53 0
-261 -54 0
-261 55 0
-261 56 0
-261 -57 0
-261 -58 0
-261 59 0
-261 60 0
-261 -61 0
-261 -62 0
-261 63 0
-261 64 0
-262 -33 0
-262 -34 0
-262 35 0
-262 36 0
-262 -37 0
-262 -38 0
-262 39 0
-262 40 0
-262 -41 0
-262 -42 0
-262 43 0
-262 44 0
-262 -45 0
-262 -46 0
-262 47 0
-262 48 0
-262 -49 0
-262 -50 0
-262 -51 0
-262 -52 0
-262 -53 0
-262 -54 0
-262 -55 0
-262 -56 0
-262 -57 0
-262 -58 0
-262 -59 0
-262 -60 0
-262 -61 0
-262 -62 0
-262 -63 0
-262 -64 0
-263 -33 0
-263 -34 0
-263 -35 0
-263 -36 0
-263 -37 0
-263 -38 0
-263 -39 0
-263 -40 0
-263 -41 0
-263 -42 0
-263 -43 0
-263 -44 0
-263 -45 0
-263 -46 0
-263 -47 0
-263 -48 0
-263 49 0
-263 50 0
-263 -51 0
-263 -52 0
-263 53 0
-263 54 0
-263 -55 0
-263 -56 0
-263 57 0
-263 58 0
-263 -59 0
-263 -60 0
-263 61 0
-263 62 0
-263 -63 0
-263 -64 0
-264 33 0
-264 34 0
-264 -35 0
-264 -36 0
-264 37 0
-264 38 0
-264 -39 0
-264 -40 0
-264 41 0
-264 42 0
-264 -43 0
-264 -44 0
-264 45 0
-264 46 0
-264 -47 0
-264 -48 0
-264 -49 0
-264 -50 0
-264 -51 0
-264 -52 0
-264 -53 0
-264 -54 0
-264 -55 0
-264 -56 0
-264 -57 0
-264 -58 0
-264 -59 0
-264 -60 0
-264 -61 0
-264 -62 0
-264 -63 0
-264 -64 0
-265 -33 0
-265 -34 0
-265 -35 3 0
-265 35 -3 0
-265 -36 4 0
-265 36 -4 0
-265 -37 0
-265 -38 0
-265 -39 7 0
-265 39 -7 0
-265 -40 8 0
-265 40 -8 0
-265 -41 0
-265 -42 0
-265 -43 11 0
-265 43 -11 0
-265 -44 12 0
-265 44 -12 0
-265 -45 0
-265 -46 0
-265 -47 15 0
-265 47 -15 0
-265 -48 16 0
-265 48 -16 0
-265 -49 0
-265 -50 0
-265 -51 19 0
-265 51 -19 0
-265 -52 20 0
-265 52 -20 0
-265 -53 0
-265 -54 0
-265 -55 23 0
-265 55 -23 0
-265 -56 24 0
-265 56 -24 0
-265 -57 0
-265 -58 0
-265 -59 27 0
-265 59 -27 0
-265 -60 28 0
-265 60 -28 0
-265 -61 0
-265 -62 0
-265 -63 31 0
-265 63 -31 0
-265 -64 32 0
-265 64 -32 0
-266 -33 0
-266 -34 0
-266 -35 -3 0
-266 35 3 0
-266 -36 -4 0
-266 36 4 0
-266 -37 0
-266 -38 0
-266 -39 -7 0
-266 39 7 0
-266 -40 -8 0
-266 40 8 0
-266 -41 0
-266 -42 0
-266 -43 -11 0
-266 43 11 0
-266 -44 -12 0
-266 44 12 0
-266 -45 0
-266 -46 0
-266 -47 -15 0
-266 47 15 0
-266 -48 -16 0
-266 48 16 0
-266 -49 0
-266 -50 0
-266 -51 -19 0
-266 51 19 0
-266 -52 -20 0
-266 52 20 0
-266 -53 0
-266 -54 0
-266 -55 -23 0
-266 55 23 0
-266 -56 -24 0
-266 56 24 0
-266 -57 0
-266 -58 0
-266 -59 -27 0
-266 59 27 0
-266 -60 -28 0
-266 60 28 0
-266 -61 0
-266 -62 0
-266 -63 -31 0
-266 63 31 0
-266 -64 -32 0
-266 64 32 0
-267 -33 1 0
-267 33 -1 0
-267 -34 2 0
-267 34 -2 0
-267 -35 0
-267 -36 0
-267 -37 5 0
-267 37 -5 0
-267 -38 6 0
-267 38 -6 0
-267 -39 0
-267 -40 0
-267 -41 9 0
-267 41 -9 0
-267 -42 10 0
-267 42 -10 0
-267 -43 0
-267 -44 0
-267 -45 13 0
-267 45 -13 0
-267 -46 14 0
-267 46 -14 0
-267 -47 0
-267 -48 0
-267 -49 17 0
-267 49 -17 0
-267 -50 18 0
-267 50 -18 0
-267 -51 0
-267 -52 0
-267 -53 21 0
-267 53 -21 0
-267 -54 22 0
-267 54 -22 0
-267 -55 0
-267 -56 0
-267 -57 25 0
-267 57 -25 0
-267 -58 26 0
-267 58 -26 0
-267 -59 0
-267 -60 0
-267 -61 29 0
-267 61 -29 0
-267 -62 30 0
-267 62 -30 0
-267 -63 0
-267 -64 0
-268 -33 -1 0
-268 33 1 0
-268 -34 -2 0
-268 34 2 0
-268 -35 0
-268 -36 0
-268 -37 -5 0
-268 37 5 0
-268 -38 -6 0
-268 38 6 0
-268 -39 0
-268 -40 0
-268 -41 -9 0
-268 41 9 0
-268 -42 -10 0
-268 42 10 0
-268 -43 0
-268 -44 0
-268 -45 -13 0
-268 45 13 0
-268 -46 -14 0
-268 46 14 0
-268 -47 0
-268 -48 0
-268 -49 -17 0
-268 49 17 0
-268 -50 -18 0
-268 50 18 0
-268 -51 0
-268 -52 0
-268 -53 -21 0
-268 53 21 0
-268 -54 -22 0
-268 54 22 0
-268 -55 0
-268 -56 0
-268 -57 -25 0
-268 57 25 0
-268 -58 -26 0
-268 58 26 0
-268 -59 0
-268 -60 0
-268 -61 -29 0
-268 61 29 0
-268 -62 -30 0
-268 62 30 0
-268 -63 0
-268 -64 0
-269 -33 0
-269 -34 0
-269 -35 0
-269 -36 0
-269 -37 0
-269 -38 0
-269 -39 0
-269 -40 0
-269 -41 0
-269 -42 0
-269 -43 0
-269 -44 0
-269 45 0
-269 46 0
-269 47 0
-269 48 0
-269 -49 0
-269 -50 0
-269 -51 0
-269 -52 0
-269 -53 0
-269 -54 0
-269 -55 0
-269 -56 0
-269 -57 0
-269 -58 0
-269 -59 0
-269 -60 0
-269 61 0
-269 62 0
-269 63 0
-269 64 0
-270 -33 0
-270 -34 0
-270 -35 0
-270 -36 0
-270 37 0
-270 38 0
-270 39 0
-270 40 0
-270 -41 0
-270 -42 0
-270 -43 0
-270 -44 0
-270 -45 0
-270 -46 0
-270 -47 0
-270 -48 0
-270 -49 0
-270 -50 0
-270 -51 0
-270 -52 0
-270 53 0
-270 54 0
-270 55 0
-270 56 0
-270 -57 0
-270 -58 0
-270 -59 0
-270 -60 0
-270 -61 0
-270 -62 0
-270 -63 0
-270 -64 0
-271 -33 0
-271 -34 0
-271 -35 0
-271 -36 0
-271 -37 0
-271 -38 0
-271 -39 0
-271 -40 0
-271 41 0
-271 42 0
-271 43 0
-271 44 0
-271 -45 0
-271 -46 0
-271 -47 0
-271 -48 0
-271 -49 0
-271 -50 0
-271 -51 0
-271 -52 0
-271 -53 0
-271 -54 0
-271 -55 0
-271 -56 0
-271 57 0
-271 58 0
-271 59 0
-271 60 0
-271 -61 0
-271 -62 0
-271 -63 0
-271 -64 0
-272 33 0
-272 34 0
-272 35 0
-272 36 0
-272 -37 0
-272 -38 0
-272 -39 0
-272 -40 0
-272 -41 0
-272 -42 0
-272 -43 0
-272 -44 0
-272 -45 0
-272 -46 0
-272 -47 0
-272 -48 0
-272 49 0
-272 50 0
-272 51 0
-272 52 0
-272 -53 0
-272 -54 0
-272 -55 0
-272 -56 0
-272 -57 0
-272 -58 0
-272 -59 0
-272 -60 0
-272 -61 0
-272 -62 0
-272 -63 0
-272 -64 0
-273 -33 0
-273 -34 0
-273 -35 0
-273 -36 0
-273 -37 0
-273 -38 0
-273 -39 0
-273 -40 0
-273 -41 0
-273 -42 0
-273 -43 0
-273 -44 0
-273 -45 0
-273 -46 0
-273 -47 0
-273 -48 0
-273 -49 0
-273 -50 0
-273 -51 0
-273 -52 0
-273 53 0
-273 54 0
-273 55 0
-273 56 0
-273 -57 0
-273 -58 0
-273 -59 0
-273 -60 0
-273 61 0
-273 62 0
-273 63 0
-273 64 0
-274 -33 0
-274 -34 0
-274 -35 0
-274 -36 0
-274 37 0
-274 38 0
-274 39 0
-274 40 0
-274 -41 0
-274 -42 0
-274 -43 0
-274 -44 0
-274 45 0
-274 46 0
-274 47 0
-274 48 0
-274 -49 0
-274 -50 0
-274 -51 0
-274 -52 0
-274 -53 0
-274 -54 0
-274 -55 0
-274 -56 0
-274 -57 0
-274 -58 0
-274 -59 0
-274 -60 0
-274 -61 0
-274 -62 0
-274 -63 0
-274 -64 0
-275 -33 0
-275 -34 0
-275 -35 0
-275 -36 0
-275 -37 0
-275 -38 0
-275 -39 0
-275 -40 0
-275 -41 0
-275 -42 0
-275 -43 0
-275 -44 0
-275 -45 0
-275 -46 0
-275 -47 0
-275 -48 0
-275 49 0
-275 50 0
-275 51 0
-275 52 0
-275 -53 0
-275 -54 0
-275 -55 0
-275 -56 0
-275 57 0
-275 58 0
-275 59 0
-275 60 0
-275 -61 0
-275 -62 0
-275 -63 0
-275 -64 0
-276 33 0
-276 34 0
-276 35 0
-276 36 0
-276 -37 0
-276 -38 0
-276 -39 0
-276 -40 0
-276 41 0
-276 42 0
-276 43 0
-276 44 0
-276 -45 0
-276 -46 0
-276 -47 0
-276 -48 0
-276 -49 0
-276 -50 0
-276 -51 0
-276 -52 0
-276 -53 0
-276 -54 0
-276 -55 0
-276 -56 0
-276 -57 0
-276 -58 0
-276 -59 0
-276 -60 0
-276 -61 0
-276 -62 0
-276 -63 0
-276 -64 0
-277 -33 0
-277 -34 0
-277 -35 0
-277 -36 0
-277 -37 5 0
-277 37 -5 0
-277 -38 6 0
-277 38 -6 0
-277 -39 7 0
-277 39 -7 0
-277 -40 8 0
-277 40 -8 0
-277 -41 0
-277 -42 0
-277 -43 0
-277 -44 0
-277 -45 13 0
-277 45 -13 0
-277 -46 14 0
-277 46 -14 0
-277 -47 15 0
-277 47 -15 0
-277 -48 16 0
-277 48 -16 0
-277 -49 0
-277 -50 0
-277 -51 0
-277 -52 0
-277 -53 21 0
-277 53 -21 0
-277 -54 22 0
-277 54 -22 0
-277 -55 23 0
-277 55 -23 0
-277 -56 24 0
-277 56 -24 0
-277 -57 0
-277 -58 0
-277 -59 0
-277 -60 0
-277 -61 29 0
-277 61 -29 0
-277 -62 30 0
-277 62 -30 0
-277 -63 31 0
-277 63 -31 0
-277 -64 32 0
-277 64 -32 0
-278 -33 0
-278 -34 0
-278 -35 0
-278 -36 0
-278 -37 -5 0
-278 37 5 0
-278 -38 -6 0
-278 38 6 0
-278 -39 -7 0
-278 39 7 0
-278 -40 -8 0
-278 40 8 0
-278 -41 0
-278 -42 0
-278 -43 0
-278 -44 0
-278 -45 -13 0
-278 45 13 0
-278 -46 -14 0
-278 46 14 0
-278 -47 -15 0
-278 47 15 0
-278 -48 -16 0
-278 48 16 0
-278 -49 0
-278 -50 0
-278 -51 0
-278 -52 0
-278 -53 -21 0
-278 53 21 0
-278 -54 -22 0
-278 54 22 0
-278 -55 -23 0
-278 55 23 0
-278 -56 -24 0
-278 56 24 0
-278 -57 0
-278 -58 0
-278 -59 0
-278 -60 0
-278 -61 -29 0
-278 61 29 0
-278 -62 -30 0
-278 62 30 0
-278 -63 -31 0
-278 63 31 0
-278 -64 -32 0
-278 64 32 0
-279 -33 1 0
-279 33 -1 0
-279 -34 2 0
-279 34 -2 0
-279 -35 3 0
-279 35 -3 0
-279 -36 4 0
-279 36 -4 0
-279 -37 0
-279 -38 0
-279 -39 0
-279 -40 0
-279 -41 9 0
-279 41 -9 0
-279 -42 10 0
-279 42 -10 0
-279 -43 11 0
-279 43 -11 0
-279 -44 12 0
-279 44 -12 0
-279 -45 0
-279 -46 0
-279 -47 0
-279 -48 0
-279 -49 17 0
-279 49 -17 0
-279 -50 18 0
-279 50 -18 0
-279 -51 19 0
-279 51 -19 0
-279 -52 20 0
-279 52 -20 0
-279 -53 0
-279 -54 0
-279 -55 0
-279 -56 0
-279 -57 25 0
-279 57 -25 0
-279 -58 26 0
-279 58 -26 0
-279 -59 27 0
-279 59 -27 0
-279 -60 28 0
-279 60 -28 0
-279 -61 0
-279 -62 0
-279 -63 0
-279 -64 0
-280 -33 -1 0
-280 33 1 0
-280 -34 -2 0
-280 34 2 0
-280 -35 -3 0
-280 35 3 0
-280 -36 -4 0
-280 36 4 0
-280 -37 0
-280 -38 0
-280 -39 0
-280 -40 0
-280 -41 -9 0
-280 41 9 0
-280 -42 -10 0
-280 42 10 0
-280 -43 -11 0
-280 43 11 0
-280 -44 -12 0
-280 44 12 0
-280 -45 0
-280 -46 0
-280 -47 0
-280 -48 0
-280 -49 -17 0
-280 49 17 0
-280 -50 -18 0
-280 50 18 0
-280 -51 -19 0
-280 51 19 0
-280 -52 -20 0
-280 52 20 0
-280 -53 0
-280 -54 0
-280 -55 0
-280 -56 0
-280 -57 -25 0
-280 57 25 0
-280 -58 -26 0
-280 58 26 0
-280 -59 -27 0
-280 59 27 0
-280 -60 -28 0
-280 60 28 0
-280 -61 0
-280 -62 0
-280 -63 0
-280 -64 0
-281 -33 0
-281 -34 0
-281 -35 0
-281 -36 0
-281 -37 0
-281 -38 0
-281 -39 0
-281 -40 0
-281 -41 0
-281 -42 0
-281 -43 0
-281 -44 0
-281 -45 0
-281 -46 0
-281 -47 0
-281 -48 0
-281 -49 0
-281 -50 0
-281 -51 0
-281 -52 0
-281 -53 0
-281 -54 0
-281 -55 0
-281 -56 0
-281 57 0
-281 58 0
-281 59 0
-281 60 0
-281 61 0
-281 62 0
-281 63 0
-281 64 0
-282 -33 0
-282 -34 0
-282 -35 0
-282 -36 0
-282 -37 0
-282 -38 0
-282 -39 0
-282 -40 0
-282 41 0
-282 42 0
-282 43 0
-282 44 0
-282 45 0
-282 46 0
-282 47 0
-282 48 0
-282 -49 0
-282 -50 0
-282 -51 0
-282 -52 0
-282 -53 0
-282 -54 0
-282 -55 0
-282 -56 0
-282 -57 0
-282 -58 0
-282 -59 0
-282 -60 0
-282 -61 0
-282 -62 0
-282 -63 0
-282 -64 0
-283 -33 0
-283 -34 0
-283 -35 0
-283 -36 0
-283 -37 0
-283 -38 0
-283 -39 0
-283 -40 0
-283 -41 0
-283 -42 0
-283 -43 0
-283 -44 0
-283 -45 0
-283 -46 0
-283 -47 0
-283 -48 0
-283 49 0
-283 50 0
-283 51 0
-283 52 0
-283 53 0
-283 54 0
-283 55 0
-283 56 0
-283 -57 0
-283 -58 0
-283 -59 0
-283 -60 0
-283 -61 0
-283 -62 0
-283 -63 0
-283 -64 0
-284 33 0
-284 34 0
-284 35 0
-284 36 0
-284 37 0
-284 38 0
-284 39 0
-284 40 0
-284 -41 0
-284 -42 0
-284 -43 0
-284 -44 0
-284 -45 0
-284 -46 0
-284 -47 0
-284 -48 0
-284 -49 0
-284 -50 0
-284 -51 0
-284 -52 0
-284 -53 0
-284 -54 0
-284 -55 0
-284 -56 0
-284 -57 0
-284 -58 0
-284 -59 0
-284 -60 0
-284 -61 0
-284 -62 0
-284 -63 0
-284 -64 0
-285 -33 0
-285 -34 0
-285 -35 0
-285 -36 0
-285 -37 0
-285 -38 0
-285 -39 0
-285 -40 0
-285 -41 9 0
-285 41 -9 0
-285 -42 10 0
-285 42 -10 0
-285 -43 11 0
-285 43 -11 0
-285 -44 12 0
-285 44 -12 0
-285 -45 13 0
-285 45 -13 0
-285 -46 14 0
-285 46 -14 0
-285 -47 15 0
-285 47 -15 0
-285 -48 16 0
-285 48 -16 0
-285 -49 0
-285 -50 0
-285 -51 0
-285 -52 0
-285 -53 0
-285 -54 0
-285 -55 0
-285 -56 0
-285 -57 25 0
-285 57 -25 0
-285 -58 26 0
-285 58 -26 0
-285 -59 27 0
-285 59 -27 0
-285 -60 28 0
-285 60 -28 0
-285 -61 29 0
-285 61 -29 0
-285 -62 30 0
-285 62 -30 0
-285 -63 31 0
-285 63 -31 0
-285 -64 32 0
-285 64 -32 0
-286 -33 0
-286 -34 0
-286 -35 0
-286 -36 0
-286 -37 0
-286 -38 0
-286 -39 0
-286 -40 0
-286 -41 -9 0
-286 41 9 0
-286 -42 -10 0
-286 42 10 0
-286 -43 -11 0
-286 43 11 0
-286 -44 -12 0
-286 44 12 0
-286 -45 -13 0
-286 45 13 0
-286 -46 -14 0
-286 46 14 0
-286 -47 -15 0
-286 47 15 0
-286 -48 -16 0
-286 48 16 0
-286 -49 0
-286 -50 0
-286 -51 0
-286 -52 0
-286 -53 0
-286 -54 0
-286 -55 0
-286 -56 0
-286 -57 -25 0
-286 57 25 0
-286 -58 -26 0
-286 58 26 0
-286 -59 -27 0
-286 59 27 0
-286 -60 -28 0
-286 60 28 0
-286 -61 -29 0
-286 61 29 0
-286 -62 -30 0
-286 62 30 0
-286 -63 -31 0
-286 63 31 0
-286 -64 -32 0
-286 64 32 0
-287 -33 1 0
-287 33 -1 0
-287 -34 2 0
-287 34 -2 0
-287 -35 3 0
-287 35 -3 0
-287 -36 4 0
-287 36 -4 0
-287 -37 5 0
-287 37 -5 0
-287 -38 6 0
-287 38 -6 0
-287 -39 7 0
-287 39 -7 0
-287 -40 8 0
-287 40 -8 0
-287 -41 0
-287 -42 0
-287 -43 0
-287 -44 0
-287 -45 0
-287 -46 0
-287 -47 0
-287 -48 0
-287 -49 17 0
-287 49 -17 0
-287 -50 18 0
-287 50 -18 0
-287 -51 19 0
-287 51 -19 0
-287 -52 20 0
-287 52 -20 0
-287 -53 21 0
-287 53 -21 0
-287 -54 22 0
-287 54 -22 0
-287 -55 23 0
-287 55 -23 0
-287 -56 24 0
-287 56 -24 0
-287 -57 0
-287 -58 0
-287 -59 0
-287 -60 0
-287 -61 0
-287 -62 0
-287 -63 0
-287 -64 0
-288 -33 -1 0
-288 33 1 0
-288 -34 -2 0
-288 34 2 0
-288 -35 -3 0
-288 35 3 0
-288 -36 -4 0
-288 36 4 0
-288 -37 -5 0
-288 37 5 0
-288 -38 -6 0
-288 38 6 0
-288 -39 -7 0
-288 39 7 0
-288 -40 -8 0
-288 40 8 0
-288 -41 0
-288 -42 0
-288 -43 0
-288 -44 0
-288 -45 0
-288 -46 0
-288 -47 0
-288 -48 0
-288 -49 -17 0
-288 49 17 0
-288 -50 -18 0
-288 50 18 0
-288 -51 -19 0
-288 51 19 0
-288 -52 -20 0
-288 52 20 0
-288 -53 -21 0
-288 53 21 0
-288 -54 -22 0
-288 54 22 0
-288 -55 -23 0
-288 55 23 0
-288 -56 -24 0
-288 56 24 0
-288 -57 0
-288 -58 0
-288 -59 0
-288 -60 0
-288 -61 0
-288 -62 0
-288 -63 0
-288 -64 0
-289 -33 0
-289 -34 0
-289 -35 0
-289 -36 0
-289 -37 0
-289 -38 0
-289 -39 0
-289 -40 0
-289 -41 0
-289 -42 0
-289 -43 0
-289 -44 0
-289 -45 0
-289 -46 0
-289 -47 0
-289 -48 0
-289 -49 17 0
-289 49 -17 0
-289 -50 18 0
-289 50 -18 0
-289 -51 19 0
-289 51 -19 0
-289 -52 20 0
-289 52 -20 0
-289 -53 21 0
-289 53 -21 0
-289 -54 22 0
-289 54 -22 0
-289 -55 23 0
-289 55 -23 0
-289 -56 24 0
-289 56 -24 0
-289 -57 25 0
-289 57 -25 0
-289 -58 26 0
-289 58 -26 0
-289 -59 27 0
-289 59 -27 0
-289 -60 28 0
-289 60 -28 0
-289 -61 29 0
-289 61 -29 0
-289 -62 30 0
-289 62 -30 0
-289 -63 31 0
-289 63 -31 0
-289 -64 32 0
-289 64 -32 0
-290 -33 0
-290 -34 0
-290 -35 0
-290 -36 0
-290 -37 0
-290 -38 0
-290 -39 0
-290 -40 0
-290 -41 0
-290 -42 0
-290 -43 0
-290 -44 0
-290 -45 0
-290 -46 0
-290 -47 0
-290 -48 0
-290 -49 -17 0
-290 49 17 0
-290 -50 -18 0
-290 50 18 0
-290 -51 -19 0
-290 51 19 0
-290 -52 -20 0
-290 52 20 0
-290 -53 -21 0
-290 53 21 0
-290 -54 -22 0
-290 54 22 0
-290 -55 -23 0
-290 55 23 0
-290 -56 -24 0
-290 56 24 0
-290 -57 -25 0
-290 57 25 0
-290 -58 -26 0
-290 58 26 0
-290 -59 -27 0
-290 59 27 0
-290 -60 -28 0
-290 60 28 0
-290 -61 -29 0
-290 61 29 0
-290 -62 -30 0
-290 62 30 0
-290 -63 -31 0
-290 63 31 0
-290 -64 -32 0
-290 64 32 0
-291 -33 1 0
-291 33 -1 0
-291 -34 2 0
-291 34 -2 0
-291 -35 3 0
-291 35 -3 0
-291 -36 4 0
-291 36 -4 0
-291 -37 5 0
-291 37 -5 0
-291 -38 6 0
-291 38 -6 0
-291 -39 7 0
-291 39 -7 0
-291 -40 8 0
-291 40 -8 0
-291 -41 9 0
-291 41 -9 0
-291 -42 10 0
-291 42 -10 0
-291 -43 11 0
-291 43 -11 0
-291 -44 12 0
-291 44 -12 0
-291 -45 13 0
-291 45 -13 0
-291 -46 14 0
-291 46 -14 0
-291 -47 15 0
-291 47 -15 0
-291 -48 16 0
-291 48 -16 0
-291 -49 0
-291 -50 0
-291 -51 0
-291 -52 0
-291 -53 0
-291 -54 0
-291 -55 0
-291 -56 0
-291 -57 0
-291 -58 0
-291 -59 0
-291 -60 0
-291 -61 0
-291 -62 0
-291 -63 0
-291 -64 0
-292 -33 -1 0
-292 33 1 0
-292 -34 -2 0
-292 34 2 0
-292 -35 -3 0
-292 35 3 0
-292 -36 -4 0
-292 36 4 0
-292 -37 -5 0
-292 37 5 0
-292 -38 -6 0
-292 38 6 0
-292 -39 -7 0
-292 39 7 0
-292 -40 -8 0
-292 40 8 0
-292 -41 -9 0
-292 41 9 0
-292 -42 -10 0
-292 42 10 0
-292 -43 -11 0
-292 43 11 0
-292 -44 -12 0
-292 44 12 0
-292 -45 -13 0
-292 45 13 0
-292 -46 -14 0
-292 46 14 0
-292 -47 -15 0
-292 47 15 0
-292 -48 -16 0
-292 48 16 0
-292 -49 0
-292 -50 0
-292 -51 0
-292 -52 0
-292 -53 0
-292 -54 0
-292 -55 0
-292 -56 0
-292 -57 0
-292 -58 0
-292 -59 0
-292 -60 0
-292 -61 0
-292 -62 0
-292 -63 0
-292 -64 0
293 294 295 296 297 298 299 300 301 302 303 304 305 306 307 308 309 310 311 312 313 314 315 316 317 318 319 320 321 322 323 324 325 326 327 328 329 330 331 332 333 334 335 336 337 338 339 340 341 342 343 344 345 346 347 348 349 350 351 352 353 354 355 356 357 358 359 360 361 362 363 364 365 366 367 368 369 370 371 372 373 374 375 376 0
-293 -294 0
-293 -295 0
-293 -296 0
-293 -297 0
-293 -298 0
-293 -299 0
-293 -300 0
-293 -301 0
-293 -302 0
-293 -303 0
-293 -304 0
-293 -305 0
-293 -306 0
-293 -307 0
-293 -308 0
-293 -309 0
-293 -310 0
-293 -311 0
-293 -312 0
-293 -313 0
-293 -314 0
-293 -315 0
-293 -316 0
-293 -317 0
-293 -318 0
-293 -319 0
-293 -320 0
-293 -321 0
-293 -322 0
-293 -323 0
-293 -324 0
-293 -325 0
-293 -326 0
-293 -327 0
-293 -328 0
-293 -329 0
-293 -330 0
-293 -331 0
-293 -332 0
-293 -333 0
-293 -334 0
-293 -335 0
-293 -336 0
-293 -337 0
-293 -338 0
-293 -339 0
-293 -340 0
-293 -341 0
-293 -342 0
-293 -343 0
-293 -344 0
-293 -345 0
-293 -346 0
-293 -347 0
-293 -348 0
-293 -349 0
-293 -350 0
-293 -351 0
-293 -352 0
-293 -353 0
-293 -354 0
-293 -355 0
-293 -356 0
-293 -357 0
-293 -358 0
-293 -359 0
-293 -360 0
-293 -361 0
-293 -362 0
-293 -363 0
-293 -364 0
-293 -365 0
-293 -366 0
-293 -367 0
-293 -368 0
-293 -369 0
-293 -370 0
-293 -371 0
-293 -372 0
-293 -373 0
-293 -374 0
-293 -375 0
-293 -376 0
-294 -295 0
-294 -296 0
-294 -297 0
-294 -298 0
-294 -299 0
-294 -300 0
-294 -301 0
-294 -302 0
-294 -303 0
-294 -304 0
-294 -305 0
-294 -306 0
-294 -307 0
-294 -308 0
-294 -309 0
-294 -310 0
-294 -311 0
-294 -312 0
-294 -313 0
-294 -314 0
-294 -315 0
-294 -316 0
-294 -317 0
-294 -318 0
-294 -319 0
-294 -320 0
-294 -321 0
-294 -322 0
-294 -323 0
-294 -324 0
-294 -325 0
-294 -326 0
-294 -327 0
-294 -328 0
-294 -329 0
-294 -330 0
-294 -331 0
-294 -332 0
-294 -333 0
-294 -334 0
-294 -335 0
-294 -336 0
-294 -337 0
-294 -338 0
-294 -339 0
-294 -340 0
-294 -341 0
-294 -342 0
-294 -343 0
-294 -344 0
-294 -345 0
-294 -346 0
-294 -347 0
-294 -348 0
-294 -349 0
-294 -350 0
-294 -351 0
-294 -352 0
-294 -353 0
-294 -354 0
-294 -355 0
-294 -356 0
-294 -357 0
-294 -358 0
-294 -359 0
-294 -360 0
-294 -361 0
-294 -362 0
-294 -363 0
-294 -364 0
-294 -365 0
-294 -366 0
-294 -367 0
-294 -368 0
-294 -369 0
-294 -370 0
-294 -371 0
-294 -372 0
-294 -373 0
-294 -374 0
-294 -375 0
-294 -376 0
-295 -296 0
-295 -297 0
-295 -298 0
-295 -299 0
-295 -300 0
-295 -301 0
-295 -302 0
-295 -303 0
-295 -304 0
-295 -305 0
-295 -306 0
-295 -307 0
-295 -308 0
-295 -309 0
-295 -310 0
-295 -311 0
-295 -312 0
-295 -313 0
-295 -314 0
-295 -315 0
-295 -316 0
-295 -317 0
-295 -318 0
-295 -319 0
-295 -320 0
-295 -321 0
-295 -322 0
-295 -323 0
-295 -324 0
-295 -325 0
-295 -326 0
-295 -327 0
-295 -328 0
-295 -329 0
-295 -330 0
-295 -331 0
-295 -332 0
-295 -333 0
-295 -334 0
-295 -335 0
-295 -336 0
-295 -337 0
-295 -338 0
-295 -339 0
-295 -340 0
-295 -341 0
-295 -342 0
-295 -343 0
-295 -344 0
-295 -345 0
-295 -346 0
-295 -347 0
-295 -348 0
-295 -349 0
-295 -350 0
-295 -351 0
-295 -352 0
-295 -353 0
-295 -354 0
-295 -355 0
-295 -356 0
-295 -357 0
-295 -358 0
-295 -359 0
-295 -360 0
-295 -361 0
-295 -362 0
-295 -363 0
-295 -364 0
-295 -365 0
-295 -366 0
-295 -367 0
-295 -368 0
-295 -369 0
-295 -370 0
-295 -371 0
-295 -372 0
-295 -373 0
-295 -374 0
-295 -375 0
-295 -376 0
-296 -297 0
-296 -298 0
-296 -299 0
-296 -300 0
-296 -301 0
-296 -302 0
-296 -303 0
-296 -304 0
-296 -305 0
-296 -306 0
-296 -307 0
-296 -308 0
-296 -309 0
-296 -310 0
-296 -311 0
-296 -312 0
-296 -313 0
-296 -314 0
-296 -315 0
-296 -316 0
-296 -317 0
-296 -318 0
-296 -319 0
-296 -320 0
-296 -321 0
-296 -322 0
-296 -323 0
-296 -324 0
-296 -325 0
-296 -326 0
-296 -327 0
-296 -328 0
-296 -329 0
-296 -330 0
-296 -331 0
-296 -332 0
-296 -333 0
-296 -334 0
-296 -335 0
-296 -336 0
-296 -337 0
-296 -338 0
-296 -339 0
-296 -340 0
-296 -341 0
-296 -342 0
-296 -343 0
-296 -344 0
-296 -345 0
-296 -346 0
-296 -347 0
-296 -348 0
-296 -349 0
-296 -350 0
-296 -351 0
-296 -352 0
-296 -353 0
-296 -354 0
-296 -355 0
-296 -356 0
-296 -357 0
-296 -358 0
-296 -359 0
-296 -360 0
-296 -361 0
-296 -362 0
-296 -363 0
-296 -364 0
-296 -365 0
-296 -366 0
-296 -367 0
-296 -368 0
-296 -369 0
-296 -370 0
-296 -371 0
-296 -372 0
-296 -373 0
-296 -374 0
-296 -375 0
-296 -376 0
-297 -298 0
-297 -299 0
-297 -300 0
-297 -301 0
-297 -302 0
-297 -303 0
-297 -304 0
-297 -305 0
-297 -306 0
-297 -307 0
-297 -308 0
-297 -309 0
-297 -310 0
-297 -311 0
-297 -312 0
-297 -313 0
-297 -314 0
-297 -315 0
-297 -316 0
-297 -317 0
-297 -318 0
-297 -319 0
-297 -320 0
-297 -321 0
-297 -322 0
-297 -323 0
-297 -324 0
-297 -325 0
-297 -326 0
-297 -327 0
-297 -328 0
-297 -329 0
-297 -330 0
-297 -331 0
-297 -332 0
-297 -333 0
-297 -334 0
-297 -335 0
-297 -336 0
-297 -337 0
-297 -338 0
-297 -339 0
-297 -340 0
-297 -341 0
-297 -342 0
-297 -343 0
-297 -344 0
-297 -345 0
-297 -346 0
-297 -347 0
-297 -348 0
-297 -349 0
-297 -350 0
-297 -351 0
-297 -352 0
-297 -353 0
-297 -354 0
-297 -355 0
-297 -356 0
-297 -357 0
-297 -358 0
-297 -359 0
-297 -360 0
-297 -361 0
-297 -362 0
-297 -363 0
-297 -364 0
-297 -365 0
-297 -366 0
-297 -367 0
-297 -368 0
-297 -369 0
-297 -370 0
-297 -371 0
-297 -372 0
-297 -373 0
-297 -374 0
-297 -375 0
-297 -376 0
-298 -299 0
-298 -300 0
-298 -301 0
-298 -302 0
-298 -303 0
-298 -304 0
-298 -305 0
-298 -306 0
-298 -307 0
-298 -308 0
-298 -309 0
-298 -310 0
-298 -311 0
-298 -312 0
-298 -313 0
-298 -314 0
-298 -315 0
-298 -316 0
-298 -317 0
-298 -318 0
-298 -319 0
-298 -320 0
-298 -321 0
-298 -322 0
-298 -323 0
-298 -324 0
-298 -325 0
-298 -326 0
-298 -327 0
-298 -328 0
-298 -329 0
-298 -330 0
-298 -331 0
-298 -332 0
-298 -333 0
-298 -334 0
-298 -335 0
-298 -336 0
-298 -337 0
-298 -338 0
-298 -339 0
-298 -340 0
-298 -341 0
-298 -342 0
-298 -343 0
-298 -344 0
-298 -345 0
-298 -346 0
-298 -347 0
-298 -348 0
-298 -349 0
-298 -350 0
-298 -351 0
-298 -352 0
-298 -353 0
-298 -354 0
-298 -355 0
-298 -356 0
-298 -357 0
-298 -358 0
-298 -359 0
-298 -360 0
-298 -361 0
-298 -362 0
-298 -363 0
-298 -364 0
-298 -365 0
-298 -366 0
-298 -367 0
-298 -368 0
-298 -369 0
-298 -370 0
-298 -371 0
-298 -372 0
-298 -373 0
-298 -374 0
-298 -375 0
-298 -376 0
-299 -300 0
-299 -301 0
-299 -302 0
-299 -303 0
-299 -304 0
-299 -305 0
-299 -306 0
-299 -307 0
-299 -308 0
-299 -309 0
-299 -310 0
-299 -311 0
-299 -312 0
-299 -313 0
-299 -314 0
-299 -315 0
-299 -316 0
-299 -317 0
-299 -318 0
-299 -319 0
-299 -320 0
-299 -321 0
-299 -322 0
-299 -323 0
-299 -324 0
-299 -325 0
-299 -326 0
-299 -327 0
-299 -328 0
-299 -329 0
-299 -330 0
-299 -331 0
-299 -332 0
-299 -333 0
-299 -334 0
-299 -335 0
-299 -336 0
-299 -337 0
-299 -338 0
-299 -339 0
-299 -340 0
-299 -341 0
-299 -342 0
-299 -343 0
-299 -344 0
-299 -345 0
-299 -346 0
-299 -347 0
-299 -348 0
-299 -349 0
-299 -350 0
-299 -351 0
-299 -352 0
-299 -353 0
-299 -354 0
-299 -355 0
-299 -356 0
-299 -357 0
-299 -358 0
-299 -359 0
-299 -360 0
-299 -361 0
-299 -362 0
-299 -363 0
-299 -364 0
-299 -365 0
-299 -366 0
-299 -367 0
-299 -368 0
-299 -369 0
-299 -370 0
-299 -371 0
-299 -372 0
-299 -373 0
-299 -374 0
-299 -375 0
-299 -376 0
-300 -301 0
-300 -302 0
-300 -303 0
-300 -304 0
-300 -305 0
-300 -306 0
-300 -307 0
-300 -308 0
-300 -309 0
-300 -310 0
-300 -311 0
-300 -312 0
-300 -313 0
-300 -314 0
-300 -315 0
-300 -316 0
-300 -317 0
-300 -318 0
-300 -319 0
-300 -320 0
-300 -321 0
-300 -322 0
-300 -323 0
-300 -324 0
-300 -325 0
-300 -326 0
-300 -327 0
-300 -328 0
-300 -329 0
-300 -330 0
-300 -331 0
-300 -332 0
-300 -333 0
-300 -334 0
-300 -335 0
-300 -336 0
-300 -337 0
-300 -338 0
-300 -339 0
-300 -340 0
-300 -341 0
-300 -342 0
-300 -343 0
-300 -344 0
-300 -345 0
-300 -346 0
-300 -347 0
-300 -348 0
-300 -349 0
-300 -350 0
-300 -351 0
-300 -352 0
-300 -353 0
-300 -354 0
-300 -355 0
-300 -356 0
-300 -357 0
-300 -358 0
-300 -359 0
-300 -360 0
-300 -361 0
-300 -362 0
-300 -363 0
-300 -364 0
-300 -365 0
-300 -366 0
-300 -367 0
-300 -368 0
-300 -369 0
-300 -370 0
-300 -371 0
-300 -372 0
-300 -373 0
-300 -374 0
-300 -375 0
-300 -376 0
-301 -302 0
-301 -303 0
-301 -304 0
-301 -305 0
-301 -306 0
-301 -307 0
-301 -308 0
-301 -309 0
-301 -310 0
-301 -311 0
-301 -312 0
-301 -313 0
-301 -314 0
-301 -315 0
-301 -316 0
-301 -317 0
-301 -318 0
-301 -319 0
-301 -320 0
-301 -321 0
-301 -322 0
-301 -323 0
-301 -324 0
-301 -325 0
-301 -326 0
-301 -327 0
-301 -328 0
-301 -329 0
-301 -330 0
-301 -331 0
-301 -332 0
-301 -333 0
-301 -334 0
-301 -335 0
-301 -336 0
-301 -337 0
-301 -338 0
-301 -339 0
-301 -340 0
-301 -341 0
-301 -342 0
-301 -343 0
-301 -344 0
-301 -345 0
-301 -346 0
-301 -347 0
-301 -348 0
-301 -349 0
-301 -350 0
-301 -351 0
-301 -352 0
-301 -353 0
-301 -354 0
-301 -355 0
-301 -356 0
-301 -357 0
-301 -358 0
-301 -359 0
-301 -360 0
-301 -361 0
-301 -362 0
-301 -363 0
-301 -364 0
-301 -365 0
-301 -366 0
-301 -367 0
-301 -368 0
-301 -369 0
-301 -370 0
-301 -371 0
-301 -372 0
-301 -373 0
-301 -374 0
-301 -375 0
-301 -376 0
-302 -303 0
-302 -304 0
-302 -305 0
-302 -306 0
-302 -307 0
-302 -308 0
-302 -309 0
-302 -310 0
-302 -311 0
-302 -312 0
-302 -313 0
-302 -314 0
-302 -315 0
-302 -316 0
-302 -317 0
-302 -318 0
-302 -319 0
-302 -320 0
-302 -321 0
-302 -322 0
-302 -323 0
-302 -324 0
-302 -325 0
-302 -326 0
-302 -327 0
-302 -328 0
-302 -329 0
-302 -330 0
-302 -331 0
-302 -332 0
-302 -333 0
-302 -334 0
-302 -335 0
-302 -336 0
-302 -337 0
-302 -338 0
-302 -339 0
-302 -340 0
-302 -341 0
-302 -342 0
-302 -343 0
-302 -344 0
-302 -345 0
-302 -346 0
-302 -347 0
-302 -348 0
-302 -349 0
-302 -350 0
-302 -351 0
-302 -352 0
-302 -353 0
-302 -354 0
-302 -355 0
-302 -356 0
-302 -357 0
-302 -358 0
-302 -359 0
-302 -360 0
-302 -361 0
-302 -362 0
-302 -363 0
-302 -364 0
-302 -365 0
-302 -366 0
-302 -367 0
-302 -368 0
-302 -369 0
-302 -370 0
-302 -371 0
-302 -372 0
-302 -373 0
-302 -374 0
-302 -375 0
-302 -376 0
-303 -304 0
-303 -305 0
-303 -306 0
-303 -307 0
-303 -308 0
-303 -309 0
-303 -310 0
-303 -311 0
-303 -312 0
-303 -313 0
-303 -314 0
-303 -315 0
-303 -316 0
-303 -317 0
-303 -318 0
-303 -319 0
-303 -320 0
-303 -321 0
-303 -322 0
-303 -323 0
-303 -324 0
-303 -325 0
-303 -326 0
-303 -327 0
-303 -328 0
-303 -329 0
-303 -330 0
-303 -331 0
-303 -332 0
-303 -333 0
-303 -334 0
-303 -335 0
-303 -336 0
-303 -337 0
-303 -338 0
-303 -339 0
-303 -340 0
-303 -341 0
-303 -342 0
-303 -343 0
-303 -344 0
-303 -345 0
-303 -346 0
-303 -347 0
-303 -348 0
-303 -349 0
-303 -350 0
-303 -351 0
-303 -352 0
-303 -353 0
-303 -354 0
-303 -355 0
-303 -356 0
-303 -357 0
-303 -358 0
-303 -359 0
-303 -360 0
-303 -361 0
-303 -362 0
-303 -363 0
-303 -364 0
-303 -365 0
-303 -366 0
-303 -367 0
-303 -368 0
-303 -369 0
-303 -370 0
-303 -371 0
-303 -372 0
-303 -373 0
-303 -374 0
-303 -375 0
-303 -376 0
-304 -305 0
-304 -306 0
-304 -307 0
-304 -308 0
-304 -309 0
-304 -310 0
-304 -311 0
-304 -312 0
-304 -313 0
-304 -314 0
-304 -315 0
-304 -316 0
-304 -317 0
-304 -318 0
-304 -319 0
-304 -320 0
-304 -321 0
-304 -322 0
-304 -323 0
-304 -324 0
-304 -325 0
-304 -326 0
-304 -327 0
-304 -328 0
-304 -329 0
-304 -330 0
-304 -331 0
-304 -332 0
-304 -333 0
-304 -334 0
-304 -335 0
-304 -336 0
-304 -337 0
-304 -338 0
-304 -339 0
-304 -340 0
-304 -341 0
-304 -342 0
-304 -343 0
-304 -344 0
-304 -345 0
-304 -346 0
-304 -347 0
-304 -348 0
-304 -349 0
-304 -350 0
-304 -351 0
-304 -352 0
-304 -353 0
-304 -354 0
-304 -355 0
-304 -356 0
-304 -357 0
-304 -358 0
-304 -359 0
-304 -360 0
-304 -361 0
-304 -362 0
-304 -363 0
-304 -364 0
-304 -365 0
-304 -366 0
-304 -367 0
-304 -368 0
-304 -369 0
-304 -370 0
-304 -371 0
-304 -372 0
-304 -373 0
-304 -374 0
-304 -375 0
-304 -376 0
-305 -306 0
-305 -307 0
-305 -308 0
-305 -309 0
-305 -310 0
-305 -311 0
-305 -312 0
-305 -313 0
-305 -314 0
-305 -315 0
-305 -316 0
-305 -317 0
-305 -318 0
-305 -319 0
-305 -320 0
-305 -321 0
-305 -322 0
-305 -323 0
-305 -324 0
-305 -325 0
-305 -326 0
-305 -327 0
-305 -328 0
-305 -329 0
-305 -330 0
-305 -331 0
-305 -332 0
-305 -333 0
-305 -334 0
-305 -335 0
-305 -336 0
-305 -337 0
-305 -338 0
-305 -339 0
-305 -340 0
-305 -341 0
-305 -342 0
-305 -343 0
-305 -344 0
-305 -345 0
-305 -346 0
-305 -347 0
-305 -348 0
-305 -349 0
-305 -350 0
-305 -351 0
-305 -352 0
-305 -353 0
-305 -354 0
-305 -355 0
-305 -356 0
-305 -357 0
-305 -358 0
-305 -359 0
-305 -360 0
-305 -361 0
-305 -362 0
-305 -363 0
-305 -364 0
-305 -365 0
-305 -366 0
-305 -367 0
-305 -368 0
-305 -369 0
-305 -370 0
-305 -371 0
-305 -372 0
-305 -373 0
-305 -374 0
-305 -375 0
-305 -376 0
-306 -307 0
-306 -308 0
-306 -309 0
-306 -310 0
-306 -311 0
-306 -312 0
-306 -313 0
-306 -314 0
-306 -315 0
-306 -316 0
-306 -317 0
-306 -318 0
-306 -319 0
-306 -320 0
-306 -321 0
-306 -322 0
-306 -323 0
-306 -324 0
-306 -325 0
-306 -326 0
-306 -327 0
-306 -328 0
-306 -329 0
-306 -330 0
-306 -331 0
-306 -332 0
-306 -333 0
-306 -334 0
-306 -335 0
-306 -336 0
-306 -337 0
-306 -338 0
-306 -339 0
-306 -340 0
-306 -341 0
-306 -342 0
-306 -343 0
-306 -344 0
-306 -345 0
-306 -346 0
-306 -347 0
-306 -348 0
-306 -349 0
-306 -350 0
-306 -351 0
-306 -352 0
-306 -353 0
-306 -354 0
-306 -355 0
-306 -356 0
-306 -357 0
-306 -358 0
-306 -359 0
-306 -360 0
-306 -361 0
-306 -362 0
-306 -363 0
-306 -364 0
-306 -365 0
-306 -366 0
-306 -367 0
-306 -368 0
-306 -369 0
-306 -370 0
-306 -371 0
-306 -372 0
-306 -373 0
-306 -374 0
-306 -375 0
-306 -376 0
-307 -308 0
-307 -309 0
-307 -310 0
-307 -311 0
-307 -312 0
-307 -313 0
-307 -314 0
-307 -315 0
-307 -316 0
-307 -317 0
-307 -318 0
-307 -319 0
-307 -320 0
-307 -321 0
-307 -322 0
-307 -323 0
-307 -324 0
-307 -325 0
-307 -326 0
-307 -327 0
-307 -328 0
-307 -329 0
-307 -330 0
-307 -331 0
-307 -332 0
-307 -333 0
-307 -334 0
-307 -335 0
-307 -336 0
-307 -337 0
-307 -338 0
-307 -339 0
-307 -340 0
-307 -341 0
-307 -342 0
-307 -343 0
-307 -344 0
-307 -345 0
-307 -346 0
-307 -347 0
-307 -348 0
-307 -349 0
-307 -350 0
-307 -351 0
-307 -352 0
-307 -353 0
-307 -354 0
-307 -355 0
-307 -356 0
-307 -357 0
-307 -358 0
-307 -359 0
-307 -360 0
-307 -361 0
-307 -362 0
-307 -363 0
-307 -364 0
-307 -365 0
-307 -366 0
-307 -367 0
-307 -368 0
-307 -369 0
-307 -370 0
-307 -371 0
-307 -372 0
-307 -373 0
-307 -374 0
-307 -375 0
-307 -376 0
-308 -309 0
-308 -310 0
-308 -311 0
-308 -312 0
-308 -313 0
-308 -314 0
-308 -315 0
-308 -316 0
-308 -317 0
-308 -318 0
-308 -319 0
-308 -320 0
-308 -321 0
-308 -322 0
-308 -323 0
-308 -324 0
-308 -325 0
-308 -326 0
-308 -327 0
-308 -328 0
-308 -329 0
-308 -330 0
-308 -331 0
-308 -332 0
-308 -333 0
-308 -334 0
-308 -335 0
-308 -336 0
-308 -337 0
-308 -338 0
-308 -339 0
-308 -340 0
-308 -341 0
-308 -342 0
-308 -343 0
-308 -344 0
-308 -345 0
-308 -346 0
-308 -347 0
-308 -348 0
-308 -349 0
-308 -350 0
-308 -351 0
-308 -352 0
-308 -353 0
-308 -354 0
-308 -355 0
-308 -356 0
-308 -357 0
-308 -358 0
-308 -359 0
-308 -360 0
-308 -361 0
-308 -362 0
-308 -363 0
-308 -364 0
-308 -365 0
-308 -366 0
-308 -367 0
-308 -368 0
-308 -369 0
-308 -370 0
-308 -371 0
-308 -372 0
-308 -373 0
-308 -374 0
-308 -375 0
-308 -376 0
-309 -310 0
-309 -311 0
-309 -312 0
-309 -313 0
-309 -314 0
-309 -315 0
-309 -316 0
-309 -317 0
-309 -318 0
-309 -319 0
-309 -320 0
-309 -321 0
-309 -322 0
-309 -323 0
-309 -324 0
-309 -325 0
-309 -326 0
-309 -327 0
-309 -328 0
-309 -329 0
-309 -330 0
-309 -331 0
-309 -332 0
-309 -333 0
-309 -334 0
-309 -335 0
-309 -336 0
-309 -337 0
-309 -338 0
-309 -339 0
-309 -340 0
-309 -341 0
-309 -342 0
-309 -343 0
-309 -344 0
-309 -345 0
-309 -346 0
-309 -347 0
-309 -348 0
-309 -349 0
-309 -350 0
-309 -351 0
-309 -352 0
-309 -353 0
-309 -354 0
-309 -355 0
-309 -356 0
-309 -357 0
-309 -358 0
-309 -359 0
-309 -360 0
-309 -361 0
-309 -362 0
-309 -363 0
-309 -364 0
-309 -365 0
-309 -366 0
-309 -367 0
-309 -368 0
-309 -369 0
-309 -370 0
-309 -371 0
-309 -372 0
-309 -373 0
-309 -374 0
-309 -375 0
-309 -376 0
-310 -311 0
-310 -312 0
-310 -313 0
-310 -314 0
-310 -315 0
-310 -316 0
-310 -317 0
-310 -318 0
-310 -319 0
-310 -320 0
-310 -321 0
-310 -322 0
-310 -323 0
-310 -324 0
-310 -325 0
-310 -326 0
-310 -327 0
-310 -328 0
-310 -329 0
-310 -330 0
-310 -331 0
-310 -332 0
-310 -333 0
-310 -334 0
-310 -335 0
-310 -336 0
-310 -337 0
-310 -338 0
-310 -339 0
-310 -340 0
-310 -341 0
-310 -342 0
-310 -343 0
-310 -344 0
-310 -345 0
-310 -346 0
-310 -347 0
-310 -348 0
-310 -349 0
-310 -350 0
-310 -351 0
-310 -352 0
-310 -353 0
-310 -354 0
-310 -355 0
-310 -356 0
-310 -357 0
-310 -358 0
-310 -359 0
-310 -360 0
-310 -361 0
-310 -362 0
-310 -363 0
-310 -364 0
-310 -365 0
-310 -366 0
-310 -367 0
-310 -368 0
-310 -369 0
-310 -370 0
-310 -371 0
-310 -372 0
-310 -373 0
-310 -374 0
-310 -375 0
-310 -376 0
-311 -312 0
-311 -313 0
-311 -314 0
-311 -315 0
-311 -316 0
-311 -317 0
-311 -318 0
-311 -319 0
-311 -320 0
-311 -321 0
-311 -322 0
-311 -323 0
-311 -324 0
-311 -325 0
-311 -326 0
-311 -327 0
-311 -328 0
-311 -329 0
-311 -330 0
-311 -331 0
-311 -332 0
-311 -333 0
-311 -334 0
-311 -335 0
-311 -336 0
-311 -337 0
-311 -338 0
-311 -339 0
-311 -340 0
-311 -341 0
-311 -342 0
-311 -343 0
-311 -344 0
-311 -345 0
-311 -346 0
-311 -347 0
-311 -348 0
-311 -349 0
-311 -350 0
-311 -351 0
-311 -352 0
-311 -353 0
-311 -354 0
-311 -355 0
-311 -356 0
-311 -357 0
-311 -358 0
-311 -359 0
-311 -360 0
-311 -361 0
-311 -362 0
-311 -363 0
-311 -364 0
-311 -365 0
-311 -366 0
-311 -367 0
-311 -368 0
-311 -369 0
-311 -370 0
-311 -371 0
-311 -372 0
-311 -373 0
-311 -374 0
-311 -375 0
-311 -376 0
-312 -313 0
-312 -314 0
-312 -315 0
-312 -316 0
-312 -317 0
-312 -318 0
-312 -319 0
-312 -320 0
-312 -321 0
-312 -322 0
-312 -323 0
-312 -324 0
-312 -325 0
-312 -326 0
-312 -327 0
-312 -328 0
-312 -329 0
-312 -330 0
-312 -331 0
-312 -332 0
-312 -333 0
-312 -334 0
-312 -335 0
-312 -336 0
-312 -337 0
-312 -338 0
-312 -339 0
-312 -340 0
-312 -341 0
-312 -342 0
-312 -343 0
-312 -344 0
-312 -345 0
-312 -346 0
-312 -347 0
-312 -348 0
-312 -349 0
-312 -350 0
-312 -351 0
-312 -352 0
-312 -353 0
-312 -354 0
-312 -355 0
-312 -356 0
-312 -357 0
-312 -358 0
-312 -359 0
-312 -360 0
-312 -361 0
-312 -362 0
-312 -363 0
-312 -364 0
-312 -365 0
-312 -366 0
-312 -367 0
-312 -368 0
-312 -369 0
-312 -370 0
-312 -371 0
-312 -372 0
-312 -373 0
-312 -374 0
-312 -375 0
-312 -376 0
-313 -314 0
-313 -315 0
-313 -316 0
-313 -317 0
-313 -318 0
-313 -319 0
-313 -320 0
-313 -321 0
-313 -322 0
-313 -323 0
-313 -324 0
-313 -325 0
-313 -326 0
-313 -327 0
-313 -328 0
-313 -329 0
-313 -330 0
-313 -331 0
-313 -332 0
-313 -333 0
-313 -334 0
-313 -335 0
-313 -336 0
-313 -337 0
-313 -338 0
-313 -339 0
-313 -340 0
-313 -341 0
-313 -342 0
-313 -343 0
-313 -344 0
-313 -345 0
-313 -346 0
-313 -347 0
-313 -348 0
-313 -349 0
-313 -350 0
-313 -351 0
-313 -352 0
-313 -353 0
-313 -354 0
-313 -355 0
-313 -356 0
-313 -357 0
-313 -358 0
-313 -359 0
-313 -360 0
-313 -361 0
-313 -362 0
-313 -363 0
-313 -364 0
-313 -365 0
-313 -366 0
-313 -367 0
-313 -368 0
-313 -369 0
-313 -370 0
-313 -371 0
-313 -372 0
-313 -373 0
-313 -374 0
-313 -375 0
-313 -376 0
-314 -315 0
-314 -316 0
-314 -317 0
-314 -318 0
-314 -319 0
-314 -320 0
-314 -321 0
-314 -322 0
-314 -323 0
-314 -324 0
-314 -325 0
-314 -326 0
-314 -327 0
-314 -328 0
-314 -329 0
-314 -330 0
-314 -331 0
-314 -332 0
-314 -333 0
-314 -334 0
-314 -335 0
-314 -336 0
-314 -337 0
-314 -338 0
-314 -339 0
-314 -340 0
-314 -341 0
-314 -342 0
-314 -343 0
-314 -344 0
-314 -345 0
-314 -346 0
-314 -347 0
-314 -348 0
-314 -349 0
-314 -350 0
-314 -351 0
-314 -352 0
-314 -353 0
-314 -354 0
-314 -355 0
-314 -356 0
-314 -357 0
-314 -358 0
-314 -359 0
-314 -360 0
-314 -361 0
-314 -362 0
-314 -363 0
-314 -364 0
-314 -365 0
-314 -366 0
-314 -367 0
-314 -368 0
-314 -369 0
-314 -370 0
-314 -371 0
-314 -372 0
-314 -373 0
-314 -374 0
-314 -375 0
-314 -376 0
-315 -316 0
-315 -317 0
-315 -318 0
-315 -319 0
-315 -320 0
-315 -321 0
-315 -322 0
-315 -323 0
-315 -324 0
-315 -325 0
-315 -326 0
-315 -327 0
-315 -328 0
-315 -329 0
-315 -330 0
-315 -331 0
-315 -332 0
-315 -333 0
-315 -334 0
-315 -335 0
-315 -336 0
-315 -337 0
-315 -338 0
-315 -339 0
-315 -340 0
-315 -341 0
-315 -342 0
-315 -343 0
-315 -344 0
-315 -345 0
-315 -346 0
-315 -347 0
-315 -348 0
-315 -349 0
-315 -350 0
-315 -351 0
-315 -352 0
-315 -353 0
-315 -354 0
-315 -355 0
-315 -356 0
-315 -357 0
-315 -358 0
-315 -359 0
-315 -360 0
-315 -361 0
-315 -362 0
-315 -363 0
-315 -364 0
-315 -365 0
-315 -366 0
-315 -367 0
-315 -368 0
-315 -369 0
-315 -370 0
-315 -371 0
-315 -372 0
-315 -373 0
-315 -374 0
-315 -375 0
-315 -376 0
-316 -317 0
-316 -318 0
-316 -319 0
-316 -320 0
-316 -321 0
-316 -322 0
-316 -323 0
-316 -324 0
-316 -325 0
-316 -326 0
-316 -327 0
-316 -328 0
-316 -329 0
-316 -330 0
-316 -331 0
-316 -332 0
-316 -333 0
-316 -334 0
-316 -335 0
-316 -336 0
-316 -337 0
-316 -338 0
-316 -339 0
-316 -340 0
-316 -341 0
-316 -342 0
-316 -343 0
-316 -344 0
-316 -345 0
-316 -346 0
-316 -347 0
-316 -348 0
-316 -349 0
-316 -350 0
-316 -351 0
-316 -352 0
-316 -353 0
-316 -354 0
-316 -355 0
-316 -356 0
-316 -357 0
-316 -358 0
-316 -359 0
-316 -360 0
-316 -361 0
-316 -362 0
-316 -363 0
-316 -364 0
-316 -365 0
-316 -366 0
-316 -367 0
-316 -368 0
-316 -369 0
-316 -370 0
-316 -371 0
-316 -372 0
-316 -373 0
-316 -374 0
-316 -375 0
-316 -376 0
-317 -318 0
-317 -319 0
-317 -320 0
-317 -321 0
-317 -322 0
-317 -323 0
-317 -324 0
-317 -325 0
-317 -326 0
-317 -327 0
-317 -328 0
-317 -329 0
-317 -330 0
-317 -331 0
-317 -332 0
-317 -333 0
-317 -334 0
-317 -335 0
-317 -336 0
-317 -337 0
-317 -338 0
-317 -339 0
-317 -340 0
-317 -341 0
-317 -342 0
-317 -343 0
-317 -344 0
-317 -345 0
-317 -346 0
-317 -347 0
-317 -348 0
-317 -349 0
-317 -350 0
-317 -351 0
-317 -352 0
-317 -353 0
-317 -354 0
-317 -355 0
-317 -356 0
-317 -357 0
-317 -358 0
-317 -359 0
-317 -360 0
-317 -361 0
-317 -362 0
-317 -363 0
-317 -364 0
-317 -365 0
-317 -366 0
-317 -367 0
-317 -368 0
-317 -369 0
-317 -370 0
-317 -371 0
-317 -372 0
-317 -373 0
-317 -374 0
-317 -375 0
-317 -376 0
-318 -319 0
-318 -320 0
-318 -321 0
-318 -322 0
-318 -323 0
-318 -324 0
-318 -325 0
-318 -326 0
-318 -327 0
-318 -328 0
-318 -329 0
-318 -330 0
-318 -331 0
-318 -332 0
-318 -333 0
-318 -334 0
-318 -335 0
-318 -336 0
-318 -337 0
-318 -338 0
-318 -339 0
-318 -340 0
-318 -341 0
-318 -342 0
-318 -343 0
-318 -344 0
-318 -345 0
-318 -346 0
-318 -347 0
-318 -348 0
-318 -349 0
-318 -350 0
-318 -351 0
-318 -352 0
-318 -353 0
-318 -354 0
-318 -355 0
-318 -356 0
-318 -357 0
-318 -358 0
-318 -359 0
-318 -360 0
-318 -361 0
-318 -362 0
-318 -363 0
-318 -364 0
-318 -365 0
-318 -366 0
-318 -367 0
-318 -368 0
-318 -369 0
-318 -370 0
-318 -371 0
-318 -372 0
-318 -373 0
-318 -374 0
-318 -375 0
-318 -376 0
-319 -320 0
-319 -321 0
-319 -322 0
-319 -323 0
-319 -324 0
-319 -325 0
-319 -326 0
-319 -327 0
-319 -328 0
-319 -329 0
-319 -330 0
-319 -331 0
-319 -332 0
-319 -333 0
-319 -334 0
-319 -335 0
-319 -336 0
-319 -337 0
-319 -338 0
-319 -339 0
-319 -340 0
-319 -341 0
-319 -342 0
-319 -343 0
-319 -344 0
-319 -345 0
-319 -346 0
-319 -347 0
-319 -348 0
-319 -349 0
-319 -350 0
-319 -351 0
-319 -352 0
-319 -353 0
-319 -354 0
-319 -355 0
-319 -356 0
-319 -357 0
-319 -358 0
-319 -359 0
-319 -360 0
-319 -361 0
-319 -362 0
-319 -363 0
-319 -364 0
-319 -365 0
-319 -366 0
-319 -367 0
-319 -368 0
-319 -369 0
-319 -370 0
-319 -371 0
-319 -372 0
-319 -373 0
-319 -374 0
-319 -375 0
-319 -376 0
-320 -321 0
-320 -322 0
-320 -323 0
-320 -324 0
-320 -325 0
-320 -326 0
-320 -327 0
-320 -328 0
-320 -329 0
-320 -330 0
-320 -331 0
-320 -332 0
-320 -333 0
-320 -334 0
-320 -335 0
-320 -336 0
-320 -337 0
-320 -338 0
-320 -339 0
-320 -340 0
-320 -341 0
-320 -342 0
-320 -343 0
-320 -344 0
-320 -345 0
-320 -346 0
-320 -347 0
-320 -348 0
-320 -349 0
-320 -350 0
-320 -351 0
-320 -352 0
-320 -353 0
-320 -354 0
-320 -355 0
-320 -356 0
-320 -357 0
-320 -358 0
-320 -359 0
-320 -360 0
-320 -361 0
-320 -362 0
-320 -363 0
-320 -364 0
-320 -365 0
-320 -366 0
-320 -367 0
-320 -368 0
-320 -369 0
-320 -370 0
-320 -371 0
-320 -372 0
-320 -373 0
-320 -374 0
-320 -375 0
-320 -376 0
-321 -322 0
-321 -323 0
-321 -324 0
-321 -325 0
-321 -326 0
-321 -327 0
-321 -328 0
-321 -329 0
-321 -330 0
-321 -331 0
-321 -332 0
-321 -333 0
-321 -334 0
-321 -335 0
-321 -336 0
-321 -337 0
-321 -338 0
-321 -339 0
-321 -340 0
-321 -341 0
-321 -342 0
-321 -343 0
-321 -344 0
-321 -345 0
-321 -346 0
-321 -347 0
-321 -348 0
-321 -349 0
-321 -350 0
-321 -351 0
-321 -352 0
-321 -353 0
-321 -354 0
-321 -355 0
-321 -356 0
-321 -357 0
-321 -358 0
-321 -359 0
-321 -360 0
-321 -361 0
-321 -362 0
-321 -363 0
-321 -364 0
-321 -365 0
-321 -366 0
-321 -367 0
-321 -368 0
-321 -369 0
-321 -370 0
-321 -371 0
-321 -372 0
-321 -373 0
-321 -374 0
-321 -375 0
-321 -376 0
-322 -323 0
-322 -324 0
-322 -325 0
-322 -326 0
-322 -327 0
-322 -328 0
-322 -329 0
-322 -330 0
-322 -331 0
-322 -332 0
-322 -333 0
-322 -334 0
-322 -335 0
-322 -336 0
-322 -337 0
-322 -338 0
-322 -339 0
-322 -340 0
-322 -341 0
-322 -342 0
-322 -343 0
-322 -344 0
-322 -345 0
-322 -346 0
-322 -347 0
-322 -348 0
-322 -349 0
-322 -350 0
-322 -351 0
-322 -352 0
-322 -353 0
-322 -354 0
-322 -355 0
-322 -356 0
-322 -357 0
-322 -358 0
-322 -359 0
-322 -360 0
-322 -361 0
-322 -362 0
-322 -363 0
-322 -364 0
-322 -365 0
-322 -366 0
-322 -367 0
-322 -368 0
-322 -369 0
-322 -370 0
-322 -371 0
-322 -372 0
-322 -373 0
-322 -374 0
-322 -375 0
-322 -376 0
-323 -324 0
-323 -325 0
-323 -326 0
-323 -327 0
-323 -328 0
-323 -329 0
-323 -330 0
-323 -331 0
-323 -332 0
-323 -333 0
-323 -334 0
-323 -335 0
-323 -336 0
-323 -337 0
-323 -338 0
-323 -339 0
-323 -340 0
-323 -341 0
-323 -342 0
-323 -343 0
-323 -344 0
-323 -345 0
-323 -346 0
-323 -347 0
-323 -348 0
-323 -349 0
-323 -350 0
-323 -351 0
-323 -352 0
-323 -353 0
-323 -354 0
-323 -355 0
-323 -356 0
-323 -357 0
-323 -358 0
-323 -359 0
-323 -360 0
-323 -361 0
-323 -362 0
-323 -363 0
-323 -364 0
-323 -365 0
-323 -366 0
-323 -367 0
-323 -368 0
-323 -369 0
-323 -370 0
-323 -371 0
-323 -372 0
-323 -373 0
-323 -374 0
-323 -375 0
-323 -376 0
-324 -325 0
-324 -326 0
-324 -327 0
-324 -328 0
-324 -329 0
-324 -330 0
-324 -331 0
-324 -332 0
-324 -333 0
-324 -334 0
-324 -335 0
-324 -336 0
-324 -337 0
-324 -338 0
-324 -339 0
-324 -340 0
-324 -341 0
-324 -342 0
-324 -343 0
-324 -344 0
-324 -345 0
-324 -346 0
-324 -347 0
-324 -348 0
-324 -349 0
-324 -350 0
-324 -351 0
-324 -352 0
-324 -353 0
-324 -354 0
-324 -355 0
-324 -356 0
-324 -357 0
-324 -358 0
-324 -359 0
-324 -360 0
-324 -361 0
-324 -362 0
-324 -363 0
-324 -364 0
-324 -365 0
-324 -366 0
-324 -367 0
-324 -368 0
-324 -369 0
-324 -370 0
-324 -371 0
-324 -372 0
-324 -373 0
-324 -374 0
-324 -375 0
-324 -376 0
-325 -326 0
-325 -327 0
-325 -328 0
-325 -329 0
-325 -330 0
-325 -331 0
-325 -332 0
-325 -333 0
-325 -334 0
-325 -335 0
-325 -336 0
-325 -337 0
-325 -338 0
-325 -339 0
-325 -340 0
-325 -341 0
-325 -342 0
-325 -343 0
-325 -344 0
-325 -345 0
-325 -346 0
-325 -347 0
-325 -348 0
-325 -349 0
-325 -350 0
-325 -351 0
-325 -352 0
-325 -353 0
-325 -354 0
-325 -355 0
-325 -356 0
-325 -357 0
-325 -358 0
-325 -359 0
-325 -360 0
-325 -361 0
-325 -362 0
-325 -363 0
-325 -364 0
-325 -365 0
-325 -366 0
-325 -367 0
-325 -368 0
-325 -369 0
-325 -370 0
-325 -371 0
-325 -372 0
-325 -373 0
-325 -374 0
-325 -375 0
-325 -376 0
-326 -327 0
-326 -328 0
-326 -329 0
-326 -330 0
-326 -331 0
-326 -332 0
-326 -333 0
-326 -334 0
-326 -335 0
-326 -336 0
-326 -337 0
-326 -338 0
-326 -339 0
-326 -340 0
-326 -341 0
-326 -342 0
-326 -343 0
-326 -344 0
-326 -345 0
-326 -346 0
-326 -347 0
-326 -348 0
-326 -349 0
-326 -350 0
-326 -351 0
-326 -352 0
-326 -353 0
-326 -354 0
-326 -355 0
-326 -356 0
-326 -357 0
-326 -358 0
-326 -359 0
-326 -360 0
-326 -361 0
-326 -362 0
-326 -363 0
-326 -364 0
-326 -365 0
-326 -366 0
-326 -367 0
-326 -368 0
-326 -369 0
-326 -370 0
-326 -371 0
-326 -372 0
-326 -373 0
-326 -374 0
-326 -375 0
-326 -376 0
-327 -328 0
-327 -329 0
-327 -330 0
-327 -331 0
-327 -332 0
-327 -333 0
-327 -334 0
-327 -335 0
-327 -336 0
-327 -337 0
-327 -338 0
-327 -339 0
-327 -340 0
-327 -341 0
-327 -342 0
-327 -343 0
-327 -344 0
-327 -345 0
-327 -346 0
-327 -347 0
-327 -348 0
-327 -349 0
-327 -350 0
-327 -351 0
-327 -352 0
-327 -353 0
-327 -354 0
-327 -355 0
-327 -356 0
-327 -357 0
-327 -358 0
-327 -359 0
-327 -360 0
-327 -361 0
-327 -362 0
-327 -363 0
-327 -364 0
-327 -365 0
-327 -366 0
-327 -367 0
-327 -368 0
-327 -369 0
-327 -370 0
-327 -371 0
-327 -372 0
-327 -373 0
-327 -374 0
-327 -375 0
-327 -376 0
-328 -329 0
-328 -330 0
-328 -331 0
-328 -332 0
-328 -333 0
-328 -334 0
-328 -335 0
-328 -336 0
-328 -337 0
-328 -338 0
-328 -339 0
-328 -340 0
-328 -341 0
-328 -342 0
-328 -343 0
-328 -344 0
-328 -345 0
-328 -346 0
-328 -347 0
-328 -348 0
-328 -349 0
-328 -350 0
-328 -351 0
-328 -352 0
-328 -353 0
-328 -354 0
-328 -355 0
-328 -356 0
-328 -357 0
-328 -358 0
-328 -359 0
-328 -360 0
-328 -361 0
-328 -362 0
-328 -363 0
-328 -364 0
-328 -365 0
-328 -366 0
-328 -367 0
-328 -368 0
-328 -369 0
-328 -370 0
-328 -371 0
-328 -372 0
-328 -373 0
-328 -374 0
-328 -375 0
-328 -376 0
-329 -330 0
-329 -331 0
-329 -332 0
-329 -333 0
-329 -334 0
-329 -335 0
-329 -336 0
-329 -337 0
-329 -338 0
-329 -339 0
-329 -340 0
-329 -341 0
-329 -342 0
-329 -343 0
-329 -344 0
-329 -345 0
-329 -346 0
-329 -347 0
-329 -348 0
-329 -349 0
-329 -350 0
-329 -351 0
-329 -352 0
-329 -353 0
-329 -354 0
-329 -355 0
-329 -356 0
-329 -357 0
-329 -358 0
-329 -359 0
-329 -360 0
-329 -361 0
-329 -362 0
-329 -363 0
-329 -364 0
-329 -365 0
-329 -366 0
-329 -367 0
-329 -368 0
-329 -369 0
-329 -370 0
-329 -371 0
-329 -372 0
-329 -373 0
-329 -374 0
-329 -375 0
-329 -376 0
-330 -331 0
-330 -332 0
-330 -333 0
-330 -334 0
-330 -335 0
-330 -336 0
-330 -337 0
-330 -338 0
-330 -339 0
-330 -340 0
-330 -341 0
-330 -342 0
-330 -343 0
-330 -344 0
-330 -345 0
-330 -346 0
-330 -347 0
-330 -348 0
-330 -349 0
-330 -350 0
-330 -351 0
-330 -352 0
-330 -353 0
-330 -354 0
-330 -355 0
-330 -356 0
-330 -357 0
-330 -358 0
-330 -359 0
-330 -360 0
-330 -361 0
-330 -362 0
-330 -363 0
-330 -364 0
-330 -365 0
-330 -366 0
-330 -367 0
-330 -368 0
-330 -369 0
-330 -370 0
-330 -371 0
-330 -372 0
-330 -373 0
-330 -374 0
-330 -375 0
-330 -376 0
-331 -332 0
-331 -333 0
-331 -334 0
-331 -335 0
-331 -336 0
-331 -337 0
-331 -338 0
-331 -339 0
-331 -340 0
-331 -341 0
-331 -342 0
-331 -343 0
-331 -344 0
-331 -345 0
-331 -346 0
-331 -347 0
-331 -348 0
-331 -349 0
-331 -350 0
-331 -351 0
-331 -352 0
-331 -353 0
-331 -354 0
-331 -355 0
-331 -356 0
-331 -357 0
-331 -358 0
-331 -359 0
-331 -360 0
-331 -361 0
-331 -362 0
-331 -363 0
-331 -364 0
-331 -365 0
-331 -366 0
-331 -367 0
-331 -368 0
-331 -369 0
-331 -370 0
-331 -371 0
-331 -372 0
-331 -373 0
-331 -374 0
-331 -375 0
-331 -376 0
-332 -333 0
-332 -334 0
-332 -335 0
-332 -336 0
-332 -337 0
-332 -338 0
-332 -339 0
-332 -340 0
-332 -341 0
-332 -342 0
-332 -343 0
-332 -344 0
-332 -345 0
-332 -346 0
-332 -347 0
-332 -348 0
-332 -349 0
-332 -350 0
-332 -351 0
-332 -352 0
-332 -353 0
-332 -354 0
-332 -355 0
-332 -356 0
-332 -357 0
-332 -358 0
-332 -359 0
-332 -360 0
-332 -361 0
-332 -362 0
-332 -363 0
-332 -364 0
-332 -365 0
-332 -366 0
-332 -367 0
-332 -368 0
-332 -369 0
-332 -370 0
-332 -371 0
-332 -372 0
-332 -373 0
-332 -374 0
-332 -375 0
-332 -376 0
-333 -334 0
-333 -335 0
-333 -336 0
-333 -337 0
-333 -338 0
-333 -339 0
-333 -340 0
-333 -341 0
-333 -342 0
-333 -343 0
-333 -344 0
-333 -345 0
-333 -346 0
-333 -347 0
-333 -348 0
-333 -349 0
-333 -350 0
-333 -351 0
-333 -352 0
-333 -353 0
-333 -354 0
-333 -355 0
-333 -356 0
-333 -357 0
-333 -358 0
-333 -359 0
-333 -360 0
-333 -361 0
-333 -362 0
-333 -363 0
-333 -364 0
-333 -365 0
-333 -366 0
-333 -367 0
-333 -368 0
-333 -369 0
-333 -370 0
-333 -371 0
-333 -372 0
-333 -373 0
-333 -374 0
-333 -375 0
-333 -376 0
-334 -335 0
-334 -336 0
-334 -337 0
-334 -338 0
-334 -339 0
-334 -340 0
-334 -341 0
-334 -342 0
-334 -343 0
-334 -344 0
-334 -345 0
-334 -346 0
-334 -347 0
-334 -348 0
-334 -349 0
-334 -350 0
-334 -351 0
-334 -352 0
-334 -353 0
-334 -354 0
-334 -355 0
-334 -356 0
-334 -357 0
-334 -358 0
-334 -359 0
-334 -360 0
-334 -361 0
-334 -362 0
-334 -363 0
-334 -364 0
-334 -365 0
-334 -366 0
-334 -367 0
-334 -368 0
-334 -369 0
-334 -370 0
-334 -371 0
-334 -372 0
-334 -373 0
-334 -374 0
-334 -375 0
-334 -376 0
-335 -336 0
-335 -337 0
-335 -338 0
-335 -339 0
-335 -340 0
-335 -341 0
-335 -342 0
-335 -343 0
-335 -344 0
-335 -345 0
-335 -346 0
-335 -347 0
-335 -348 0
-335 -349 0
-335 -350 0
-335 -351 0
-335 -352 0
-335 -353 0
-335 -354 0
-335 -355 0
-335 -356 0
-335 -357 0
-335 -358 0
-335 -359 0
-335 -360 0
-335 -361 0
-335 -362 0
-335 -363 0
-335 -364 0
-335 -365 0
-335 -366 0
-335 -367 0
-335 -368 0
-335 -369 0
-335 -370 0
-335 -371 0
-335 -372 0
-335 -373 0
-335 -374 0
-335 -375 0
-335 -376 0
-336 -337 0
-336 -338 0
-336 -339 0
-336 -340 0
-336 -341 0
-336 -342 0
-336 -343 0
-336 -344 0
-336 -345 0
-336 -346 0
-336 -347 0
-336 -348 0
-336 -349 0
-336 -350 0
-336 -351 0
-336 -352 0
-336 -353 0
-336 -354 0
-336 -355 0
-336 -356 0
-336 -357 0
-336 -358 0
-336 -359 0
-336 -360 0
-336 -361 0
-336 -362 0
-336 -363 0
-336 -364 0
-336 -365 0
-336 -366 0
-336 -367 0
-336 -368 0
-336 -369 0
-336 -370 0
-336 -371 0
-336 -372 0
-336 -373 0
-336 -374 0
-336 -375 0
-336 -376 0
-337 -338 0
-337 -339 0
-337 -340 0
-337 -341 0
-337 -342 0
-337 -343 0
-337 -344 0
-337 -345 0
-337 -346 0
-337 -347 0
-337 -348 0
-337 -349 0
-337 -350 0
-337 -351 0
-337 -352 0
-337 -353 0
-337 -354 0
-337 -355 0
-337 -356 0
-337 -357 0
-337 -358 0
-337 -359 0
-337 -360 0
-337 -361 0
-337 -362 0
-337 -363 0
-337 -364 0
-337 -365 0
-337 -366 0
-337 -367 0
-337 -368 0
-337 -369 0
-337 -370 0
-337 -371 0
-337 -372 0
-337 -373 0
-337 -374 0
-337 -375 0
-337 -376 0
-338 -339 0
-338 -340 0
-338 -341 0
-338 -342 0
-338 -343 0
-338 -344 0
-338 -345 0
-338 -346 0
-338 -347 0
-338 -348 0
-338 -349 0
-338 -350 0
-338 -351 0
-338 -352 0
-338 -353 0
-338 -354 0
-338 -355 0
-338 -356 0
-338 -357 0
-338 -358 0
-338 -359 0
-338 -360 0
-338 -361 0
-338 -362 0
-338 -363 0
-338 -364 0
-338 -365 0
-338 -366 0
-338 -367 0
-338 -368 0
-338 -369 0
-338 -370 0
-338 -371 0
-338 -372 0
-338 -373 0
-338 -374 0
-338 -375 0
-338 -376 0
-339 -340 0
-339 -341 0
-339 -342 0
-339 -343 0
-339 -344 0
-339 -345 0
-339 -346 0
-339 -347 0
-339 -348 0
-339 -349 0
-339 -350 0
-339 -351 0
-339 -352 0
-339 -353 0
-339 -354 0
-339 -355 0
-339 -356 0
-339 -357 0
-339 -358 0
-339 -359 0
-339 -360 0
-339 -361 0
-339 -362 0
-339 -363 0
-339 -364 0
-339 -365 0
-339 -366 0
-339 -367 0
-339 -368 0
-339 -369 0
-339 -370 0
-339 -371 0
-339 -372 0
-339 -373 0
-339 -374 0
-339 -375 0
-339 -376 0
-340 -341 0
-340 -342 0
-340 -343 0
-340 -344 0
-340 -345 0
-340 -346 0
-340 -347 0
-340 -348 0
-340 -349 0
-340 -350 0
-340 -351 0
-340 -352 0
-340 -353 0
-340 -354 0
-340 -355 0
-340 -356 0
-340 -357 0
-340 -358 0
-340 -359 0
-340 -360 0
-340 -361 0
-340 -362 0
-340 -363 0
-340 -364 0
-340 -365 0
-340 -366 0
-340 -367 0
-340 -368 0
-340 -369 0
-340 -370 0
-340 -371 0
-340 -372 0
-340 -373 0
-340 -374 0
-340 -375 0
-340 -376 0
-341 -342 0
-341 -343 0
-341 -344 0
-341 -345 0
-341 -346 0
-341 -347 0
-341 -348 0
-341 -349 0
-341 -350 0
-341 -351 0
-341 -352 0
-341 -353 0
-341 -354 0
-341 -355 0
-341 -356 0
-341 -357 0
-341 -358 0
-341 -359 0
-341 -360 0
-341 -361 0
-341 -362 0
-341 -363 0
-341 -364 0
-341 -365 0
-341 -366 0
-341 -367 0
-341 -368 0
-341 -369 0
-341 -370 0
-341 -371 0
-341 -372 0
-341 -373 0
-341 -374 0
-341 -375 0
-341 -376 0
-342 -343 0
-342 -344 0
-342 -345 0
-342 -346 0
-342 -347 0
-342 -348 0
-342 -349 0
-342 -350 0
-342 -351 0
-342 -352 0
-342 -353 0
-342 -354 0
-342 -355 0
-342 -356 0
-342 -357 0
-342 -358 0
-342 -359 0
-342 -360 0
-342 -361 0
-342 -362 0
-342 -363 0
-342 -364 0
-342 -365 0
-342 -366 0
-342 -367 0
-342 -368 0
-342 -369 0
-342 -370 0
-342 -371 0
-342 -372 0
-342 -373 0
-342 -374 0
-342 -375 0
-342 -376 0
-343 -344 0
-343 -345 0
-343 -346 0
-343 -347 0
-343 -348 0
-343 -349 0
-343 -350 0
-343 -351 0
-343 -352 0
-343 -353 0
-343 -354 0
-343 -355 0
-343 -356 0
-343 -357 0
-343 -358 0
-343 -359 0
-343 -360 0
-343 -361 0
-343 -362 0
-343 -363 0
-343 -364 0
-343 -365 0
-343 -366 0
-343 -367 0
-343 -368 0
-343 -369 0
-343 -370 0
-343 -371 0
-343 -372 0
-343 -373 0
-343 -374 0
-343 -375 0
-343 -376 0
-344 -345 0
-344 -346 0
-344 -347 0
-344 -348 0
-344 -349 0
-344 -350 0
-344 -351 0
-344 -352 0
-344 -353 0
-344 -354 0
-344 -355 0
-344 -356 0
-344 -357 0
-344 -358 0
-344 -359 0
-344 -360 0
-344 -361 0
-344 -362 0
-344 -363 0
-344 -364 0
-344 -365 0
-344 -366 0
-344 -367 0
-344 -368 0
-344 -369 0
-344 -370 0
-344 -371 0
-344 -372 0
-344 -373 0
-344 -374 0
-344 -375 0
-344 -376 0
-345 -346 0
-345 -347 0
-345 -348 0
-345 -349 0
-345 -350 0
-345 -351 0
-345 -352 0
-345 -353 0
-345 -354 0
-345 -355 0
-345 -356 0
-345 -357 0
-345 -358 0
-345 -359 0
-345 -360 0
-345 -361 0
-345 -362 0
-345 -363 0
-345 -364 0
-345 -365 0
-345 -366 0
-345 -367 0
-345 -368 0
-345 -369 0
-345 -370 0
-345 -371 0
-345 -372 0
-345 -373 0
-345 -374 0
-345 -375 0
-345 -376 0
-346 -347 0
-346 -348 0
-346 -349 0
-346 -350 0
-346 -351 0
-346 -352 0
-346 -353 0
-346 -354 0
-346 -355 0
-346 -356 0
-346 -357 0
-346 -358 0
-346 -359 0
-346 -360 0
-346 -361 0
-346 -362 0
-346 -363 0
-346 -364 0
-346 -365 0
-346 -366 0
-346 -367 0
-346 -368 0
-346 -369 0
-346 -370 0
-346 -371 0
-346 -372 0
-346 -373 0
-346 -374 0
-346 -375 0
-346 -376 0
-347 -348 0
-347 -349 0
-347 -350 0
-347 -351 0
-347 -352 0
-347 -353 0
-347 -354 0
-347 -355 0
-347 -356 0
-347 -357 0
-347 -358 0
-347 -359 0
-347 -360 0
-347 -361 0
-347 -362 0
-347 -363 0
-347 -364 0
-347 -365 0
-347 -366 0
-347 -367 0
-347 -368 0
-347 -369 0
-347 -370 0
-347 -371 0
-347 -372 0
-347 -373 0
-347 -374 0
-347 -375 0
-347 -376 0
-348 -349 0
-348 -350 0
-348 -351 0
-348 -352 0
-348 -353 0
-348 -354 0
-348 -355 0
-348 -356 0
-348 -357 0
-348 -358 0
-348 -359 0
-348 -360 0
-348 -361 0
-348 -362 0
-348 -363 0
-348 -364 0
-348 -365 0
-348 -366 0
-348 -367 0
-348 -368 0
-348 -369 0
-348 -370 0
-348 -371 0
-348 -372 0
-348 -373 0
-348 -374 0
-348 -375 0
-348 -376 0
-349 -350 0
-349 -351 0
-349 -352 0
-349 -353 0
-349 -354 0
-349 -355 0
-349 -356 0
-349 -357 0
-349 -358 0
-349 -359 0
-349 -360 0
-349 -361 0
-349 -362 0
-349 -363 0
-349 -364 0
-349 -365 0
-349 -366 0
-349 -367 0
-349 -368 0
-349 -369 0
-349 -370 0
-349 -371 0
-349 -372 0
-349 -373 0
-349 -374 0
-349 -375 0
-349 -376 0
-350 -351 0
-350 -352 0
-350 -353 0
-350 -354 0
-350 -355 0
-350 -356 0
-350 -357 0
-350 -358 0
-350 -359 0
-350 -360 0
-350 -361 0
-350 -362 0
-350 -363 0
-350 -364 0
-350 -365 0
-350 -366 0
-350 -367 0
-350 -368 0
-350 -369 0
-350 -370 0
-350 -371 0
-350 -372 0
-350 -373 0
-350 -374 0
-350 -375 0
-350 -376 0
-351 -352 0
-351 -353 0
-351 -354 0
-351 -355 0
-351 -356 0
-351 -357 0
-351 -358 0
-351 -359 0
-351 -360 0
-351 -361 0
-351 -362 0
-351 -363 0
-351 -364 0
-351 -365 0
-351 -366 0
-351 -367 0
-351 -368 0
-351 -369 0
-351 -370 0
-351 -371 0
-351 -372 0
-351 -373 0
-351 -374 0
-351 -375 0
-351 -376 0
-352 -353 0
-352 -354 0
-352 -355 0
-352 -356 0
-352 -357 0
-352 -358 0
-352 -359 0
-352 -360 0
-352 -361 0
-352 -362 0
-352 -363 0
-352 -364 0
-352 -365 0
-352 -366 0
-352 -367 0
-352 -368 0
-352 -369 0
-352 -370 0
-352 -371 0
-352 -372 0
-352 -373 0
-352 -374 0
-352 -375 0
-352 -376 0
-353 -354 0
-353 -355 0
-353 -356 0
-353 -357 0
-353 -358 0
-353 -359 0
-353 -360 0
-353 -361 0
-353 -362 0
-353 -363 0
-353 -364 0
-353 -365 0
-353 -366 0
-353 -367 0
-353 -368 0
-353 -369 0
-353 -370 0
-353 -371 0
-353 -372 0
-353 -373 0
-353 -374 0
-353 -375 0
-353 -376 0
-354 -355 0
-354 -356 0
-354 -357 0
-354 -358 0
-354 -359 0
-354 -360 0
-354 -361 0
-354 -362 0
-354 -363 0
-354 -364 0
-354 -365 0
-354 -366 0
-354 -367 0
-354 -368 0
-354 -369 0
-354 -370 0
-354 -371 0
-354 -372 0
-354 -373 0
-354 -374 0
-354 -375 0
-354 -376 0
-355 -356 0
-355 -357 0
-355 -358 0
-355 -359 0
-355 -360 0
-355 -361 0
-355 -362 0
-355 -363 0
-355 -364 0
-355 -365 0
-355 -366 0
-355 -367 0
-355 -368 0
-355 -369 0
-355 -370 0
-355 -371 0
-355 -372 0
-355 -373 0
-355 -374 0
-355 -375 0
-355 -376 0
-356 -357 0
-356 -358 0
-356 -359 0
-356 -360 0
-356 -361 0
-356 -362 0
-356 -363 0
-356 -364 0
-356 -365 0
-356 -366 0
-356 -367 0
-356 -368 0
-356 -369 0
-356 -370 0
-356 -371 0
-356 -372 0
-356 -373 0
-356 -374 0
-356 -375 0
-356 -376 0
-357 -358 0
-357 -359 0
-357 -360 0
-357 -361 0
-357 -362 0
-357 -363 0
-357 -364 0
-357 -365 0
-357 -366 0
-357 -367 0
-357 -368 0
-357 -369 0
-357 -370 0
-357 -371 0
-357 -372 0
-357 -373 0
-357 -374 0
-357 -375 0
-357 -376 0
-358 -359 0
-358 -360 0
-358 -361 0
-358 -362 0
-358 -363 0
-358 -364 0
-358 -365 0
-358 -366 0
-358 -367 0
-358 -368 0
-358 -369 0
-358 -370 0
-358 -371 0
-358 -372 0
-358 -373 0
-358 -374 0
-358 -375 0
-358 -376 0
-359 -360 0
-359 -361 0
-359 -362 0
-359 -363 0
-359 -364 0
-359 -365 0
-359 -366 0
-359 -367 0
-359 -368 0
-359 -369 0
-359 -370 0
-359 -371 0
-359 -372 0
-359 -373 0
-359 -374 0
-359 -375 0
-359 -376 0
-360 -361 0
-360 -362 0
-360 -363 0
-360 -364 0
-360 -365 0
-360 -366 0
-360 -367 0
-360 -368 0
-360 -369 0
-360 -370 0
-360 -371 0
-360 -372 0
-360 -373 0
-360 -374 0
-360 -375 0
-360 -376 0
-361 -362 0
-361 -363 0
-361 -364 0
-361 -365 0
-361 -366 0
-361 -367 0
-361 -368 0
-361 -369 0
-361 -370 0
-361 -371 0
-361 -372 0
-361 -373 0
-361 -374 0
-361 -375 0
-361 -376 0
-362 -363 0
-362 -364 0
-362 -365 0
-362 -366 0
-362 -367 0
-362 -368 0
-362 -369 0
-362 -370 0
-362 -371 0
-362 -372 0
-362 -373 0
-362 -374 0
-362 -375 0
-362 -376 0
-363 -364 0
-363 -365 0
-363 -366 0
-363 -367 0
-363 -368 0
-363 -369 0
-363 -370 0
-363 -371 0
-363 -372 0
-363 -373 0
-363 -374 0
-363 -375 0
-363 -376 0
-364 -365 0
-364 -366 0
-364 -367 0
-364 -368 0
-364 -369 0
-364 -370 0
-364 -371 0
-364 -372 0
-364 -373 0
-364 -374 0
-364 -375 0
-364 -376 0
-365 -366 0
-365 -367 0
-365 -368 0
-365 -369 0
-365 -370 0
-365 -371 0
-365 -372 0
-365 -373 0
-365 -374 0
-365 -375 0
-365 -376 0
-366 -367 0
-366 -368 0
-366 -369 0
-366 -370 0
-366 -371 0
-366 -372 0
-366 -373 0
-366 -374 0
-366 -375 0
-366 -376 0
-367 -368 0
-367 -369 0
-367 -370 0
-367 -371 0
-367 -372 0
-367 -373 0
-367 -374 0
-367 -375 0
-367 -376 0
-368 -369 0
-368 -370 0
-368 -371 0
-368 -372 0
-368 -373 0
-368 -374 0
-368 -375 0
-368 -376 0
-369 -370 0
-369 -371 0
-369 -372 0
-369 -373 0
-369 -374 0
-369 -375 0
-369 -376 0
-370 -371 0
-370 -372 0
-370 -373 0
-370 -374 0
-370 -375 0
-370 -376 0
-371 -372 0
-371 -373 0
-371 -374 0
-371 -375 0
-371 -376 0
-372 -373 0
-372 -374 0
-372 -375 0
-372 -376 0
-373 -374 0
-373 -375 0
-373 -376 0
-374 -375 0
-374 -376 0
-375 -376 0
-293 -65 0
-293 -66 0
-293 -67 0
-293 68 0
-293 -69 0
-293 -70 0
-293 -71 0
-293 72 0
-293 -73 0
-293 -74 0
-293 -75 0
-293 76 0
-293 -77 0
-293 -78 0
-293 -79 0
-293 80 0
-293 -81 0
-293 -82 0
-293 -83 0
-293 84 0
-293 -85 0
-293 -86 0
-293 -87 0
-293 88 0
-293 -89 0
-293 -90 0
-293 -91 0
-293 92 0
-293 -93 0
-293 -94 0
-293 -95 0
-293 96 0
-294 -65 0
-294 66 0
-294 -67 0
-294 -68 0
-294 -69 0
-294 70 0
-294 -71 0
-294 -72 0
-294 -73 0
-294 74 0
-294 -75 0
-294 -76 0
-294 -77 0
-294 78 0
-294 -79 0
-294 -80 0
-294 -81 0
-294 82 0
-294 -83 0
-294 -84 0
-294 -85 0
-294 86 0
-294 -87 0
-294 -88 0
-294 -89 0
-294 90 0
-294 -91 0
-294 -92 0
-294 -93 0
-294 94 0
-294 -95 0
-294 -96 0
-295 -65 0
-295 -66 0
-295 67 0
-295 -68 0
-295 -69 0
-295 -70 0
-295 71 0
-295 -72 0
-295 -73 0
-295 -74 0
-295 75 0
-295 -76 0
-295 -77 0
-295 -78 0
-295 79 0
-295 -80 0
-295 -81 0
-295 -82 0
-295 83 0
-295 -84 0
-295 -85 0
-295 -86 0
-295 87 0
-295 -88 0
-295 -89 0
-295 -90 0
-295 91 0
-295 -92 0
-295 -93 0
-295 -94 0
-295 95 0
-295 -96 0
-296 65 0
-296 -66 0
-296 -67 0
-296 -68 0
-296 69 0
-296 -70 0
-296 -71 0
-296 -72 0
-296 73 0
-296 -74 0
-296 -75 0
-296 -76 0
-296 77 0
-296 -78 0
-296 -79 0
-296 -80 0
-296 81 0
-296 -82 0
-296 -83 0
-296 -84 0
-296 85 0
-296 -86 0
-296 -87 0
-296 -88 0
-296 89 0
-296 -90 0
-296 -91 0
-296 -92 0
-296 93 0
-296 -94 0
-296 -95 0
-296 -96 0
-297 -65 0
-297 -66 0
-297 -67 0
-297 -68 0
-297 -69 0
-297 70 0
-297 -71 0
-297 72 0
-297 -73 0
-297 -74 0
-297 -75 0
-297 -76 0
-297 -77 0
-297 78 0
-297 -79 0
-297 80 0
-297 -81 0
-297 -82 0
-297 -83 0
-297 -84 0
-297 -85 0
-297 86 0
-297 -87 0
-297 88 0
-297 -89 0
-297 -90 0
-297 -91 0
-297 -92 0
-297 -93 0
-297 94 0
-297 -95 0
-297 96 0
-298 -65 0
-298 66 0
-298 -67 0
-298 68 0
-298 -69 0
-298 -70 0
-298 -71 0
-298 -72 0
-298 -73 0
-298 74 0
-298 -75 0
-298 76 0
-298 -77 0
-298 -78 0
-298 -79 0
-298 -80 0
-298 -81 0
-298 82 0
-298 -83 0
-298 84 0
-298 -85 0
-298 -86 0
-298 -87 0
-298 -88 0
-298 -89 0
-298 90 0
-298 -91 0
-298 92 0
-298 -93 0
-298 -94 0
-298 -95 0
-298 -96 0
-299 -65 0
-299 -66 0
-299 -67 0
-299 -68 0
-299 69 0
-299 -70 0
-299 71 0
-299 -72 0
-299 -73 0
-299 -74 0
-299 -75 0
-299 -76 0
-299 77 0
-299 -78 0
-299 79 0
-299 -80 0
-299 -81 0
-299 -82 0
-299 -83 0
-299 -84 0
-299 85 0
-299 -86 0
-299 87 0
-299 -88 0
-299 -89 0
-299 -90 0
-299 -91 0
-299 -92 0
-299 93 0
-299 -94 0
-299 95 0
-299 -96 0
-300 65 0
-300 -66 0
-300 67 0
-300 -68 0
-300 -69 0
-300 -70 0
-300 -71 0
-300 -72 0
-300 73 0
-300 -74 0
-300 75 0
-300 -76 0
-300 -77 0
-300 -78 0
-300 -79 0
-300 -80 0
-300 81 0
-300 -82 0
-300 83 0
-300 -84 0
-300 -85 0
-300 -86 0
-300 -87 0
-300 -88 0
-300 89 0
-300 -90 0
-300 91 0
-300 -92 0
-300 -93 0
-300 -94 0
-300 -95 0
-300 -96 0
-301 -65 0
-301 -66 0
-301 -67 0
-301 -68 0
-301 -69 0
-301 -70 0
-301 -71 0
-301 -72 0
-301 -73 0
-301 74 0
-301 -75 0
-301 76 0
-301 -77 0
-301 78 0
-301 -79 0
-301 80 0
-301 -81 0
-301 -82 0
-301 -83 0
-301 -84 0
-301 -85 0
-301 -86 0
-301 -87 0
-301 -88 0
-301 -89 0
-301 90 0
-301 -91 0
-301 92 0
-301 -93 0
-301 94 0
-301 -95 0
-301 96 0
-302 -65 0
-302 66 0
-302 -67 0
-302 68 0
-302 -69 0
-302 70 0
-302 -71 0
-302 72 0
-302 -73 0
-302 -74 0
-302 -75 0
-302 -76 0
-302 -77 0
-302 -78 0
-302 -79 0
-302 -80 0
-302 -81 0
-302 82 0
-302 -83 0
-302 84 0
-302 -85 0
-302 86 0
-302 -87 0
-302 88 0
-302 -89 0
-302 -90 0
-302 -91 0
-302 -92 0
-302 -93 0
-302 -94 0
-302 -95 0
-302 -96 0
-303 -65 0
-303 -66 0
-303 -67 0
-303 -68 0
-303 -69 0
-303 -70 0
-303 -71 0
-303 -72 0
-303 73 0
-303 -74 0
-303 75 0
-303 -76 0
-303 77 0
-303 -78 0
-303 79 0
-303 -80 0
-303 -81 0
-303 -82 0
-303 -83 0
-303 -84 0
-303 -85 0
-303 -86 0
-303 -87 0
-303 -88 0
-303 89 0
-303 -90 0
-303 91 0
-303 -92 0
-303 93 0
-303 -94 0
-303 95 0
-303 -96 0
-304 65 0
-304 -66 0
-304 67 0
-304 -68 0
-304 69 0
-304 -70 0
-304 71 0
-304 -72 0
-304 -73 0
-304 -74 0
-304 -75 0
-304 -76 0
-304 -77 0
-304 -78 0
-304 -79 0
-304 -80 0
-304 81 0
-304 -82 0
-304 83 0
-304 -84 0
-304 85 0
-304 -86 0
-304 87 0
-304 -88 0
-304 -89 0
-304 -90 0
-304 -91 0
-304 -92 0
-304 -93 0
-304 -94 0
-304 -95 0
-304 -96 0
-305 -65 0
-305 -66 0
-305 -67 0
-305 -68 0
-305 -69 0
-305 -70 0
-305 -71 0
-305 -72 0
-305 -73 0
-305 -74 0
-305 -75 0
-305 -76 0
-305 -77 0
-305 -78 0
-305 -79 0
-305 -80 0
-305 -81 0
-305 82 0
-305 -83 0
-305 84 0
-305 -85 0
-305 86 0
-305 -87 0
-305 88 0
-305 -89 0
-305 90 0
-305 -91 0
-305 92 0
-305 -93 0
-305 94 0
-305 -95 0
-305 96 0
-306 -65 0
-306 66 0
-306 -67 0
-306 68 0
-306 -69 0
-306 70 0
-306 -71 0
-306 72 0
-306 -73 0
-306 74 0
-306 -75 0
-306 76 0
-306 -77 0
-306 78 0
-306 -79 0
-306 80 0
-306 -81 0
-306 -82 0
-306 -83 0
-306 -84 0
-306 -85 0
-306 -86 0
-306 -87 0
-306 -88 0
-306 -89 0
-306 -90 0
-306 -91 0
-306 -92 0
-306 -93 0
-306 -94 0
-306 -95 0
-306 -96 0
-307 -65 0
-307 -66 0
-307 -67 0
-307 -68 0
-307 -69 0
-307 -70 0
-307 -71 0
-307 -72 0
-307 -73 0
-307 -74 0
-307 -75 0
-307 -76 0
-307 -77 0
-307 -78 0
-307 -79 0
-307 -80 0
-307 81 0
-307 -82 0
-307 83 0
-307 -84 0
-307 85 0
-307 -86 0
-307 87 0
-307 -88 0
-307 89 0
-307 -90 0
-307 91 0
-307 -92 0
-307 93 0
-307 -94 0
-307 95 0
-307 -96 0
-308 65 0
-308 -66 0
-308 67 0
-308 -68 0
-308 69 0
-308 -70 0
-308 71 0
-308 -72 0
-308 73 0
-308 -74 0
-308 75 0
-308 -76 0
-308 77 0
-308 -78 0
-308 79 0
-308 -80 0
-308 -81 0
-308 -82 0
-308 -83 0
-308 -84 0
-308 -85 0
-308 -86 0
-308 -87 0
-308 -88 0
-308 -89 0
-308 -90 0
-308 -91 0
-308 -92 0
-308 -93 0
-308 -94 0
-308 -95 0
-308 -96 0
-309 -65 0
-309 -66 2 0
-309 66 -2 0
-309 -67 0
-309 -68 4 0
-309 68 -4 0
-309 -69 0
-309 -70 6 0
-309 70 -6 0
-309 -71 0
-309 -72 8 0
-309 72 -8 0
-309 -73 0
-309 -74 10 0
-309 74 -10 0
-309 -75 0
-309 -76 12 0
-309 76 -12 0
-309 -77 0
-309 -78 14 0
-309 78 -14 0
-309 -79 0
-309 -80 16 0
-309 80 -16 0
-309 -81 0
-309 -82 18 0
-309 82 -18 0
-309 -83 0
-309 -84 20 0
-309 84 -20 0
-309 -85 0
-309 -86 22 0
-309 86 -22 0
-309 -87 0
-309 -88 24 0
-309 88 -24 0
-309 -89 0
-309 -90 26 0
-309 90 -26 0
-309 -91 0
-309 -92 28 0
-309 92 -28 0
-309 -93 0
-309 -94 30 0
-309 94 -30 0
-309 -95 0
-309 -96 32 0
-309 96 -32 0
-310 -65 0
-310 -66 -2 0
-310 66 2 0
-310 -67 0
-310 -68 -4 0
-310 68 4 0
-310 -69 0
-310 -70 -6 0
-310 70 6 0
-310 -71 0
-310 -72 -8 0
-310 72 8 0
-310 -73 0
-310 -74 -10 0
-310 74 10 0
-310 -75 0
-310 -76 -12 0
-310 76 12 0
-310 -77 0
-310 -78 -14 0
-310 78 14 0
-310 -79 0
-310 -80 -16 0
-310 80 16 0
-310 -81 0
-310 -82 -18 0
-310 82 18 0
-310 -83 0
-310 -84 -20 0
-310 84 20 0
-310 -85 0
-310 -86 -22 0
-310 86 22 0
-310 -87 0
-310 -88 -24 0
-310 88 24 0
-310 -89 0
-310 -90 -26 0
-310 90 26 0
-310 -91 0
-310 -92 -28 0
-310 92 28 0
-310 -93 0
-310 -94 -30 0
-310 94 30 0
-310 -95 0
-310 -96 -32 0
-310 96 32 0
-311 -65 1 0
-311 65 -1 0
-311 -66 0
-311 -67 3 0
-311 67 -3 0
-311 -68 0
-311 -69 5 0
-311 69 -5 0
-311 -70 0
-311 -71 7 0
-311 71 -7 0
-311 -72 0
-311 -73 9 0
-311 73 -9 0
-311 -74 0
-311 -75 11 0
-311 75 -11 0
-311 -76 0
-311 -77 13 0
-311 77 -13 0
-311 -78 0
-311 -79 15 0
-311 79 -15 0
-311 -80 0
-311 -81 17 0
-311 81 -17 0
-311 -82 0
-311 -83 19 0
-311 83 -19 0
-311 -84 0
-311 -85 21 0
-311 85 -21 0
-311 -86 0
-311 -87 23 0
-311 87 -23 0
-311 -88 0
-311 -89 25 0
-311 89 -25 0
-311 -90 0
-311 -91 27 0
-311 91 -27 0
-311 -92 0
-311 -93 29 0
-311 93 -29 0
-311 -94 0
-311 -95 31 0
-311 95 -31 0
-311 -96 0
-312 -65 -1 0
-312 65 1 0
-312 -66 0
-312 -67 -3 0
-312 67 3 0
-312 -68 0
-312 -69 -5 0
-312 69 5 0
-312 -70 0
-312 -71 -7 0
-312 71 7 0
-312 -72 0
-312 -73 -9 0
-312 73 9 0
-312 -74 0
-312 -75 -11 0
-312 75 11 0
-312 -76 0
-312 -77 -13 0
-312 77 13 0
-312 -78 0
-312 -79 -15 0
-312 79 15 0
-312 -80 0
-312 -81 -17 0
-312 81 17 0
-312 -82 0
-312 -83 -19 0
-312 83 19 0
-312 -84 0
-312 -85 -21 0
-312 85 21 0
-312 -86 0
-312 -87 -23 0
-312 87 23 0
-312 -88 0
-312 -89 -25 0
-312 89 25 0
-312 -90 0
-312 -91 -27 0
-312 91 27 0
-312 -92 0
-312 -93 -29 0
-312 93 29 0
-312 -94 0
-312 -95 -31 0
-312 95 31 0
-312 -96 0
-313 -65 0
-313 -66 34 0
-313 66 -34 0
-313 -67 0
-313 -68 36 0
-313 68 -36 0
-313 -69 0
-313 -70 38 0
-313 70 -38 0
-313 -71 0
-313 -72 40 0
-313 72 -40 0
-313 -73 0
-313 -74 42 0
-313 74 -42 0
-313 -75 0
-313 -76 44 0
-313 76 -44 0
-313 -77 0
-313 -78 46 0
-313 78 -46 0
-313 -79 0
-313 -80 48 0
-313 80 -48 0
-313 -81 0
-313 -82 50 0
-313 82 -50 0
-313 -83 0
-313 -84 52 0
-313 84 -52 0
-313 -85 0
-313 -86 54 0
-313 86 -54 0
-313 -87 0
-313 -88 56 0
-313 88 -56 0
-313 -89 0
-313 -90 58 0
-313 90 -58 0
-313 -91 0
-313 -92 60 0
-313 92 -60 0
-313 -93 0
-313 -94 62 0
-313 94 -62 0
-313 -95 0
-313 -96 64 0
-313 96 -64 0
-314 -65 0
-314 -66 -34 0
-314 66 34 0
-314 -67 0
-314 -68 -36 0
-314 68 36 0
-314 -69 0
-314 -70 -38 0
-314 70 38 0
-314 -71 0
-314 -72 -40 0
-314 72 40 0
-314 -73 0
-314 -74 -42 0
-314 74 42 0
-314 -75 0
-314 -76 -44 0
-314 76 44 0
-314 -77 0
-314 -78 -46 0
-314 78 46 0
-314 -79 0
-314 -80 -48 0
-314 80 48 0
-314 -81 0
-314 -82 -50 0
-314 82 50 0
-314 -83 0
-314 -84 -52 0
-314 84 52 0
-314 -85 0
-314 -86 -54 0
-314 86 54 0
-314 -87 0
-314 -88 -56 0
-314 88 56 0
-314 -89 0
-314 -90 -58 0
-314 90 58 0
-314 -91 0
-314 -92 -60 0
-314 92 60 0
-314 -93 0
-314 -94 -62 0
-314 94 62 0
-314 -95 0
-314 -96 -64 0
-314 96 64 0
-315 -65 33 0
-315 65 -33 0
-315 -66 0
-315 -67 35 0
-315 67 -35 0
-315 -68 0
-315 -69 37 0
-315 69 -37 0
-315 -70 0
-315 -71 39 0
-315 71 -39 0
-315 -72 0
-315 -73 41 0
-315 73 -41 0
-315 -74 0
-315 -75 43 0
-315 75 -43 0
-315 -76 0
-315 -77 45 0
-315 77 -45 0
-315 -78 0
-315 -79 47 0
-315 79 -47 0
-315 -80 0
-315 -81 49 0
-315 81 -49 0
-315 -82 0
-315 -83 51 0
-315 83 -51 0
-315 -84 0
-315 -85 53 0
-315 85 -53 0
-315 -86 0
-315 -87 55 0
-315 87 -55 0
-315 -88 0
-315 -89 57 0
-315 89 -57 0
-315 -90 0
-315 -91 59 0
-315 91 -59 0
-315 -92 0
-315 -93 61 0
-315 93 -61 0
-315 -94 0
-315 -95 63 0
-315 95 -63 0
-315 -96 0
-316 -65 -33 0
-316 65 33 0
-316 -66 0
-316 -67 -35 0
-316 67 35 0
-316 -68 0
-316 -69 -37 0
-316 69 37 0
-316 -70 0
-316 -71 -39 0
-316 71 39 0
-316 -72 0
-316 -73 -41 0
-316 73 41 0
-316 -74 0
-316 -75 -43 0
-316 75 43 0
-316 -76 0
-316 -77 -45 0
-316 77 45 0
-316 -78 0
-316 -79 -47 0
-316 79 47 0
-316 -80 0
-316 -81 -49 0
-316 81 49 0
-316 -82 0
-316 -83 -51 0
-316 83 51 0
-316 -84 0
-316 -85 -53 0
-316 85 53 0
-316 -86 0
-316 -87 -55 0
-316 87 55 0
-316 -88 0
-316 -89 -57 0
-316 89 57 0
-316 -90 0
-316 -91 -59 0
-316 91 59 0
-316 -92 0
-316 -93 -61 0
-316 93 61 0
-316 -94 0
-316 -95 -63 0
-316 95 63 0
-316 -96 0
-317 -65 0
-317 -66 0
-317 -67 0
-317 -68 0
-317 -69 0
-317 -70 0
-317 71 0
-317 72 0
-317 -73 0
-317 -74 0
-317 -75 0
-317 -76 0
-317 -77 0
-317 -78 0
-317 79 0
-317 80 0
-317 -81 0
-317 -82 0
-317 -83 0
-317 -84 0
-317 -85 0
-317 -86 0
-317 87 0
-317 88 0
-317 -89 0
-317 -90 0
-317 -91 0
-317 -92 0
-317 -93 0
-317 -94 0
-317 95 0
-317 96 0
-318 -65 0
-318 -66 0
-318 67 0
-318 68 0
-318 -69 0
-318 -70 0
-318 -71 0
-318 -72 0
-318 -73 0
-318 -74 0
-318 75 0
-318 76 0
-318 -77 0
-318 -78 0
-318 -79 0
-318 -80 0
-318 -81 0
-318 -82 0
-318 83 0
-318 84 0
-318 -85 0
-318 -86 0
-318 -87 0
-318 -88 0
-318 -89 0
-318 -90 0
-318 91 0
-318 92 0
-318 -93 0
-318 -94 0
-318 -95 0
-318 -96 0
-319 -65 0
-319 -66 0
-319 -67 0
-319 -68 0
-319 69 0
-319 70 0
-319 -71 0
-319 -72 0
-319 -73 0
-319 -74 0
-319 -75 0
-319 -76 0
-319 77 0
-319 78 0
-319 -79 0
-319 -80 0
-319 -81 0
-319 -82 0
-319 -83 0
-319 -84 0
-319 85 0
-319 86 0
-319 -87 0
-319 -88 0
-319 -89 0
-319 -90 0
-319 -91 0
-319 -92 0
-319 93 0
-319 94 0
-319 -95 0
-319 -96 0
-320 65 0
-320 66 0
-320 -67 0
-320 -68 0
-320 -69 0
-320 -70 0
-320 -71 0
-320 -72 0
-320 73 0
-320 74 0
-320 -75 0
-320 -76 0
-320 -77 0
-320 -78 0
-320 -79 0
-320 -80 0
-320 81 0
-320 82 0
-320 -83 0
-320 -84 0
-320 -85 0
-320 -86 0
-320 -87 0
-320 -88 0
-320 89 0
-320 90 0
-320 -91 0
-320 -92 0
-320 -93 0
-320 -94 0
-320 -95 0
-320 -96 0
-321 -65 0
-321 -66 0
-321 -67 0
-321 -68 0
-321 -69 0
-321 -70 0
-321 -71 0
-321 -72 0
-321 -73 0
-321 -74 0
-321 75 0
-321 76 0
-321 -77 0
-321 -78 0
-321 79 0
-321 80 0
-321 -81 0
-321 -82 0
-321 -83 0
-321 -84 0
-321 -85 0
-321 -86 0
-321 -87 0
-321 -88 0
-321 -89 0
-321 -90 0
-321 91 0
-321 92 0
-321 -93 0
-321 -94 0
-321 95 0
-321 96 0
-322 -65 0
-322 -66 0
-322 67 0
-322 68 0
-322 -69 0
-322 -70 0
-322 71 0
-322 72 0
-322 -73 0
-322 -74 0
-322 -75 0
-322 -76 0
-322 -77 0
-322 -78 0
-322 -79 0
-322 -80 0
-322 -81 0
-322 -82 0
-322 83 0
-322 84 0
-322 -85 0
-322 -86 0
-322 87 0
-322 88 0
-322 -89 0
-322 -90 0
-322 -91 0
-322 -92 0
-322 -93 0
-322 -94 0
-322 -95 0
-322 -96 0
-323 -65 0
-323 -66 0
-323 -67 0
-323 -68 0
-323 -69 0
-323 -70 0
-323 -71 0
-323 -72 0
-323 73 0
-323 74 0
-323 -75 0
-323 -76 0
-323 77 0
-323 78 0
-323 -79 0
-323 -80 0
-323 -81 0
-323 -82 0
-323 -83 0
-323 -84 0
-323 -85 0
-323 -86 0
-323 -87 0
-323 -88 0
-323 89 0
-323 90 0
-323 -91 0
-323 -92 0
-323 93 0
-323 94 0
-323 -95 0
-323 -96 0
-324 65 0
-324 66 0
-324 -67 0
-324 -68 0
-324 69 0
-324 70 0
-324 -71 0
-324 -72 0
-324 -73 0
-324 -74 0
-324 -75 0
-324 -76 0
-324 -77 0
-324 -78 0
-324 -79 0
-324 -80 0
-324 81 0
-324 82 0
-324 -83 0
-324 -84 0
-324 85 0
-324 86 0
-324 -87 0
-324 -88 0
-324 -89 0
-324 -90 0
-324 -91 0
-324 -92 0
-324 -93 0
-324 -94 0
-324 -95 0
-324 -96 0
-325 -65 0
-325 -66 0
-325 -67 0
-325 -68 0
-325 -69 0
-325 -70 0
-325 -71 0
-325 -72 0
-325 -73 0
-325 -74 0
-325 -75 0
-325 -76 0
-325 -77 0
-325 -78 0
-325 -79 0
-325 -80 0
-325 -81 0
-325 -82 0
-325 83 0
-325 84 0
-325 -85 0
-325 -86 0
-325 87 0
-325 88 0
-325 -89 0
-325 -90 0
-325 91 0
-325 92 0
-325 -93 0
-325 -94 0
-325 95 0
-325 96 0
-326 -65 0
-326 -66 0
-326 67 0
-326 68 0
-326 -69 0
-326 -70 0
-326 71 0
-326 72 0
-326 -73 0
-326 -74 0
-326 75 0
-326 76 0
-326 -77 0
-326 -78 0
-326 79 0
-326 80 0
-326 -81 0
-326 -82 0
-326 -83 0
-326 -84 0
-326 -85 0
-326 -86 0
-326 -87 0
-326 -88 0
-326 -89 0
-326 -90 0
-326 -91 0
-326 -92 0
-326 -93 0
-326 -94 0
-326 -95 0
-326 -96 0
-327 -65 0
-327 -66 0
-327 -67 0
-327 -68 0
-327 -69 0
-327 -70 0
-327 -71 0
-327 -72 0
-327 -73 0
-327 -74 0
-327 -75 0
-327 -76 0
-327 -77 0
-327 -78 0
-327 -79 0
-327 -80 0
-327 81 0
-327 82 0
-327 -83 0
-327 -84 0
-327 85 0
-327 86 0
-327 -87 0
-327 -88 0
-327 89 0
-327 90 0
-327 -91 0
-327 -92 0
-327 93 0
-327 94 0
-327 -95 0
-327 -96 0
-328 65 0
-328 66 0
-328 -67 0
-328 -68 0
-328 69 0
-328 70 0
-328 -71 0
-328 -72 0
-328 73 0
-328 74 0
-328 -75 0
-328 -76 0
-328 77 0
-328 78 0
-328 -79 0
-328 -80 0
-328 -81 0
-328 -82 0
-328 -83 0
-328 -84 0
-328 -85 0
-328 -86 0
-328 -87 0
-328 -88 0
-328 -89 0
-328 -90 0
-328 -91 0
-328 -92 0
-328 -93 0
-328 -94 0
-328 -95 0
-328 -96 0
-329 -65 0
-329 -66 0
-329 -67 3 0
-329 67 -3 0
-329 -68 4 0
-329 68 -4 0
-329 -69 0
-329 -70 0
-329 -71 7 0
-329 71 -7 0
-329 -72 8 0
-329 72 -8 0
-329 -73 0
-329 -74 0
-329 -75 11 0
-329 75 -11 0
-329 -76 12 0
-329 76 -12 0
-329 -77 0
-329 -78 0
-329 -79 15 0
-329 79 -15 0
-329 -80 16 0
-329 80 -16 0
-329 -81 0
-329 -82 0
-329 -83 19 0
-329 83 -19 0
-329 -84 20 0
-329 84 -20 0
-329 -85 0
-329 -86 0
-329 -87 23 0
-329 87 -23 0
-329 -88 24 0
-329 88 -24 0
-329 -89 0
-329 -90 0
-329 -91 27 0
-329 91 -27 0
-329 -92 28 0
-329 92 -28 0
-329 -93 0
-329 -94 0
-329 -95 31 0
-329 95 -31 0
-329 -96 32 0
-329 96 -32 0
-330 -65 0
-330 -66 0
-330 -67 -3 0
-330 67 3 0
-330 -68 -4 0
-330 68 4 0
-330 -69 0
-330 -70 0
-330 -71 -7 0
-330 71 7 0
-330 -72 -8 0
-330 72 8 0
-330 -73 0
-330 -74 0
-330 -75 -11 0
-330 75 11 0
-330 -76 -12 0
-330 76 12 0
-330 -77 0
-330 -78 0
-330 -79 -15 0
-330 79 15 0
-330 -80 -16 0
-330 80 16 0
-330 -81 0
-330 -82 0
-330 -83 -19 0
-330 83 19 0
-330 -84 -20 0
-330 84 20 0
-330 -85 0
-330 -86 0
-330 -87 -23 0
-330 87 23 0
-330 -88 -24 0
-330 88 24 0
-330 -89 0
-330 -90 0
-330 -91 -27 0
-330 91 27 0
-330 -92 -28 0
-330 92 28 0
-330 -93 0
-330 -94 0
-330 -95 -31 0
-330 95 31 0
-330 -96 -32 0
-330 96 32 0
-331 -65 1 0
-331 65 -1 0
-331 -66 2 0
-331 66 -2 0
-331 -67 0
-331 -68 0
-331 -69 5 0
-331 69 -5 0
-331 -70 6 0
-331 70 -6 0
-331 -71 0
-331 -72 0
-331 -73 9 0
-331 73 -9 0
-331 -74 10 0
-331 74 -10 0
-331 -75 0
-331 -76 0
-331 -77 13 0
-331 77 -13 0
-331 -78 14 0
-331 78 -14 0
-331 -79 0
-331 -80 0
-331 -81 17 0
-331 81 -17 0
-331 -82 18 0
-331 82 -18 0
-331 -83 0
-331 -84 0
-331 -85 21 0
-331 85 -21 0
-331 -86 22 0
-331 86 -22 0
-331 -87 0
-331 -88 0
-331 -89 25 0
-331 89 -25 0
-331 -90 26 0
-331 90 -26 0
-331 -91 0
-331 -92 0
-331 -93 29 0
-331 93 -29 0
-331 -94 30 0
-331 94 -30 0
-331 -95 0
-331 -96 0
-332 -65 -1 0
-332 65 1 0
-332 -66 -2 0
-332 66 2 0
-332 -67 0
-332 -68 0
-332 -69 -5 0
-332 69 5 0
-332 -70 -6 0
-332 70 6 0
-332 -71 0
-332 -72 0
-332 -73 -9 0
-332 73 9 0
-332 -74 -10 0
-332 74 10 0
-332 -75 0
-332 -76 0
-332 -77 -13 0
-332 77 13 0
-332 -78 -14 0
-332 78 14 0
-332 -79 0
-332 -80 0
-332 -81 -17 0
-332 81 17 0
-332 -82 -18 0
-332 82 18 0
-332 -83 0
-332 -84 0
-332 -85 -21 0
-332 85 21 0
-332 -86 -22 0
-332 86 22 0
-332 -87 0
-332 -88 0
-332 -89 -25 0
-332 89 25 0
-332 -90 -26 0
-332 90 26 0
-332 -91 0
-332 -92 0
-332 -93 -29 0
-332 93 29 0
-332 -94 -30 0
-332 94 30 0
-332 -95 0
-332 -96 0
-333 -65 0
-333 -66 0
-333 -67 35 0
-333 67 -35 0
-333 -68 36 0
-333 68 -36 0
-333 -69 0
-333 -70 0
-333 -71 39 0
-333 71 -39 0
-333 -72 40 0
-333 72 -40 0
-333 -73 0
-333 -74 0
-333 -75 43 0
-333 75 -43 0
-333 -76 44 0
-333 76 -44 0
-333 -77 0
-333 -78 0
-333 -79 47 0
-333 79 -47 0
-333 -80 48 0
-333 80 -48 0
-333 -81 0
-333 -82 0
-333 -83 51 0
-333 83 -51 0
-333 -84 52 0
-333 84 -52 0
-333 -85 0
-333 -86 0
-333 -87 55 0
-333 87 -55 0
-333 -88 56 0
-333 88 -56 0
-333 -89 0
-333 -90 0
-333 -91 59 0
-333 91 -59 0
-333 -92 60 0
-333 92 -60 0
-333 -93 0
-333 -94 0
-333 -95 63 0
-333 95 -63 0
-333 -96 64 0
-333 96 -64 0
-334 -65 0
-334 -66 0
-334 -67 -35 0
-334 67 35 0
-334 -68 -36 0
-334 68 36 0
-334 -69 0
-334 -70 0
-334 -71 -39 0
-334 71 39 0
-334 -72 -40 0
-334 72 40 0
-334 -73 0
-334 -74 0
-334 -75 -43 0
-334 75 43 0
-334 -76 -44 0
-334 76 44 0
-334 -77 0
-334 -78 0
-334 -79 -47 0
-334 79 47 0
-334 -80 -48 0
-334 80 48 0
-334 -81 0
-334 -82 0
-334 -83 -51 0
-334 83 51 0
-334 -84 -52 0
-334 84 52 0
-334 -85 0
-334 -86 0
-334 -87 -55 0
-334 87 55 0
-334 -88 -56 0
-334 88 56 0
-334 -89 0
-334 -90 0
-334 -91 -59 0
-334 91 59 0
-334 -92 -60 0
-334 92 60 0
-334 -93 0
-334 -94 0
-334 -95 -63 0
-334 95 63 0
-334 -96 -64 0
-334 96 64 0
-335 -65 33 0
-335 65 -33 0
-335 -66 34 0
-335 66 -34 0
-335 -67 0
-335 -68 0
-335 -69 37 0
-335 69 -37 0
-335 -70 38 0
-335 70 -38 0
-335 -71 0
-335 -72 0
-335 -73 41 0
-335 73 -41 0
-335 -74 42 0
-335 74 -42 0
-335 -75 0
-335 -76 0
-335 -77 45 0
-335 77 -45 0
-335 -78 46 0
-335 78 -46 0
-335 -79 0
-335 -80 0
-335 -81 49 0
-335 81 -49 0
-335 -82 50 0
-335 82 -50 0
-335 -83 0
-335 -84 0
-335 -85 53 0
-335 85 -53 0
-335 -86 54 0
-335 86 -54 0
-335 -87 0
-335 -88 0
-335 -89 57 0
-335 89 -57 0
-335 -90 58 0
-335 90 -58 0
-335 -91 0
-335 -92 0
-335 -93 61 0
-335 93 -61 0
-335 -94 62 0
-335 94 -62 0
-335 -95 0
-335 -96 0
-336 -65 -33 0
-336 65 33 0
-336 -66 -34 0
-336 66 34 0
-336 -67 0
-336 -68 0
-336 -69 -37 0
-336 69 37 0
-336 -70 -38 0
-336 70 38 0
-336 -71 0
-336 -72 0
-336 -73 -41 0
-336 73 41 0
-336 -74 -42 0
-336 74 42 0
-336 -75 0
-336 -76 0
-336 -77 -45 0
-336 77 45 0
-336 -78 -46 0
-336 78 46 0
-336 -79 0
-336 -80 0
-336 -81 -49 0
-336 81 49 0
-336 -82 -50 0
-336 82 50 0
-336 -83 0
-336 -84 0
-336 -85 -53 0
-336 85 53 0
-336 -86 -54 0
-336 86 54 0
-336 -87 0
-336 -88 0
-336 -89 -57 0
-336 89 57 0
-336 -90 -58 0
-336 90 58 0
-336 -91 0
-336 -92 0
-336 -93 -61 0
-336 93 61 0
-336 -94 -62 0
-336 94 62 0
-336 -95 0
-336 -96 0
-337 -65 0
-337 -66 0
-337 -67 0
-337 -68 0
-337 -69 0
-337 -70 0
-337 -71 0
-337 -72 0
-337 -73 0
-337 -74 0
-337 -75 0
-337 -76 0
-337 77 0
-337 78 0
-337 79 0
-337 80 0
-337 -81 0
-337 -82 0
-337 -83 0
-337 -84 0
-337 -85 0
-337 -86 0
-337 -87 0
-337 -88 0
-337 -89 0
-337 -90 0
-337 -91 0
-337 -92 0
-337 93 0
-337 94 0
-337 95 0
-337 96 0
-338 -65 0
-338 -66 0
-338 -67 0
-338 -68 0
-338 69 0
-338 70 0
-338 71 0
-338 72 0
-338 -73 0
-338 -74 0
-338 -75 0
-338 -76 0
-338 -77 0
-338 -78 0
-338 -79 0
-338 -80 0
-338 -81 0
-338 -82 0
-338 -83 0
-338 -84 0
-338 85 0
-338 86 0
-338 87 0
-338 88 0
-338 -89 0
-338 -90 0
-338 -91 0
-338 -92 0
-338 -93 0
-338 -94 0
-338 -95 0
-338 -96 0
-339 -65 0
-339 -66 0
-339 -67 0
-339 -68 0
-339 -69 0
-339 -70 0
-339 -71 0
-339 -72 0
-339 73 0
-339 74 0
-339 75 0
-339 76 0
-339 -77 0
-339 -78 0
-339 -79 0
-339 -80 0
-339 -81 0
-339 -82 0
-339 -83 0
-339 -84 0
-339 -85 0
-339 -86 0
-339 -87 0
-339 -88 0
-339 89 0
-339 90 0
-339 91 0
-339 92 0
-339 -93 0
-339 -94 0
-339 -95 0
-339 -96 0
-340 65 0
-340 66 0
-340 67 0
-340 68 0
-340 -69 0
-340 -70 0
-340 -71 0
-340 -72 0
-340 -73 0
-340 -74 0
-340 -75 0
-340 -76 0
-340 -77 0
-340 -78 0
-340 -79 0
-340 -80 0
-340 81 0
-340 82 0
-340 83 0
-340 84 0
-340 -85 0
-340 -86 0
-340 -87 0
-340 -88 0
-340 -89 0
-340 -90 0
-340 -91 0
-340 -92 0
-340 -93 0
-340 -94 0
-340 -95 0
-340 -96 0
-341 -65 0
-341 -66 0
-341 -67 0
-341 -68 0
-341 -69 0
-341 -70 0
-341 -71 0
-341 -72 0
-341 -73 0
-341 -74 0
-341 -75 0
-341 -76 0
-341 -77 0
-341 -78 0
-341 -79 0
-341 -80 0
-341 -81 0
-341 -82 0
-341 -83 0
-341 -84 0
-341 85 0
-341 86 0
-341 87 0
-341 88 0
-341 -89 0
-341 -90 0
-341 -91 0
-341 -92 0
-341 93 0
-341 94 0
-341 95 0
-341 96 0
-342 -65 0
-342 -66 0
-342 -67 0
-342 -68 0
-342 69 0
-342 70 0
-342 71 0
-342 72 0
-342 -73 0
-342 -74 0
-342 -75 0
-342 -76 0
-342 77 0
-342 78 0
-342 79 0
-342 80 0
-342 -81 0
-342 -82 0
-342 -83 0
-342 -84 0
-342 -85 0
-342 -86 0
-342 -87 0
-342 -88 0
-342 -89 0
-342 -90 0
-342 -91 0
-342 -92 0
-342 -93 0
-342 -94 0
-342 -95 0
-342 -96 0
-343 -65 0
-343 -66 0
-343 -67 0
-343 -68 0
-343 -69 0
-343 -70 0
-343 -71 0
-343 -72 0
-343 -73 0
-343 -74 0
-343 -75 0
-343 -76 0
-343 -77 0
-343 -78 0
-343 -79 0
-343 -80 0
-343 81 0
-343 82 0
-343 83 0
-343 84 0
-343 -85 0
-343 -86 0
-343 -87 0
-343 -88 0
-343 89 0
-343 90 0
-343 91 0
-343 92 0
-343 -93 0
-343 -94 0
-343 -95 0
-343 -96 0
-344 65 0
-344 66 0
-344 67 0
-344 68 0
-344 -69 0
-344 -70 0
-344 -71 0
-344 -72 0
-344 73 0
-344 74 0
-344 75 0
-344 76 0
-344 -77 0
-344 -78 0
-344 -79 0
-344 -80 0
-344 -81 0
-344 -82 0
-344 -83 0
-344 -84 0
-344 -85 0
-344 -86 0
-344 -87 0
-344 -88 0
-344 -89 0
-344 -90 0
-344 -91 0
-344 -92 0
-344 -93 0
-344 -94 0
-344 -95 0
-344 -96 0
-345 -65 0
-345 -66 0
-345 -67 0
-345 -68 0
-345 -69 5 0
-345 69 -5 0
-345 -70 6 0
-345 70 -6 0
-345 -71 7 0
-345 71 -7 0
-345 -72 8 0
-345 72 -8 0
-345 -73 0
-345 -74 0
-345 -75 0
-345 -76 0
-345 -77 13 0
-345 77 -13 0
-345 -78 14 0
-345 78 -14 0
-345 -79 15 0
-345 79 -15 0
-345 -80 16 0
-345 80 -16 0
-345 -81 0
-345 -82 0
-345 -83 0
-345 -84 0
-345 -85 21 0
-345 85 -21 0
-345 -86 22 0
-345 86 -22 0
-345 -87 23 0
-345 87 -23 0
-345 -88 24 0
-345 88 -24 0
-345 -89 0
-345 -90 0
-345 -91 0
-345 -92 0
-345 -93 29 0
-345 93 -29 0
-345 -94 30 0
-345 94 -30 0
-345 -95 31 0
-345 95 -31 0
-345 -96 32 0
-345 96 -32 0
-346 -65 0
-346 -66 0
-346 -67 0
-346 -68 0
-346 -69 -5 0
-346 69 5 0
-346 -70 -6 0
-346 70 6 0
-346 -71 -7 0
-346 71 7 0
-346 -72 -8 0
-346 72 8 0
-346 -73 0
-346 -74 0
-346 -75 0
-346 -76 0
-346 -77 -13 0
-346 77 13 0
-346 -78 -14 0
-346 78 14 0
-346 -79 -15 0
-346 79 15 0
-346 -80 -16 0
-346 80 16 0
-346 -81 0
-346 -82 0
-346 -83 0
-346 -84 0
-346 -85 -21 0
-346 85 21 0
-346 -86 -22 0
-346 86 22 0
-346 -87 -23 0
-346 87 23 0
-346 -88 -24 0
-346 88 24 0
-346 -89 0
-346 -90 0
-346 -91 0
-346 -92 0
-346 -93 -29 0
-346 93 29 0
-346 -94 -30 0
-346 94 30 0
-346 -95 -31 0
-346 95 31 0
-346 -96 -32 0
-346 96 32 0
-347 -65 1 0
-347 65 -1 0
-347 -66 2 0
-347 66 -2 0
-347 -67 3 0
-347 67 -3 0
-347 -68 4 0
-347 68 -4 0
-347 -69 0
-347 -70 0
-347 -71 0
-347 -72 0
-347 -73 9 0
-347 73 -9 0
-347 -74 10 0
-347 74 -10 0
-347 -75 11 0
-347 75 -11 0
-347 -76 12 0
-347 76 -12 0
-347 -77 0
-347 -78 0
-347 -79 0
-347 -80 0
-347 -81 17 0
-347 81 -17 0
-347 -82 18 0
-347 82 -18 0
-347 -83 19 0
-347 83 -19 0
-347 -84 20 0
-347 84 -20 0
-347 -85 0
-347 -86 0
-347 -87 0
-347 -88 0
-347 -89 25 0
-347 89 -25 0
-347 -90 26 0
-347 90 -26 0
-347 -91 27 0
-347 91 -27 0
-347 -92 28 0
-347 92 -28 0
-347 -93 0
-347 -94 0
-347 -95 0
-347 -96 0
-348 -65 -1 0
-348 65 1 0
-348 -66 -2 0
-348 66 2 0
-348 -67 -3 0
-348 67 3 0
-348 -68 -4 0
-348 68 4 0
-348 -69 0
-348 -70 0
-348 -71 0
-348 -72 0
-348 -73 -9 0
-348 73 9 0
-348 -74 -10 0
-348 74 10 0
-348 -75 -11 0
-348 75 11 0
-348 -76 -12 0
-348 76 12 0
-348 -77 0
-348 -78 0
-348 -79 0
-348 -80 0
-348 -81 -17 0
-348 81 17 0
-348 -82 -18 0
-348 82 18 0
-348 -83 -19 0
-348 83 19 0
-348 -84 -20 0
-348 84 20 0
-348 -85 0
-348 -86 0
-348 -87 0
-348 -88 0
-348 -89 -25 0
-348 89 25 0
-348 -90 -26 0
-348 90 26 0
-348 -91 -27 0
-348 91 27 0
-348 -92 -28 0
-348 92 28 0
-348 -93 0
-348 -94 0
-348 -95 0
-348 -96 0
-349 -65 0
-349 -66 0
-349 -67 0
-349 -68 0
-349 -69 37 0
-349 69 -37 0
-349 -70 38 0
-349 70 -38 0
-349 -71 39 0
-349 71 -39 0
-349 -72 40 0
-349 72 -40 0
-349 -73 0
-349 -74 0
-349 -75 0
-349 -76 0
-349 -77 45 0
-349 77 -45 0
-349 -78 46 0
-349 78 -46 0
-349 -79 47 0
-349 79 -47 0
-349 -80 48 0
-349 80 -48 0
-349 -81 0
-349 -82 0
-349 -83 0
-349 -84 0
-349 -85 53 0
-349 85 -53 0
-349 -86 54 0
-349 86 -54 0
-349 -87 55 0
-349 87 -55 0
-349 -88 56 0
-349 88 -56 0
-349 -89 0
-349 -90 0
-349 -91 0
-349 -92 0
-349 -93 61 0
-349 93 -61 0
-349 -94 62 0
-349 94 -62 0
-349 -95 63 0
-349 95 -63 0
-349 -96 64 0
-349 96 -64 0
-350 -65 0
-350 -66 0
-350 -67 0
-350 -68 0
-350 -69 -37 0
-350 69 37 0
-350 -70 -38 0
-350 70 38 0
-350 -71 -39 0
-350 71 39 0
-350 -72 -40 0
-350 72 40 0
-350 -73 0
-350 -74 0
-350 -75 0
-350 -76 0
-350 -77 -45 0
-350 77 45 0
-350 -78 -46 0
-350 78 46 0
-350 -79 -47 0
-350 79 47 0
-350 -80 -48 0
-350 80 48 0
-350 -81 0
-350 -82 0
-350 -83 0
-350 -84 0
-350 -85 -53 0
-350 85 53 0
-350 -86 -54 0
-350 86 54 0
-350 -87 -55 0
-350 87 55 0
-350 -88 -56 0
-350 88 56 0
-350 -89 0
-350 -90 0
-350 -91 0
-350 -92 0
-350 -93 -61 0
-350 93 61 0
-350 -94 -62 0
-350 94 62 0
-350 -95 -63 0
-350 95 63 0
-350 -96 -64 0
-350 96 64 0
-351 -65 33 0
-351 65 -33 0
-351 -66 34 0
-351 66 -34 0
-351 -67 35 0
-351 67 -35 0
-351 -68 36 0
-351 68 -36 0
-351 -69 0
-351 -70 0
-351 -71 0
-351 -72 0
-351 -73 41 0
-351 73 -41 0
-351 -74 42 0
-351 74 -42 0
-351 -75 43 0
-351 75 -43 0
-351 -76 44 0
-351 76 -44 0
-351 -77 0
-351 -78 0
-351 -79 0
-351 -80 0
-351 -81 49 0
-351 81 -49 0
-351 -82 50 0
-351 82 -50 0
-351 -83 51 0
-351 83 -51 0
-351 -84 52 0
-351 84 -52 0
-351 -85 0
-351 -86 0
-351 -87 0
-351 -88 0
-351 -89 57 0
-351 89 -57 0
-351 -90 58 0
-351 90 -58 0
-351 -91 59 0
-351 91 -59 0
-351 -92 60 0
-351 92 -60 0
-351 -93 0
-351 -94 0
-351 -95 0
-351 -96 0
-352 -65 -33 0
-352 65 33 0
-352 -66 -34 0
-352 66 34 0
-352 -67 -35 0
-352 67 35 0
-352 -68 -36 0
-352 68 36 0
-352 -69 0
-352 -70 0
-352 -71 0
-352 -72 0
-352 -73 -41 0
-352 73 41 0
-352 -74 -42 0
-352 74 42 0
-352 -75 -43 0
-352 75 43 0
-352 -76 -44 0
-352 76 44 0
-352 -77 0
-352 -78 0
-352 -79 0
-352 -80 0
-352 -81 -49 0
-352 81 49 0
-352 -82 -50 0
-352 82 50 0
-352 -83 -51 0
-352 83 51 0
-352 -84 -52 0
-352 84 52 0
-352 -85 0
-352 -86 0
-352 -87 0
-352 -88 0
-352 -89 -57 0
-352 89 57 0
-352 -90 -58 0
-352 90 58 0
-352 -91 -59 0
-352 91 59 0
-352 -92 -60 0
-352 92 60 0
-352 -93 0
-352 -94 0
-352 -95 0
-352 -96 0
-353 -65 0
-353 -66 0
-353 -67 0
-353 -68 0
-353 -69 0
-353 -70 0
-353 -71 0
-353 -72 0
-353 -73 0
-353 -74 0
-353 -75 0
-353 -76 0
-353 -77 0
-353 -78 0
-353 -79 0
-353 -80 0
-353 -81 0
-353 -82 0
-353 -83 0
-353 -84 0
-353 -85 0
-353 -86 0
-353 -87 0
-353 -88 0
-353 89 0
-353 90 0
-353 91 0
-353 92 0
-353 93 0
-353 94 0
-353 95 0
-353 96 0
-354 -65 0
-354 -66 0
-354 -67 0
-354 -68 0
-354 -69 0
-354 -70 0
-354 -71 0
-354 -72 0
-354 73 0
-354 74 0
-354 75 0
-354 76 0
-354 77 0
-354 78 0
-354 79 0
-354 80 0
-354 -81 0
-354 -82 0
-354 -83 0
-354 -84 0
-354 -85 0
-354 -86 0
-354 -87 0
-354 -88 0
-354 -89 0
-354 -90 0
-354 -91 0
-354 -92 0
-354 -93 0
-354 -94 0
-354 -95 0
-354 -96 0
-355 -65 0
-355 -66 0
-355 -67 0
-355 -68 0
-355 -69 0
-355 -70 0
-355 -71 0
-355 -72 0
-355 -73 0
-355 -74 0
-355 -75 0
-355 -76 0
-355 -77 0
-355 -78 0
-355 -79 0
-355 -80 0
-355 81 0
-355 82 0
-355 83 0
-355 84 0
-355 85 0
-355 86 0
-355 87 0
-355 88 0
-355 -89 0
-355 -90 0
-355 -91 0
-355 -92 0
-355 -93 0
-355 -94 0
-355 -95 0
-355 -96 0
-356 65 0
-356 66 0
-356 67 0
-356 68 0
-356 69 0
-356 70 0
-356 71 0
-356 72 0
-356 -73 0
-356 -74 0
-356 -75 0
-356 -76 0
-356 -77 0
-356 -78 0
-356 -79 0
-356 -80 0
-356 -81 0
-356 -82 0
-356 -83 0
-356 -84 0
-356 -85 0
-356 -86 0
-356 -87 0
-356 -88 0
-356 -89 0
-356 -90 0
-356 -91 0
-356 -92 0
-356 -93 0
-356 -94 0
-356 -95 0
-356 -96 0
-357 -65 0
-357 -66 0
-357 -67 0
-357 -68 0
-357 -69 0
-357 -70 0
-357 -71 0
-357 -72 0
-357 -73 9 0
-357 73 -9 0
-357 -74 10 0
-357 74 -10 0
-357 -75 11 0
-357 75 -11 0
-357 -76 12 0
-357 76 -12 0
-357 -77 13 0
-357 77 -13 0
-357 -78 14 0
-357 78 -14 0
-357 -79 15 0
-357 79 -15 0
-357 -80 16 0
-357 80 -16 0
-357 -81 0
-357 -82 0
-357 -83 0
-357 -84 0
-357 -85 0
-357 -86 0
-357 -87 0
-357 -88 0
-357 -89 25 0
-357 89 -25 0
-357 -90 26 0
-357 90 -26 0
-357 -91 27 0
-357 91 -27 0
-357 -92 28 0
-357 92 -28 0
-357 -93 29 0
-357 93 -29 0
-357 -94 30 0
-357 94 -30 0
-357 -95 31 0
-357 95 -31 0
-357 -96 32 0
-357 96 -32 0
-358 -65 0
-358 -66 0
-358 -67 0
-358 -68 0
-358 -69 0
-358 -70 0
-358 -71 0
-358 -72 0
-358 -73 -9 0
-358 73 9 0
-358 -74 -10 0
-358 74 10 0
-358 -75 -11 0
-358 75 11 0
-358 -76 -12 0
-358 76 12 0
-358 -77 -13 0
-358 77 13 0
-358 -78 -14 0
-358 78 14 0
-358 -79 -15 0
-358 79 15 0
-358 -80 -16 0
-358 80 16 0
-358 -81 0
-358 -82 0
-358 -83 0
-358 -84 0
-358 -85 0
-358 -86 0
-358 -87 0
-358 -88 0
-358 -89 -25 0
-358 89 25 0
-358 -90 -26 0
-358 90 26 0
-358 -91 -27 0
-358 91 27 0
-358 -92 -28 0
-358 92 28 0
-358 -93 -29 0
-358 93 29 0
-358 -94 -30 0
-358 94 30 0
-358 -95 -31 0
-358 95 31 0
-358 -96 -32 0
-358 96 32 0
-359 -65 1 0
-359 65 -1 0
-359 -66 2 0
-359 66 -2 0
-359 -67 3 0
-359 67 -3 0
-359 -68 4 0
-359 68 -4 0
-359 -69 5 0
-359 69 -5 0
-359 -70 6 0
-359 70 -6 0
-359 -71 7 0
-359 71 -7 0
-359 -72 8 0
-359 72 -8 0
-359 -73 0
-359 -74 0
-359 -75 0
-359 -76 0
-359 -77 0
-359 -78 0
-359 -79 0
-359 -80 0
-359 -81 17 0
-359 81 -17 0
-359 -82 18 0
-359 82 -18 0
-359 -83 19 0
-359 83 -19 0
-359 -84 20 0
-359 84 -20 0
-359 -85 21 0
-359 85 -21 0
-359 -86 22 0
-359 86 -22 0
-359 -87 23 0
-359 87 -23 0
-359 -88 24 0
-359 88 -24 0
-359 -89 0
-359 -90 0
-359 -91 0
-359 -92 0
-359 -93 0
-359 -94 0
-359 -95 0
-359 -96 0
-360 -65 -1 0
-360 65 1 0
-360 -66 -2 0
-360 66 2 0
-360 -67 -3 0
-360 67 3 0
-360 -68 -4 0
-360 68 4 0
-360 -69 -5 0
-360 69 5 0
-360 -70 -6 0
-360 70 6 0
-360 -71 -7 0
-360 71 7 0
-360 -72 -8 0
-360 72 8 0
-360 -73 0
-360 -74 0
-360 -75 0
-360 -76 0
-360 -77 0
-360 -78 0
-360 -79 0
-360 -80 0
-360 -81 -17 0
-360 81 17 0
-360 -82 -18 0
-360 82 18 0
-360 -83 -19 0
-360 83 19 0
-360 -84 -20 0
-360 84 20 0
-360 -85 -21 0
-360 85 21 0
-360 -86 -22 0
-360 86 22 0
-360 -87 -23 0
-360 87 23 0
-360 -88 -24 0
-360 88 24 0
-360 -89 0
-360 -90 0
-360 -91 0
-360 -92 0
-360 -93 0
-360 -94 0
-360 -95 0
-360 -96 0
-361 -65 0
-361 -66 0
-361 -67 0
-361 -68 0
-361 -69 0
-361 -70 0
-361 -71 0
-361 -72 0
-361 -73 41 0
-361 73 -41 0
-361 -74 42 0
-361 74 -42 0
-361 -75 43 0
-361 75 -43 0
-361 -76 44 0
-361 76 -44 0
-361 -77 45 0
-361 77 -45 0
-361 -78 46 0
-361 78 -46 0
-361 -79 47 0
-361 79 -47 0
-361 -80 48 0
-361 80 -48 0
-361 -81 0
-361 -82 0
-361 -83 0
-361 -84 0
-361 -85 0
-361 -86 0
-361 -87 0
-361 -88 0
-361 -89 57 0
-361 89 -57 0
-361 -90 58 0
-361 90 -58 0
-361 -91 59 0
-361 91 -59 0
-361 -92 60 0
-361 92 -60 0
-361 -93 61 0
-361 93 -61 0
-361 -94 62 0
-361 94 -62 0
-361 -95 63 0
-361 95 -63 0
-361 -96 64 0
-361 96 -64 0
-362 -65 0
-362 -66 0
-362 -67 0
-362 -68 0
-362 -69 0
-362 -70 0
-362 -71 0
-362 -72 0
-362 -73 -41 0
-362 73 41 0
-362 -74 -42 0
-362 74 42 0
-362 -75 -43 0
-362 75 43 0
-362 -76 -44 0
-362 76 44 0
-362 -77 -45 0
-362 77 45 0
-362 -78 -46 0
-362 78 46 0
-362 -79 -47 0
-362 79 47 0
-362 -80 -48 0
-362 80 48 0
-362 -81 0
-362 -82 0
-362 -83 0
-362 -84 0
-362 -85 0
-362 -86 0
-362 -87 0
-362 -88 0
-362 -89 -57 0
-362 89 57 0
-362 -90 -58 0
-362 90 58 0
-362 -91 -59 0
-362 91 59 0
-362 -92 -60 0
-362 92 60 0
-362 -93 -61 0
-362 93 61 0
-362 -94 -62 0
-362 94 62 0
-362 -95 -63 0
-362 95 63 0
-362 -96 -64 0
-362 96 64 0
-363 -65 33 0
-363 65 -33 0
-363 -66 34 0
-363 66 -34 0
-363 -67 35 0
-363 67 -35 0
-363 -68 36 0
-363 68 -36 0
-363 -69 37 0
-363 69 -37 0
-363 -70 38 0
-363 70 -38 0
-363 -71 39 0
-363 71 -39 0
-363 -72 40 0
-363 72 -40 0
-363 -73 0
-363 -74 0
-363 -75 0
-363 -76 0
-363 -77 0
-363 -78 0
-363 -79 0
-363 -80 0
-363 -81 49 0
-363 81 -49 0
-363 -82 50 0
-363 82 -50 0
-363 -83 51 0
-363 83 -51 0
-363 -84 52 0
-363 84 -52 0
-363 -85 53 0
-363 85 -53 0
-363 -86 54 0
-363 86 -54 0
-363 -87 55 0
-363 87 -55 0
-363 -88 56 0
-363 88 -56 0
-363 -89 0
-363 -90 0
-363 -91 0
-363 -92 0
-363 -93 0
-363 -94 0
-363 -95 0
-363 -96 0
-364 -65 -33 0
-364 65 33 0
-364 -66 -34 0
-364 66 34 0
-364 -67 -35 0
-364 67 35 0
-364 -68 -36 0
-364 68 36 0
-364 -69 -37 0
-364 69 37 0
-364 -70 -38 0
-364 70 38 0
-364 -71 -39 0
-364 71 39 0
-364 -72 -40 0
-364 72 40 0
-364 -73 0
-364 -74 0
-364 -75 0
-364 -76 0
-364 -77 0
-364 -78 0
-364 -79 0
-364 -80 0
-364 -81 -49 0
-364 81 49 0
-364 -82 -50 0
-364 82 50 0
-364 -83 -51 0
-364 83 51 0
-364 -84 -52 0
-364 84 52 0
-364 -85 -53 0
-364 85 53 0
-364 -86 -54 0
-364 86 54 0
-364 -87 -55 0
-364 87 55 0
-364 -88 -56 0
-364 88 56 0
-364 -89 0
-364 -90 0
-364 -91 0
-364 -92 0
-364 -93 0
-364 -94 0
-364 -95 0
-364 -96 0
-365 -65 0
-365 -66 0
-365 -67 0
-365 -68 0
-365 -69 0
-365 -70 0
-365 -71 0
-365 -72 0
-365 -73 0
-365 -74 0
-365 -75 0
-365 -76 0
-365 -77 0
-365 -78 0
-365 -79 0
-365 -80 0
-365 -81 17 0
-365 81 -17 0
-365 -82 18 0
-365 82 -18 0
-365 -83 19 0
-365 83 -19 0
-365 -84 20 0
-365 84 -20 0
-365 -85 21 0
-365 85 -21 0
-365 -86 22 0
-365 86 -22 0
-365 -87 23 0
-365 87 -23 0
-365 -88 24 0
-365 88 -24 0
-365 -89 25 0
-365 89 -25 0
-365 -90 26 0
-365 90 -26 0
-365 -91 27 0
-365 91 -27 0
-365 -92 28 0
-365 92 -28 0
-365 -93 29 0
-365 93 -29 0
-365 -94 30 0
-365 94 -30 0
-365 -95 31 0
-365 95 -31 0
-365 -96 32 0
-365 96 -32 0
-366 -65 0
-366 -66 0
-366 -67 0
-366 -68 0
-366 -69 0
-366 -70 0
-366 -71 0
-366 -72 0
-366 -73 0
-366 -74 0
-366 -75 0
-366 -76 0
-366 -77 0
-366 -78 0
-366 -79 0
-366 -80 0
-366 -81 -17 0
-366 81 17 0
-366 -82 -18 0
-366 82 18 0
-366 -83 -19 0
-366 83 19 0
-366 -84 -20 0
-366 84 20 0
-366 -85 -21 0
-366 85 21 0
-366 -86 -22 0
-366 86 22 0
-366 -87 -23 0
-366 87 23 0
-366 -88 -24 0
-366 88 24 0
-366 -89 -25 0
-366 89 25 0
-366 -90 -26 0
-366 90 26 0
-366 -91 -27 0
-366 91 27 0
-366 -92 -28 0
-366 92 28 0
-366 -93 -29 0
-366 93 29 0
-366 -94 -30 0
-366 94 30 0
-366 -95 -31 0
-366 95 31 0
-366 -96 -32 0
-366 96 32 0
-367 -65 1 0
-367 65 -1 0
-367 -66 2 0
-367 66 -2 0
-367 -67 3 0
-367 67 -3 0
-367 -68 4 0
-367 68 -4 0
-367 -69 5 0
-367 69 -5 0
-367 -70 6 0
-367 70 -6 0
-367 -71 7 0
-367 71 -7 0
-367 -72 8 0
-367 72 -8 0
-367 -73 9 0
-367 73 -9 0
-367 -74 10 0
-367 74 -10 0
-367 -75 11 0
-367 75 -11 0
-367 -76 12 0
-367 76 -12 0
-367 -77 13 0
-367 77 -13 0
-367 -78 14 0
-367 78 -14 0
-367 -79 15 0
-367 79 -15 0
-367 -80 16 0
-367 80 -16 0
-367 -81 0
-367 -82 0
-367 -83 0
-367 -84 0
-367 -85 0
-367 -86 0
-367 -87 0
-367 -88 0
-367 -89 0
-367 -90 0
-367 -91 0
-367 -92 0
-367 -93 0
-367 -94 0
-367 -95 0
-367 -96 0
-368 -65 -1 0
-368 65 1 0
-368 -66 -2 0
-368 66 2 0
-368 -67 -3 0
-368 67 3 0
-368 -68 -4 0
-368 68 4 0
-368 -69 -5 0
-368 69 5 0
-368 -70 -6 0
-368 70 6 0
-368 -71 -7 0
-368 71 7 0
-368 -72 -8 0
-368 72 8 0
-368 -73 -9 0
-368 73 9 0
-368 -74 -10 0
-368 74 10 0
-368 -75 -11 0
-368 75 11 0
-368 -76 -12 0
-368 76 12 0
-368 -77 -13 0
-368 77 13 0
-368 -78 -14 0
-368 78 14 0
-368 -79 -15 0
-368 79 15 0
-368 -80 -16 0
-368 80 16 0
-368 -81 0
-368 -82 0
-368 -83 0
-368 -84 0
-368 -85 0
-368 -86 0
-368 -87 0
-368 -88 0
-368 -89 0
-368 -90 0
-368 -91 0
-368 -92 0
-368 -93 0
-368 -94 0
-368 -95 0
-368 -96 0
-369 -65 0
-369 -66 0
-369 -67 0
-369 -68 0
-369 -69 0
-369 -70 0
-369 -71 0
-369 -72 0
-369 -73 0
-369 -74 0
-369 -75 0
-369 -76 0
-369 -77 0
-369 -78 0
-369 -79 0
-369 -80 0
-369 -81 49 0
-369 81 -49 0
-369 -82 50 0
-369 82 -50 0
-369 -83 51 0
-369 83 -51 0
-369 -84 52 0
-369 84 -52 0
-369 -85 53 0
-369 85 -53 0
-369 -86 54 0
-369 86 -54 0
-369 -87 55 0
-369 87 -55 0
-369 -88 56 0
-369 88 -56 0
-369 -89 57 0
-369 89 -57 0
-369 -90 58 0
-369 90 -58 0
-369 -91 59 0
-369 91 -59 0
-369 -92 60 0
-369 92 -60 0
-369 -93 61 0
-369 93 -61 0
-369 -94 62 0
-369 94 -62 0
-369 -95 63 0
-369 95 -63 0
-369 -96 64 0
-369 96 -64 0
-370 -65 0
-370 -66 0
-370 -67 0
-370 -68 0
-370 -69 0
-370 -70 0
-370 -71 0
-370 -72 0
-370 -73 0
-370 -74 0
-370 -75 0
-370 -76 0
-370 -77 0
-370 -78 0
-370 -79 0
-370 -80 0
-370 -81 -49 0
-370 81 49 0
-370 -82 -50 0
-370 82 50 0
-370 -83 -51 0
-370 83 51 0
-370 -84 -52 0
-370 84 52 0
-370 -85 -53 0
-370 85 53 0
-370 -86 -54 0
-370 86 54 0
-370 -87 -55 0
-370 87 55 0
-370 -88 -56 0
-370 88 56 0
-370 -89 -57 0
-370 89 57 0
-370 -90 -58 0
-370 90 58 0
-370 -91 -59 0
-370 91 59 0
-370 -92 -60 0
-370 92 60 0
-370 -93 -61 0
-370 93 61 0
-370 -94 -62 0
-370 94 62 0
-370 -95 -63 0
-370 95 63 0
-370 -96 -64 0
-370 96 64 0
-371 -65 33 0
-371 65 -33 0
-371 -66 34 0
-371 66 -34 0
-371 -67 35 0
-371 67 -35 0
-371 -68 36 0
-371 68 -36 0
-371 -69 37 0
-371 69 -37 0
-371 -70 38 0
-371 70 -38 0
-371 -71 39 0
-371 71 -39 0
-371 -72 40 0
-371 72 -40 0
-371 -73 41 0
-371 73 -41 0
-371 -74 42 0
-371 74 -42 0
-371 -75 43 0
-371 75 -43 0
-371 -76 44 0
-371 76 -44 0
-371 -77 45 0
-371 77 -45 0
-371 -78 46 0
-371 78 -46 0
-371 -79 47 0
-371 79 -47 0
-371 -80 48 0
-371 80 -48 0
-371 -81 0
-371 -82 0
-371 -83 0
-371 -84 0
-371 -85 0
-371 -86 0
-371 -87 0
-371 -88 0
-371 -89 0
-371 -90 0
-371 -91 0
-371 -92 0
-371 -93 0
-371 -94 0
-371 -95 0
-371 -96 0
-372 -65 -33 0
-372 65 33 0
-372 -66 -34 0
-372 66 34 0
-372 -67 -35 0
-372 67 35 0
-372 -68 -36 0
-372 68 36 0
-372 -69 -37 0
-372 69 37 0
-372 -70 -38 0
-372 70 38 0
-372 -71 -39 0
-372 71 39 0
-372 -72 -40 0
-372 72 40 0
-372 -73 -41 0
-372 73 41 0
-372 -74 -42 0
-372 74 42 0
-372 -75 -43 0
-372 75 43 0
-372 -76 -44 0
-372 76 44 0
-372 -77 -45 0
-372 77 45 0
-372 -78 -46 0
-372 78 46 0
-372 -79 -47 0
-372 79 47 0
-372 -80 -48 0
-372 80 48 0
-372 -81 0
-372 -82 0
-372 -83 0
-372 -84 0
-372 -85 0
-372 -86 0
-372 -87 0
-372 -88 0
-372 -89 0
-372 -90 0
-372 -91 0
-372 -92 0
-372 -93 0
-372 -94 0
-372 -95 0
-372 -96 0
-373 -65 1 0
-373 -65 33 0
-373 65 -1 -33 0
-373 -66 2 0
-373 -66 34 0
-373 66 -2 -34 0
-373 -67 3 0
-373 -67 35 0
-373 67 -3 -35 0
-373 -68 4 0
-373 -68 36 0
-373 68 -4 -36 0
-373 -69 5 0
-373 -69 37 0
-373 69 -5 -37 0
-373 -70 6 0
-373 -70 38 0
-373 70 -6 -38 0
-373 -71 7 0
-373 -71 39 0
-373 71 -7 -39 0
-373 -72 8 0
-373 -72 40 0
-373 72 -8 -40 0
-373 -73 9 0
-373 -73 41 0
-373 73 -9 -41 0
-373 -74 10 0
-373 -74 42 0
-373 74 -10 -42 0
-373 -75 11 0
-373 -75 43 0
-373 75 -11 -43 0
-373 -76 12 0
-373 -76 44 0
-373 76 -12 -44 0
-373 -77 13 0
-373 -77 45 0
-373 77 -13 -45 0
-373 -78 14 0
-373 -78 46 0
-373 78 -14 -46 0
-373 -79 15 0
-373 -79 47 0
-373 79 -15 -47 0
-373 -80 16 0
-373 -80 48 0
-373 80 -16 -48 0
-373 -81 17 0
-373 -81 49 0
-373 81 -17 -49 0
-373 -82 18 0
-373 -82 50 0
-373 82 -18 -50 0
-373 -83 19 0
-373 -83 51 0
-373 83 -19 -51 0
-373 -84 20 0
-373 -84 52 0
-373 84 -20 -52 0
-373 -85 21 0
-373 -85 53 0
-373 85 -21 -53 0
-373 -86 22 0
-373 -86 54 0
-373 86 -22 -54 0
-373 -87 23 0
-373 -87 55 0
-373 87 -23 -55 0
-373 -88 24 0
-373 -88 56 0
-373 88 -24 -56 0
-373 -89 25 0
-373 -89 57 0
-373 89 -25 -57 0
-373 -90 26 0
-373 -90 58 0
-373 90 -26 -58 0
-373 -91 27 0
-373 -91 59 0
-373 91 -27 -59 0
-373 -92 28 0
-373 -92 60 0
-373 92 -28 -60 0
-373 -93 29 0
-373 -93 61 0
-373 93 -29 -61 0
-373 -94 30 0
-373 -94 62 0
-373 94 -30 -62 0
-373 -95 31 0
-373 -95 63 0
-373 95 -31 -63 0
-373 -96 32 0
-373 -96 64 0
-373 96 -32 -64 0
-374 -65 1 0
-374 -65 -33 0
-374 65 -1 33 0
-374 -66 2 0
-374 -66 -34 0
-374 66 -2 34 0
-374 -67 3 0
-374 -67 -35 0
-374 67 -3 35 0
-374 -68 4 0
-374 -68 -36 0
-374 68 -4 36 0
-374 -69 5 0
-374 -69 -37 0
-374 69 -5 37 0
-374 -70 6 0
-374 -70 -38 0
-374 70 -6 38 0
-374 -71 7 0
-374 -71 -39 0
-374 71 -7 39 0
-374 -72 8 0
-374 -72 -40 0
-374 72 -8 40 0
-374 -73 9 0
-374 -73 -41 0
-374 73 -9 41 0
-374 -74 10 0
-374 -74 -42 0
-374 74 -10 42 0
-374 -75 11 0
-374 -75 -43 0
-374 75 -11 43 0
-374 -76 12 0
-374 -76 -44 0
-374 76 -12 44 0
-374 -77 13 0
-374 -77 -45 0
-374 77 -13 45 0
-374 -78 14 0
-374 -78 -46 0
-374 78 -14 46 0
-374 -79 15 0
-374 -79 -47 0
-374 79 -15 47 0
-374 -80 16 0
-374 -80 -48 0
-374 80 -16 48 0
-374 -81 17 0
-374 -81 -49 0
-374 81 -17 49 0
-374 -82 18 0
-374 -82 -50 0
-374 82 -18 50 0
-374 -83 19 0
-374 -83 -51 0
-374 83 -19 51 0
-374 -84 20 0
-374 -84 -52 0
-374 84 -20 52 0
-374 -85 21 0
-374 -85 -53 0
-374 85 -21 53 0
-374 -86 22 0
-374 -86 -54 0
-374 86 -22 54 0
-374 -87 23 0
-374 -87 -55 0
-374 87 -23 55 0
-374 -88 24 0
-374 -88 -56 0
-374 88 -24 56 0
-374 -89 25 0
-374 -89 -57 0
-374 89 -25 57 0
-374 -90 26 0
-374 -90 -58 0
-374 90 -26 58 0
-374 -91 27 0
-374 -91 -59 0
-374 91 -27 59 0
-374 -92 28 0
-374 -92 -60 0
-374 92 -28 60 0
-374 -93 29 0
-374 -93 -61 0
-374 93 -29 61 0
-374 -94 30 0
-374 -94 -62 0
-374 94 -30 62 0
-374 -95 31 0
-374 -95 -63 0
-374 95 -31 63 0
-374 -96 32 0
-374 -96 -64 0
-374 96 -32 64 0
-375 -65 -1 0
-375 -65 33 0
-375 65 1 -33 0
-375 -66 -2 0
-375 -66 34 0
-375 66 2 -34 0
-375 -67 -3 0
-375 -67 35 0
-375 67 3 -35 0
-375 -68 -4 0
-375 -68 36 0
-375 68 4 -36 0
-375 -69 -5 0
-375 -69 37 0
-375 69 5 -37 0
-375 -70 -6 0
-375 -70 38 0
-375 70 6 -38 0
-375 -71 -7 0
-375 -71 39 0
-375 71 7 -39 0
-375 -72 -8 0
-375 -72 40 0
-375 72 8 -40 0
-375 -73 -9 0
-375 -73 41 0
-375 73 9 -41 0
-375 -74 -10 0
-375 -74 42 0
-375 74 10 -42 0
-375 -75 -11 0
-375 -75 43 0
-375 75 11 -43 0
-375 -76 -12 0
-375 -76 44 0
-375 76 12 -44 0
-375 -77 -13 0
-375 -77 45 0
-375 77 13 -45 0
-375 -78 -14 0
-375 -78 46 0
-375 78 14 -46 0
-375 -79 -15 0
-375 -79 47 0
-375 79 15 -47 0
-375 -80 -16 0
-375 -80 48 0
-375 80 16 -48 0
-375 -81 -17 0
-375 -81 49 0
-375 81 17 -49 0
-375 -82 -18 0
-375 -82 50 0
-375 82 18 -50 0
-375 -83 -19 0
-375 -83 51 0
-375 83 19 -51 0
-375 -84 -20 0
-375 -84 52 0
-375 84 20 -52 0
-375 -85 -21 0
-375 -85 53 0
-375 85 21 -53 0
-375 -86 -22 0
-375 -86 54 0
-375 86 22 -54 0
-375 -87 -23 0
-375 -87 55 0
-375 87 23 -55 0
-375 -88 -24 0
-375 -88 56 0
-375 88 24 -56 0
-375 -89 -25 0
-375 -89 57 0
-375 89 25 -57 0
-375 -90 -26 0
-375 -90 58 0
-375 90 26 -58 0
-375 -91 -27 0
-375 -91 59 0
-375 91 27 -59 0
-375 -92 -28 0
-375 -92 60 0
-375 92 28 -60 0
-375 -93 -29 0
-375 -93 61 0
-375 93 29 -61 0
-375 -94 -30 0
-375 -94 62 0
-375 94 30 -62 0
-375 -95 -31 0
-375 -95 63 0
-375 95 31 -63 0
-375 -96 -32 0
-375 -96 64 0
-375 96 32 -64 0
-376 -65 -1 0
-376 -65 -33 0
-376 65 1 33 0
-376 -66 -2 0
-376 -66 -34 0
-376 66 2 34 0
-376 -67 -3 0
-376 -67 -35 0
-376 67 3 35 0
-376 -68 -4 0
-376 -68 -36 0
-376 68 4 36 0
-376 -69 -5 0
-376 -69 -37 0
-376 69 5 37 0
-376 -70 -6 0
-376 -70 -38 0
-376 70 6 38 0
-376 -71 -7 0
-376 -71 -39 0
-376 71 7 39 0
-376 -72 -8 0
-376 -72 -40 0
-376 72 8 40 0
-376 -73 -9 0
-376 -73 -41 0
-376 73 9 41 0
-376 -74 -10 0
-376 -74 -42 0
-376 74 10 42 0
-376 -75 -11 0
-376 -75 -43 0
-376 75 11 43 0
-376 -76 -12 0
-376 -76 -44 0
-376 76 12 44 0
-376 -77 -13 0
-376 -77 -45 0
-376 77 13 45 0
-376 -78 -14 0
-376 -78 -46 0
-376 78 14 46 0
-376 -79 -15 0
-376 -79 -47 0
-376 79 15 47 0
-376 -80 -16 0
-376 -80 -48 0
-376 80 16 48 0
-376 -81 -17 0
-376 -81 -49 0
-376 81 17 49 0
-376 -82 -18 0
-376 -82 -50 0
-376 82 18 50 0
-376 -83 -19 0
-376 -83 -51 0
-376 83 19 51 0
-376 -84 -20 0
-376 -84 -52 0
-376 84 20 52 0
-376 -85 -21 0
-376 -85 -53 0
-376 85 21 53 0
-376 -86 -22 0
-376 -86 -54 0
-376 86 22 54 0
-376 -87 -23 0
-376 -87 -55 0
-376 87 23 55 0
-376 -88 -24 0
-376 -88 -56 0
-376 88 24 56 0
-376 -89 -25 0
-376 -89 -57 0
-376 89 25 57 0
-376 -90 -26 0
-376 -90 -58 0
-376 90 26 58 0
-376 -91 -27 0
-376 -91 -59 0
-376 91 27 59 0
-376 -92 -28 0
-376 -92 -60 0
-376 92 28 60 0
-376 -93 -29 0
-376 -93 -61 0
-376 93 29 61 0
-376 -94 -30 0
-376 -94 -62 0
-376 94 30 62 0
-376 -95 -31 0
-376 -95 -63 0
-376 95 31 63 0
-376 -96 -32 0
-376 -96 -64 0
-376 96 32 64 0
377 378 379 380 381 382 383 384 385 386 387 388 389 390 391 392 393 394 395 396 397 398 399 400 401 402 403 404 405 406 407 408 409 410 411 412 413 414 415 416 417 418 419 420 421 422 423 424 425 426 427 428 429 430 431 432 433 434 435 436 437 438 439 440 441 442 443 444 445 446 447 448 449 450 451 452 453 454 455 456 457 458 459 460 461 462 463 464 465 466 467 468 469 470 471 472 473 474 475 476 477 478 479 480 481 482 483 484 485 486 487 488 0
-377 -378 0
-377 -379 0
-377 -380 0
-377 -381 0
-377 -382 0
-377 -383 0
-377 -384 0
-377 -385 0
-377 -386 0
-377 -387 0
-377 -388 0
-377 -389 0
-377 -390 0
-377 -391 0
-377 -392 0
-377 -393 0
-377 -394 0
-377 -395 0
-377 -396 0
-377 -397 0
-377 -398 0
-377 -399 0
-377 -400 0
-377 -401 0
-377 -402 0
-377 -403 0
-377 -404 0
-377 -405 0
-377 -406 0
-377 -407 0
-377 -408 0
-377 -409 0
-377 -410 0
-377 -411 0
-377 -412 0
-377 -413 0
-377 -414 0
-377 -415 0
-377 -416 0
-377 -417 0
-377 -418 0
-377 -419 0
-377 -420 0
-377 -421 0
-377 -422 0
-377 -423 0
-377 -424 0
-377 -425 0
-377 -426 0
-377 -427 0
-377 -428 0
-377 -429 0
-377 -430 0
-377 -431 0
-377 -432 0
-377 -433 0
-377 -434 0
-377 -435 0
-377 -436 0
-377 -437 0
-377 -438 0
-377 -439 0
-377 -440 0
-377 -441 0
-377 -442 0
-377 -443 0
-377 -444 0
-377 -445 0
-377 -446 0
-377 -447 0
-377 -448 0
-377 -449 0
-377 -450 0
-377 -451 0
-377 -452 0
-377 -453 0
-377 -454 0
-377 -455 0
-377 -456 0
-377 -457 0
-377 -458 0
-377 -459 0
-377 -460 0
-377 -461 0
-377 -462 0
-377 -463 0
-377 -464 0
-377 -465 0
-377 -466 0
-377 -467 0
-377 -468 0
-377 -469 0
-377 -470 0
-377 -471 0
-377 -472 0
-377 -473 0
-377 -474 0
-377 -475 0
-377 -476 0
-377 -477 0
-377 -478 0
-377 -479 0
-377 -480 0
-377 -481 0
-377 -482 0
-377 -483 0
-377 -484 0
-377 -485 0
-377 -486 0
-377 -487 0
-377 -488 0
-378 -379 0
-378 -380 0
-378 -381 0
-378 -382 0
-378 -383 0
-378 -384 0
-378 -385 0
-378 -386 0
-378 -387 0
-378 -388 0
-378 -389 0
-378 -390 0
-378 -391 0
-378 -392 0
-378 -393 0
-378 -394 0
-378 -395 0
-378 -396 0
-378 -397 0
-378 -398 0
-378 -399 0
-378 -400 0
-378 -401 0
-378 -402 0
-378 -403 0
-378 -404 0
-378 -405 0
-378 -406 0
-378 -407 0
-378 -408 0
-378 -409 0
-378 -410 0
-378 -411 0
-378 -412 0
-378 -413 0
-378 -414 0
-378 -415 0
-378 -416 0
-378 -417 0
-378 -418 0
-378 -419 0
-378 -420 0
-378 -421 0
-378 -422 0
-378 -423 0
-378 -424 0
-378 -425 0
-378 -426 0
-378 -427 0
-378 -428 0
-378 -429 0
-378 -430 0
-378 -431 0
-378 -432 0
-378 -433 0
-378 -434 0
-378 -435 0
-378 -436 0
-378 -437 0
-378 -438 0
-378 -439 0
-378 -440 0
-378 -441 0
-378 -442 0
-378 -443 0
-378 -444 0
-378 -445 0
-378 -446 0
-378 -447 0
-378 -448 0
-378 -449 0
-378 -450 0
-378 -451 0
-378 -452 0
-378 -453 0
-378 -454 0
-378 -455 0
-378 -456 0
-378 -457 0
-378 -458 0
-378 -459 0
-378 -460 0
-378 -461 0
-378 -462 0
-378 -463 0
-378 -464 0
-378 -465 0
-378 -466 0
-378 -467 0
-378 -468 0
-378 -469 0
-378 -470 0
-378 -471 0
-378 -472 0
-378 -473 0
-378 -474 0
-378 -475 0
-378 -476 0
-378 -477 0
-378 -478 0
-378 -479 0
-378 -480 0
-378 -481 0
-378 -482 0
-378 -483 0
-378 -484 0
-378 -485 0
-378 -486 0
-378 -487 0
-378 -488 0
-379 -380 0
-379 -381 0
-379 -382 0
-379 -383 0
-379 -384 0
-379 -385 0
-379 -386 0
-379 -387 0
-379 -388 0
-379 -389 0
-379 -390 0
-379 -391 0
-379 -392 0
-379 -393 0
-379 -394 0
-379 -395 0
-379 -396 0
-379 -397 0
-379 -398 0
-379 -399 0
-379 -400 0
-379 -401 0
-379 -402 0
-379 -403 0
-379 -404 0
-379 -405 0
-379 -406 0
-379 -407 0
-379 -408 0
-379 -409 0
-379 -410 0
-379 -411 0
-379 -412 0
-379 -413 0
-379 -414 0
-379 -415 0
-379 -416 0
-379 -417 0
-379 -418 0
-379 -419 0
-379 -420 0
-379 -421 0
-379 -422 0
-379 -423 0
-379 -424 0
-379 -425 0
-379 -426 0
-379 -427 0
-379 -428 0
-379 -429 0
-379 -430 0
-379 -431 0
-379 -432 0
-379 -433 0
-379 -434 0
-379 -435 0
-379 -436 0
-379 -437 0
-379 -438 0
-379 -439 0
-379 -440 0
-379 -441 0
-379 -442 0
-379 -443 0
-379 -444 0
-379 -445 0
-379 -446 0
-379 -447 0
-379 -448 0
-379 -449 0
-379 -450 0
-379 -451 0
-379 -452 0
-379 -453 0
-379 -454 0
-379 -455 0
-379 -456 0
-379 -457 0
-379 -458 0
-379 -459 0
-379 -460 0
-379 -461 0
-379 -462 0
-379 -463 0
-379 -464 0
-379 -465 0
-379 -466 0
-379 -467 0
-379 -468 0
-379 -469 0
-379 -470 0
-379 -471 0
-379 -472 0
-379 -473 0
-379 -474 0
-379 -475 0
-379 -476 0
-379 -477 0
-379 -478 0
-379 -479 0
-379 -480 0
-379 -481 0
-379 -482 0
-379 -483 0
-379 -484 0
-379 -485 0
-379 -486 0
-379 -487 0
-379 -488 0
-380 -381 0
-380 -382 0
-380 -383 0
-380 -384 0
-380 -385 0
-380 -386 0
-380 -387 0
-380 -388 0
-380 -389 0
-380 -390 0
-380 -391 0
-380 -392 0
-380 -393 0
-380 -394 0
-380 -395 0
-380 -396 0
-380 -397 0
-380 -398 0
-380 -399 0
-380 -400 0
-380 -401 0
-380 -402 0
-380 -403 0
-380 -404 0
-380 -405 0
-380 -406 0
-380 -407 0
-380 -408 0
-380 -409 0
-380 -410 0
-380 -411 0
-380 -412 0
-380 -413 0
-380 -414 0
-380 -415 0
-380 -416 0
-380 -417 0
-380 -418 0
-380 -419 0
-380 -420 0
-380 -421 0
-380 -422 0
-380 -423 0
-380 -424 0
-380 -425 0
-380 -426 0
-380 -427 0
-380 -428 0
-380 -429 0
-380 -430 0
-380 -431 0
-380 -432 0
-380 -433 0
-380 -434 0
-380 -435 0
-380 -436 0
-380 -437 0
-380 -438 0
-380 -439 0
-380 -440 0
-380 -441 0
-380 -442 0
-380 -443 0
-380 -444 0
-380 -445 0
-380 -446 0
-380 -447 0
-380 -448 0
-380 -449 0
-380 -450 0
-380 -451 0
-380 -452 0
-380 -453 0
-380 -454 0
-380 -455 0
-380 -456 0
-380 -457 0
-380 -458 0
-380 -459 0
-380 -460 0
-380 -461 0
-380 -462 0
-380 -463 0
-380 -464 0
-380 -465 0
-380 -466 0
-380 -467 0
-380 -468 0
-380 -469 0
-380 -470 0
-380 -471 0
-380 -472 0
-380 -473 0
-380 -474 0
-380 -475 0
-380 -476 0
-380 -477 0
-380 -478 0
-380 -479 0
-380 -480 0
-380 -481 0
-380 -482 0
-380 -483 0
-380 -484 0
-380 -485 0
-380 -486 0
-380 -487 0
-380 -488 0
-381 -382 0
-381 -383 0
-381 -384 0
-381 -385 0
-381 -386 0
-381 -387 0
-381 -388 0
-381 -389 0
-381 -390 0
-381 -391 0
-381 -392 0
-381 -393 0
-381 -394 0
-381 -395 0
-381 -396 0
-381 -397 0
-381 -398 0
-381 -399 0
-381 -400 0
-381 -401 0
-381 -402 0
-381 -403 0
-381 -404 0
-381 -405 0
-381 -406 0
-381 -407 0
-381 -408 0
-381 -409 0
-381 -410 0
-381 -411 0
-381 -412 0
-381 -413 0
-381 -414 0
-381 -415 0
-381 -416 0
-381 -417 0
-381 -418 0
-381 -419 0
-381 -420 0
-381 -421 0
-381 -422 0
-381 -423 0
-381 -424 0
-381 -425 0
-381 -426 0
-381 -427 0
-381 -428 0
-381 -429 0
-381 -430 0
-381 -431 0
-381 -432 0
-381 -433 0
-381 -434 0
-381 -435 0
-381 -436 0
-381 -437 0
-381 -438 0
-381 -439 0
-381 -440 0
-381 -441 0
-381 -442 0
-381 -443 0
-381 -444 0
-381 -445 0
-381 -446 0
-381 -447 0
-381 -448 0
-381 -449 0
-381 -450 0
-381 -451 0
-381 -452 0
-381 -453 0
-381 -454 0
-381 -455 0
-381 -456 0
-381 -457 0
-381 -458 0
-381 -459 0
-381 -460 0
-381 -461 0
-381 -462 0
-381 -463 0
-381 -464 0
-381 -465 0
-381 -466 0
-381 -467 0
-381 -468 0
-381 -469 0
-381 -470 0
-381 -471 0
-381 -472 0
-381 -473 0
-381 -474 0
-381 -475 0
-381 -476 0
-381 -477 0
-381 -478 0
-381 -479 0
-381 -480 0
-381 -481 0
-381 -482 0
-381 -483 0
-381 -484 0
-381 -485 0
-381 -486 0
-381 -487 0
-381 -488 0
-382 -383 0
-382 -384 0
-382 -385 0
-382 -386 0
-382 -387 0
-382 -388 0
-382 -389 0
-382 -390 0
-382 -391 0
-382 -392 0
-382 -393 0
-382 -394 0
-382 -395 0
-382 -396 0
-382 -397 0
-382 -398 0
-382 -399 0
-382 -400 0
-382 -401 0
-382 -402 0
-382 -403 0
-382 -404 0
-382 -405 0
-382 -406 0
-382 -407 0
-382 -408 0
-382 -409 0
-382 -410 0
-382 -411 0
-382 -412 0
-382 -413 0
-382 -414 0
-382 -415 0
-382 -416 0
-382 -417 0
-382 -418 0
-382 -419 0
-382 -420 0
-382 -421 0
-382 -422 0
-382 -423 0
-382 -424 0
-382 -425 0
-382 -426 0
-382 -427 0
-382 -428 0
-382 -429 0
-382 -430 0
-382 -431 0
-382 -432 0
-382 -433 0
-382 -434 0
-382 -435 0
-382 -436 0
-382 -437 0
-382 -438 0
-382 -439 0
-382 -440 0
-382 -441 0
-382 -442 0
-382 -443 0
-382 -444 0
-382 -445 0
-382 -446 0
-382 -447 0
-382 -448 0
-382 -449 0
-382 -450 0
-382 -451 0
-382 -452 0
-382 -453 0
-382 -454 0
-382 -455 0
-382 -456 0
-382 -457 0
-382 -458 0
-382 -459 0
-382 -460 0
-382 -461 0
-382 -462 0
-382 -463 0
-382 -464 0
-382 -465 0
-382 -466 0
-382 -467 0
-382 -468 0
-382 -469 0
-382 -470 0
-382 -471 0
-382 -472 0
-382 -473 0
-382 -474 0
-382 -475 0
-382 -476 0
-382 -477 0
-382 -478 0
-382 -479 0
-382 -480 0
-382 -481 0
-382 -482 0
-382 -483 0
-382 -484 0
-382 -485 0
-382 -486 0
-382 -487 0
-382 -488 0
-383 -384 0
-383 -385 0
-383 -386 0
-383 -387 0
-383 -388 0
-383 -389 0
-383 -390 0
-383 -391 0
-383 -392 0
-383 -393 0
-383 -394 0
-383 -395 0
-383 -396 0
-383 -397 0
-383 -398 0
-383 -399 0
-383 -400 0
-383 -401 0
-383 -402 0
-383 -403 0
-383 -404 0
-383 -405 0
-383 -406 0
-383 -407 0
-383 -408 0
-383 -409 0
-383 -410 0
-383 -411 0
-383 -412 0
-383 -413 0
-383 -414 0
-383 -415 0
-383 -416 0
-383 -417 0
-383 -418 0
-383 -419 0
-383 -420 0
-383 -421 0
-383 -422 0
-383 -423 0
-383 -424 0
-383 -425 0
-383 -426 0
-383 -427 0
-383 -428 0
-383 -429 0
-383 -430 0
-383 -431 0
-383 -432 0
-383 -433 0
-383 -434 0
-383 -435 0
-383 -436 0
-383 -437 0
-383 -438 0
-383 -439 0
-383 -440 0
-383 -441 0
-383 -442 0
-383 -443 0
-383 -444 0
-383 -445 0
-383 -446 0
-383 -447 0
-383 -448 0
-383 -449 0
-383 -450 0
-383 -451 0
-383 -452 0
-383 -453 0
-383 -454 0
-383 -455 0
-383 -456 0
-383 -457 0
-383 -458 0
-383 -459 0
-383 -460 0
-383 -461 0
-383 -462 0
-383 -463 0
-383 -464 0
-383 -465 0
-383 -466 0
-383 -467 0
-383 -468 0
-383 -469 0
-383 -470 0
-383 -471 0
-383 -472 0
-383 -473 0
-383 -474 0
-383 -475 0
-383 -476 0
-383 -477 0
-383 -478 0
-383 -479 0
-383 -480 0
-383 -481 0
-383 -482 0
-383 -483 0
-383 -484 0
-383 -485 0
-383 -486 0
-383 -487 0
-383 -488 0
-384 -385 0
-384 -386 0
-384 -387 0
-384 -388 0
-384 -389 0
-384 -390 0
-384 -391 0
-384 -392 0
-384 -393 0
-384 -394 0
-384 -395 0
-384 -396 0
-384 -397 0
-384 -398 0
-384 -399 0
-384 -400 0
-384 -401 0
-384 -402 0
-384 -403 0
-384 -404 0
-384 -405 0
-384 -406 0
-384 -407 0
-384 -408 0
-384 -409 0
-384 -410 0
-384 -411 0
-384 -412 0
-384 -413 0
-384 -414 0
-384 -415 0
-384 -416 0
-384 -417 0
-384 -418 0
-384 -419 0
-384 -420 0
-384 -421 0
-384 -422 0
-384 -423 0
-384 -424 0
-384 -425 0
-384 -426 0
-384 -427 0
-384 -428 0
-384 -429 0
-384 -430 0
-384 -431 0
-384 -432 0
-384 -433 0
-384 -434 0
-384 -435 0
-384 -436 0
-384 -437 0
-384 -438 0
-384 -439 0
-384 -440 0
-384 -441 0
-384 -442 0
-384 -443 0
-384 -444 0
-384 -445 0
-384 -446 0
-384 -447 0
-384 -448 0
-384 -449 0
-384 -450 0
-384 -451 0
-384 -452 0
-384 -453 0
-384 -454 0
-384 -455 0
-384 -456 0
-384 -457 0
-384 -458 0
-384 -459 0
-384 -460 0
-384 -461 0
-384 -462 0
-384 -463 0
-384 -464 0
-384 -465 0
-384 -466 0
-384 -467 0
-384 -468 0
-384 -469 0
-384 -470 0
-384 -471 0
-384 -472 0
-384 -473 0
-384 -474 0
-384 -475 0
-384 -476 0
-384 -477 0
-384 -478 0
-384 -479 0
-384 -480 0
-384 -481 0
-384 -482 0
-384 -483 0
-384 -484 0
-384 -485 0
-384 -486 0
-384 -487 0
-384 -488 0
-385 -386 0
-385 -387 0
-385 -388 0
-385 -389 0
-385 -390 0
-385 -391 0
-385 -392 0
-385 -393 0
-385 -394 0
-385 -395 0
-385 -396 0
-385 -397 0
-385 -398 0
-385 -399 0
-385 -400 0
-385 -401 0
-385 -402 0
-385 -403 0
-385 -404 0
-385 -405 0
-385 -406 0
-385 -407 0
-385 -408 0
-385 -409 0
-385 -410 0
-385 -411 0
-385 -412 0
-385 -413 0
-385 -414 0
-385 -415 0
-385 -416 0
-385 -417 0
-385 -418 0
-385 -419 0
-385 -420 0
-385 -421 0
-385 -422 0
-385 -423 0
-385 -424 0
-385 -425 0
-385 -426 0
-385 -427 0
-385 -428 0
-385 -429 0
-385 -430 0
-385 -431 0
-385 -432 0
-385 -433 0
-385 -434 0
-385 -435 0
-385 -436 0
-385 -437 0
-385 -438 0
-385 -439 0
-385 -440 0
-385 -441 0
-385 -442 0
-385 -443 0
-385 -444 0
-385 -445 0
-385 -446 0
-385 -447 0
-385 -448 0
-385 -449 0
-385 -450 0
-385 -451 0
-385 -452 0
-385 -453 0
-385 -454 0
-385 -455 0
-385 -456 0
-385 -457 0
-385 -458 0
-385 -459 0
-385 -460 0
-385 -461 0
-385 -462 0
-385 -463 0
-385 -464 0
-385 -465 0
-385 -466 0
-385 -467 0
-385 -468 0
-385 -469 0
-385 -470 0
-385 -471 0
-385 -472 0
-385 -473 0
-385 -474 0
-385 -475 0
-385 -476 0
-385 -477 0
-385 -478 0
-385 -479 0
-385 -480 0
-385 -481 0
-385 -482 0
-385 -483 0
-385 -484 0
-385 -485 0
-385 -486 0
-385 -487 0
-385 -488 0
-386 -387 0
-386 -388 0
-386 -389 0
-386 -390 0
-386 -391 0
-386 -392 0
-386 -393 0
-386 -394 0
-386 -395 0
-386 -396 0
-386 -397 0
-386 -398 0
-386 -399 0
-386 -400 0
-386 -401 0
-386 -402 0
-386 -403 0
-386 -404 0
-386 -405 0
-386 -406 0
-386 -407 0
-386 -408 0
-386 -409 0
-386 -410 0
-386 -411 0
-386 -412 0
-386 -413 0
-386 -414 0
-386 -415 0
-386 -416 0
-386 -417 0
-386 -418 0
-386 -419 0
-386 -420 0
-386 -421 0
-386 -422 0
-386 -423 0
-386 -424 0
-386 -425 0
-386 -426 0
-386 -427 0
-386 -428 0
-386 -429 0
-386 -430 0
-386 -431 0
-386 -432 0
-386 -433 0
-386 -434 0
-386 -435 0
-386 -436 0
-386 -437 0
-386 -438 0
-386 -439 0
-386 -440 0
-386 -441 0
-386 -442 0
-386 -443 0
-386 -444 0
-386 -445 0
-386 -446 0
-386 -447 0
-386 -448 0
-386 -449 0
-386 -450 0
-386 -451 0
-386 -452 0
-386 -453 0
-386 -454 0
-386 -455 0
-386 -456 0
-386 -457 0
-386 -458 0
-386 -459 0
-386 -460 0
-386 -461 0
-386 -462 0
-386 -463 0
-386 -464 0
-386 -465 0
-386 -466 0
-386 -467 0
-386 -468 0
-386 -469 0
-386 -470 0
-386 -471 0
-386 -472 0
-386 -473 0
-386 -474 0
-386 -475 0
-386 -476 0
-386 -477 0
-386 -478 0
-386 -479 0
-386 -480 0
-386 -481 0
-386 -482 0
-386 -483 0
-386 -484 0
-386 -485 0
-386 -486 0
-386 -487 0
-386 -488 0
-387 -388 0
-387 -389 0
-387 -390 0
-387 -391 0
-387 -392 0
-387 -393 0
-387 -394 0
-387 -395 0
-387 -396 0
-387 -397 0
-387 -398 0
-387 -399 0
-387 -400 0
-387 -401 0
-387 -402 0
-387 -403 0
-387 -404 0
-387 -405 0
-387 -406 0
-387 -407 0
-387 -408 0
-387 -409 0
-387 -410 0
-387 -411 0
-387 -412 0
-387 -413 0
-387 -414 0
-387 -415 0
-387 -416 0
-387 -417 0
-387 -418 0
-387 -419 0
-387 -420 0
-387 -421 0
-387 -422 0
-387 -423 0
-387 -424 0
-387 -425 0
-387 -426 0
-387 -427 0
-387 -428 0
-387 -429 0
-387 -430 0
-387 -431 0
-387 -432 0
-387 -433 0
-387 -434 0
-387 -435 0
-387 -436 0
-387 -437 0
-387 -438 0
-387 -439 0
-387 -440 0
-387 -441 0
-387 -442 0
-387 -443 0
-387 -444 0
-387 -445 0
-387 -446 0
-387 -447 0
-387 -448 0
-387 -449 0
-387 -450 0
-387 -451 0
-387 -452 0
-387 -453 0
-387 -454 0
-387 -455 0
-387 -456 0
-387 -457 0
-387 -458 0
-387 -459 0
-387 -460 0
-387 -461 0
-387 -462 0
-387 -463 0
-387 -464 0
-387 -465 0
-387 -466 0
-387 -467 0
-387 -468 0
-387 -469 0
-387 -470 0
-387 -471 0
-387 -472 0
-387 -473 0
-387 -474 0
-387 -475 0
-387 -476 0
-387 -477 0
-387 -478 0
-387 -479 0
-387 -480 0
-387 -481 0
-387 -482 0
-387 -483 0
-387 -484 0
-387 -485 0
-387 -486 0
-387 -487 0
-387 -488 0
-388 -389 0
-388 -390 0
-388 -391 0
-388 -392 0
-388 -393 0
-388 -394 0
-388 -395 0
-388 -396 0
-388 -397 0
-388 -398 0
-388 -399 0
-388 -400 0
-388 -401 0
-388 -402 0
-388 -403 0
-388 -404 0
-388 -405 0
-388 -406 0
-388 -407 0
-388 -408 0
-388 -409 0
-388 -410 0
-388 -411 0
-388 -412 0
-388 -413 0
-388 -414 0
-388 -415 0
-388 -416 0
-388 -417 0
-388 -418 0
-388 -419 0
-388 -420 0
-388 -421 0
-388 -422 0
-388 -423 0
-388 -424 0
-388 -425 0
-388 -426 0
-388 -427 0
-388 -428 0
-388 -429 0
-388 -430 0
-388 -431 0
-388 -432 0
-388 -433 0
-388 -434 0
-388 -435 0
-388 -436 0
-388 -437 0
-388 -438 0
-388 -439 0
-388 -440 0
-388 -441 0
-388 -442 0
-388 -443 0
-388 -444 0
-388 -445 0
-388 -446 0
-388 -447 0
-388 -448 0
-388 -449 0
-388 -450 0
-388 -451 0
-388 -452 0
-388 -453 0
-388 -454 0
-388 -455 0
-388 -456 0
-388 -457 0
-388 -458 0
-388 -459 0
-388 -460 0
-388 -461 0
-388 -462 0
-388 -463 0
-388 -464 0
-388 -465 0
-388 -466 0
-388 -467 0
-388 -468 0
-388 -469 0
-388 -470 0
-388 -471 0
-388 -472 0
-388 -473 0
-388 -474 0
-388 -475 0
-388 -476 0
-388 -477 0
-388 -478 0
-388 -479 0
-388 -480 0
-388 -481 0
-388 -482 0
-388 -483 0
-388 -484 0
-388 -485 0
-388 -486 0
-388 -487 0
-388 -488 0
-389 -390 0
-389 -391 0
-389 -392 0
-389 -393 0
-389 -394 0
-389 -395 0
-389 -396 0
-389 -397 0
-389 -398 0
-389 -399 0
-389 -400 0
-389 -401 0
-389 -402 0
-389 -403 0
-389 -404 0
-389 -405 0
-389 -406 0
-389 -407 0
-389 -408 0
-389 -409 0
-389 -410 0
-389 -411 0
-389 -412 0
-389 -413 0
-389 -414 0
-389 -415 0
-389 -416 0
-389 -417 0
-389 -418 0
-389 -419 0
-389 -420 0
-389 -421 0
-389 -422 0
-389 -423 0
-389 -424 0
-389 -425 0
-389 -426 0
-389 -427 0
-389 -428 0
-389 -429 0
-389 -430 0
-389 -431 0
-389 -432 0
-389 -433 0
-389 -434 0
-389 -435 0
-389 -436 0
-389 -437 0
-389 -438 0
-389 -439 0
-389 -440 0
-389 -441 0
-389 -442 0
-389 -443 0
-389 -444 0
-389 -445 0
-389 -446 0
-389 -447 0
-389 -448 0
-389 -449 0
-389 -450 0
-389 -451 0
-389 -452 0
-389 -453 0
-389 -454 0
-389 -455 0
-389 -456 0
-389 -457 0
-389 -458 0
-389 -459 0
-389 -460 0
-389 -461 0
-389 -462 0
-389 -463 0
-389 -464 0
-389 -465 0
-389 -466 0
-389 -467 0
-389 -468 0
-389 -469 0
-389 -470 0
-389 -471 0
-389 -472 0
-389 -473 0
-389 -474 0
-389 -475 0
-389 -476 0
-389 -477 0
-389 -478 0
-389 -479 0
-389 -480 0
-389 -481 0
-389 -482 0
-389 -483 0
-389 -484 0
-389 -485 0
-389 -486 0
-389 -487 0
-389 -488 0
-390 -391 0
-390 -392 0
-390 -393 0
-390 -394 0
-390 -395 0
-390 -396 0
-390 -397 0
-390 -398 0
-390 -399 0
-390 -400 0
-390 -401 0
-390 -402 0
-390 -403 0
-390 -404 0
-390 -405 0
-390 -406 0
-390 -407 0
-390 -408 0
-390 -409 0
-390 -410 0
-390 -411 0
-390 -412 0
-390 -413 0
-390 -414 0
-390 -415 0
-390 -416 0
-390 -417 0
-390 -418 0
-390 -419 0
-390 -420 0
-390 -421 0
-390 -422 0
-390 -423 0
-390 -424 0
-390 -425 0
-390 -426 0
-390 -427 0
-390 -428 0
-390 -429 0
-390 -430 0
-390 -431 0
-390 -432 0
-390 -433 0
-390 -434 0
-390 -435 0
-390 -436 0
-390 -437 0
-390 -438 0
-390 -439 0
-390 -440 0
-390 -441 0
-390 -442 0
-390 -443 0
-390 -444 0
-390 -445 0
-390 -446 0
-390 -447 0
-390 -448 0
-390 -449 0
-390 -450 0
-390 -451 0
-390 -452 0
-390 -453 0
-390 -454 0
-390 -455 0
-390 -456 0
-390 -457 0
-390 -458 0
-390 -459 0
-390 -460 0
-390 -461 0
-390 -462 0
-390 -463 0
-390 -464 0
-390 -465 0
-390 -466 0
-390 -467 0
-390 -468 0
-390 -469 0
-390 -470 0
-390 -471 0
-390 -472 0
-390 -473 0
-390 -474 0
-390 -475 0
-390 -476 0
-390 -477 0
-390 -478 0
-390 -479 0
-390 -480 0
-390 -481 0
-390 -482 0
-390 -483 0
-390 -484 0
-390 -485 0
-390 -486 0
-390 -487 0
-390 -488 0
-391 -392 0
-391 -393 0
-391 -394 0
-391 -395 0
-391 -396 0
-391 -397 0
-391 -398 0
-391 -399 0
-391 -400 0
-391 -401 0
-391 -402 0
-391 -403 0
-391 -404 0
-391 -405 0
-391 -406 0
-391 -407 0
-391 -408 0
-391 -409 0
-391 -410 0
-391 -411 0
-391 -412 0
-391 -413 0
-391 -414 0
-391 -415 0
-391 -416 0
-391 -417 0
-391 -418 0
-391 -419 0
-391 -420 0
-391 -421 0
-391 -422 0
-391 -423 0
-391 -424 0
-391 -425 0
-391 -426 0
-391 -427 0
-391 -428 0
-391 -429 0
-391 -430 0
-391 -431 0
-391 -432 0
-391 -433 0
-391 -434 0
-391 -435 0
-391 -436 0
-391 -437 0
-391 -438 0
-391 -439 0
-391 -440 0
-391 -441 0
-391 -442 0
-391 -443 0
-391 -444 0
-391 -445 0
-391 -446 0
-391 -447 0
-391 -448 0
-391 -449 0
-391 -450 0
-391 -451 0
-391 -452 0
-391 -453 0
-391 -454 0
-391 -455 0
-391 -456 0
-391 -457 0
-391 -458 0
-391 -459 0
-391 -460 0
-391 -461 0
-391 -462 0
-391 -463 0
-391 -464 0
-391 -465 0
-391 -466 0
-391 -467 0
-391 -468 0
-391 -469 0
-391 -470 0
-391 -471 0
-391 -472 0
-391 -473 0
-391 -474 0
-391 -475 0
-391 -476 0
-391 -477 0
-391 -478 0
-391 -479 0
-391 -480 0
-391 -481 0
-391 -482 0
-391 -483 0
-391 -484 0
-391 -485 0
-391 -486 0
-391 -487 0
-391 -488 0
-392 -393 0
-392 -394 0
-392 -395 0
-392 -396 0
-392 -397 0
-392 -398 0
-392 -399 0
-392 -400 0
-392 -401 0
-392 -402 0
-392 -403 0
-392 -404 0
-392 -405 0
-392 -406 0
-392 -407 0
-392 -408 0
-392 -409 0
-392 -410 0
-392 -411 0
-392 -412 0
-392 -413 0
-392 -414 0
-392 -415 0
-392 -416 0
-392 -417 0
-392 -418 0
-392 -419 0
-392 -420 0
-392 -421 0
-392 -422 0
-392 -423 0
-392 -424 0
-392 -425 0
-392 -426 0
-392 -427 0
-392 -428 0
-392 -429 0
-392 -430 0
-392 -431 0
-392 -432 0
-392 -433 0
-392 -434 0
-392 -435 0
-392 -436 0
-392 -437 0
-392 -438 0
-392 -439 0
-392 -440 0
-392 -441 0
-392 -442 0
-392 -443 0
-392 -444 0
-392 -445 0
-392 -446 0
-392 -447 0
-392 -448 0
-392 -449 0
-392 -450 0
-392 -451 0
-392 -452 0
-392 -453 0
-392 -454 0
-392 -455 0
-392 -456 0
-392 -457 0
-392 -458 0
-392 -459 0
-392 -460 0
-392 -461 0
-392 -462 0
-392 -463 0
-392 -464 0
-392 -465 0
-392 -466 0
-392 -467 0
-392 -468 0
-392 -469 0
-392 -470 0
-392 -471 0
-392 -472 0
-392 -473 0
-392 -474 0
-392 -475 0
-392 -476 0
-392 -477 0
-392 -478 0
-392 -479 0
-392 -480 0
-392 -481 0
-392 -482 0
-392 -483 0
-392 -484 0
-392 -485 0
-392 -486 0
-392 -487 0
-392 -488 0
-393 -394 0
-393 -395 0
-393 -396 0
-393 -397 0
-393 -398 0
-393 -399 0
-393 -400 0
-393 -401 0
-393 -402 0
-393 -403 0
-393 -404 0
-393 -405 0
-393 -406 0
-393 -407 0
-393 -408 0
-393 -409 0
-393 -410 0
-393 -411 0
-393 -412 0
-393 -413 0
-393 -414 0
-393 -415 0
-393 -416 0
-393 -417 0
-393 -418 0
-393 -419 0
-393 -420 0
-393 -421 0
-393 -422 0
-393 -423 0
-393 -424 0
-393 -425 0
-393 -426 0
-393 -427 0
-393 -428 0
-393 -429 0
-393 -430 0
-393 -431 0
-393 -432 0
-393 -433 0
-393 -434 0
-393 -435 0
-393 -436 0
-393 -437 0
-393 -438 0
-393 -439 0
-393 -440 0
-393 -441 0
-393 -442 0
-393 -443 0
-393 -444 0
-393 -445 0
-393 -446 0
-393 -447 0
-393 -448 0
-393 -449 0
-393 -450 0
-393 -451 0
-393 -452 0
-393 -453 0
-393 -454 0
-393 -455 0
-393 -456 0
-393 -457 0
-393 -458 0
-393 -459 0
-393 -460 0
-393 -461 0
-393 -462 0
-393 -463 0
-393 -464 0
-393 -465 0
-393 -466 0
-393 -467 0
-393 -468 0
-393 -469 0
-393 -470 0
-393 -471 0
-393 -472 0
-393 -473 0
-393 -474 0
-393 -475 0
-393 -476 0
-393 -477 0
-393 -478 0
-393 -479 0
-393 -480 0
-393 -481 0
-393 -482 0
-393 -483 0
-393 -484 0
-393 -485 0
-393 -486 0
-393 -487 0
-393 -488 0
-394 -395 0
-394 -396 0
-394 -397 0
-394 -398 0
-394 -399 0
-394 -400 0
-394 -401 0
-394 -402 0
-394 -403 0
-394 -404 0
-394 -405 0
-394 -406 0
-394 -407 0
-394 -408 0
-394 -409 0
-394 -410 0
-394 -411 0
-394 -412 0
-394 -413 0
-394 -414 0
-394 -415 0
-394 -416 0
-394 -417 0
-394 -418 0
-394 -419 0
-394 -420 0
-394 -421 0
-394 -422 0
-394 -423 0
-394 -424 0
-394 -425 0
-394 -426 0
-394 -427 0
-394 -428 0
-394 -429 0
-394 -430 0
-394 -431 0
-394 -432 0
-394 -433 0
-394 -434 0
-394 -435 0
-394 -436 0
-394 -437 0
-394 -438 0
-394 -439 0
-394 -440 0
-394 -441 0
-394 -442 0
-394 -443 0
-394 -444 0
-394 -445 0
-394 -446 0
-394 -447 0
-394 -448 0
-394 -449 0
-394 -450 0
-394 -451 0
-394 -452 0
-394 -453 0
-394 -454 0
-394 -455 0
-394 -456 0
-394 -457 0
-394 -458 0
-394 -459 0
-394 -460 0
-394 -461 0
-394 -462 0
-394 -463 0
-394 -464 0
-394 -465 0
-394 -466 0
-394 -467 0
-394 -468 0
-394 -469 0
-394 -470 0
-394 -471 0
-394 -472 0
-394 -473 0
-394 -474 0
-394 -475 0
-394 -476 0
-394 -477 0
-394 -478 0
-394 -479 0
-394 -480 0
-394 -481 0
-394 -482 0
-394 -483 0
-394 -484 0
-394 -485 0
-394 -486 0
-394 -487 0
-394 -488 0
-395 -396 0
-395 -397 0
-395 -398 0
-395 -399 0
-395 -400 0
-395 -401 0
-395 -402 0
-395 -403 0
-395 -404 0
-395 -405 0
-395 -406 0
-395 -407 0
-395 -408 0
-395 -409 0
-395 -410 0
-395 -411 0
-395 -412 0
-395 -413 0
-395 -414 0
-395 -415 0
-395 -416 0
-395 -417 0
-395 -418 0
-395 -419 0
-395 -420 0
-395 -421 0
-395 -422 0
-395 -423 0
-395 -424 0
-395 -425 0
-395 -426 0
-395 -427 0
-395 -428 0
-395 -429 0
-395 -430 0
-395 -431 0
-395 -432 0
-395 -433 0
-395 -434 0
-395 -435 0
-395 -436 0
-395 -437 0
-395 -438 0
-395 -439 0
-395 -440 0
-395 -441 0
-395 -442 0
-395 -443 0
-395 -444 0
-395 -445 0
-395 -446 0
-395 -447 0
-395 -448 0
-395 -449 0
-395 -450 0
-395 -451 0
-395 -452 0
-395 -453 0
-395 -454 0
-395 -455 0
-395 -456 0
-395 -457 0
-395 -458 0
-395 -459 0
-395 -460 0
-395 -461 0
-395 -462 0
-395 -463 0
-395 -464 0
-395 -465 0
-395 -466 0
-395 -467 0
-395 -468 0
-395 -469 0
-395 -470 0
-395 -471 0
-395 -472 0
-395 -473 0
-395 -474 0
-395 -475 0
-395 -476 0
-395 -477 0
-395 -478 0
-395 -479 0
-395 -480 0
-395 -481 0
-395 -482 0
-395 -483 0
-395 -484 0
-395 -485 0
-395 -486 0
-395 -487 0
-395 -488 0
-396 -397 0
-396 -398 0
-396 -399 0
-396 -400 0
-396 -401 0
-396 -402 0
-396 -403 0
-396 -404 0
-396 -405 0
-396 -406 0
-396 -407 0
-396 -408 0
-396 -409 0
-396 -410 0
-396 -411 0
-396 -412 0
-396 -413 0
-396 -414 0
-396 -415 0
-396 -416 0
-396 -417 0
-396 -418 0
-396 -419 0
-396 -420 0
-396 -421 0
-396 -422 0
-396 -423 0
-396 -424 0
-396 -425 0
-396 -426 0
-396 -427 0
-396 -428 0
-396 -429 0
-396 -430 0
-396 -431 0
-396 -432 0
-396 -433 0
-396 -434 0
-396 -435 0
-396 -436 0
-396 -437 0
-396 -438 0
-396 -439 0
-396 -440 0
-396 -441 0
-396 -442 0
-396 -443 0
-396 -444 0
-396 -445 0
-396 -446 0
-396 -447 0
-396 -448 0
-396 -449 0
-396 -450 0
-396 -451 0
-396 -452 0
-396 -453 0
-396 -454 0
-396 -455 0
-396 -456 0
-396 -457 0
-396 -458 0
-396 -459 0
-396 -460 0
-396 -461 0
-396 -462 0
-396 -463 0
-396 -464 0
-396 -465 0
-396 -466 0
-396 -467 0
-396 -468 0
-396 -469 0
-396 -470 0
-396 -471 0
-396 -472 0
-396 -473 0
-396 -474 0
-396 -475 0
-396 -476 0
-396 -477 0
-396 -478 0
-396 -479 0
-396 -480 0
-396 -481 0
-396 -482 0
-396 -483 0
-396 -484 0
-396 -485 0
-396 -486 0
-396 -487 0
-396 -488 0
-397 -398 0
-397 -399 0
-397 -400 0
-397 -401 0
-397 -402 0
-397 -403 0
-397 -404 0
-397 -405 0
-397 -406 0
-397 -407 0
-397 -408 0
-397 -409 0
-397 -410 0
-397 -411 0
-397 -412 0
-397 -413 0
-397 -414 0
-397 -415 0
-397 -416 0
-397 -417 0
-397 -418 0
-397 -419 0
-397 -420 0
-397 -421 0
-397 -422 0
-397 -423 0
-397 -424 0
-397 -425 0
-397 -426 0
-397 -427 0
-397 -428 0
-397 -429 0
-397 -430 0
-397 -431 0
-397 -432 0
-397 -433 0
-397 -434 0
-397 -435 0
-397 -436 0
-397 -437 0
-397 -438 0
-397 -439 0
-397 -440 0
-397 -441 0
-397 -442 0
-397 -443 0
-397 -444 0
-397 -445 0
-397 -446 0
-397 -447 0
-397 -448 0
-397 -449 0
-397 -450 0
-397 -451 0
-397 -452 0
-397 -453 0
-397 -454 0
-397 -455 0
-397 -456 0
-397 -457 0
-397 -458 0
-397 -459 0
-397 -460 0
-397 -461 0
-397 -462 0
-397 -463 0
-397 -464 0
-397 -465 0
-397 -466 0
-397 -467 0
-397 -468 0
-397 -469 0
-397 -470 0
-397 -471 0
-397 -472 0
-397 -473 0
-397 -474 0
-397 -475 0
-397 -476 0
-397 -477 0
-397 -478 0
-397 -479 0
-397 -480 0
-397 -481 0
-397 -482 0
-397 -483 0
-397 -484 0
-397 -485 0
-397 -486 0
-397 -487 0
-397 -488 0
-398 -399 0
-398 -400 0
-398 -401 0
-398 -402 0
-398 -403 0
-398 -404 0
-398 -405 0
-398 -406 0
-398 -407 0
-398 -408 0
-398 -409 0
-398 -410 0
-398 -411 0
-398 -412 0
-398 -413 0
-398 -414 0
-398 -415 0
-398 -416 0
-398 -417 0
-398 -418 0
-398 -419 0
-398 -420 0
-398 -421 0
-398 -422 0
-398 -423 0
-398 -424 0
-398 -425 0
-398 -426 0
-398 -427 0
-398 -428 0
-398 -429 0
-398 -430 0
-398 -431 0
-398 -432 0
-398 -433 0
-398 -434 0
-398 -435 0
-398 -436 0
-398 -437 0
-398 -438 0
-398 -439 0
-398 -440 0
-398 -441 0
-398 -442 0
-398 -443 0
-398 -444 0
-398 -445 0
-398 -446 0
-398 -447 0
-398 -448 0
-398 -449 0
-398 -450 0
-398 -451 0
-398 -452 0
-398 -453 0
-398 -454 0
-398 -455 0
-398 -456 0
-398 -457 0
-398 -458 0
-398 -459 0
-398 -460 0
-398 -461 0
-398 -462 0
-398 -463 0
-398 -464 0
-398 -465 0
-398 -466 0
-398 -467 0
-398 -468 0
-398 -469 0
-398 -470 0
-398 -471 0
-398 -472 0
-398 -473 0
-398 -474 0
-398 -475 0
-398 -476 0
-398 -477 0
-398 -478 0
-398 -479 0
-398 -480 0
-398 -481 0
-398 -482 0
-398 -483 0
-398 -484 0
-398 -485 0
-398 -486 0
-398 -487 0
-398 -488 0
-399 -400 0
-399 -401 0
-399 -402 0
-399 -403 0
-399 -404 0
-399 -405 0
-399 -406 0
-399 -407 0
-399 -408 0
-399 -409 0
-399 -410 0
-399 -411 0
-399 -412 0
-399 -413 0
-399 -414 0
-399 -415 0
-399 -416 0
-399 -417 0
-399 -418 0
-399 -419 0
-399 -420 0
-399 -421 0
-399 -422 0
-399 -423 0
-399 -424 0
-399 -425 0
-399 -426 0
-399 -427 0
-399 -428 0
-399 -429 0
-399 -430 0
-399 -431 0
-399 -432 0
-399 -433 0
-399 -434 0
-399 -435 0
-399 -436 0
-399 -437 0
-399 -438 0
-399 -439 0
-399 -440 0
-399 -441 0
-399 -442 0
-399 -443 0
-399 -444 0
-399 -445 0
-399 -446 0
-399 -447 0
-399 -448 0
-399 -449 0
-399 -450 0
-399 -451 0
-399 -452 0
-399 -453 0
-399 -454 0
-399 -455 0
-399 -456 0
-399 -457 0
-399 -458 0
-399 -459 0
-399 -460 0
-399 -461 0
-399 -462 0
-399 -463 0
-399 -464 0
-399 -465 0
-399 -466 0
-399 -467 0
-399 -468 0
-399 -469 0
-399 -470 0
-399 -471 0
-399 -472 0
-399 -473 0
-399 -474 0
-399 -475 0
-399 -476 0
-399 -477 0
-399 -478 0
-399 -479 0
-399 -480 0
-399 -481 0
-399 -482 0
-399 -483 0
-399 -484 0
-399 -485 0
-399 -486 0
-399 -487 0
-399 -488 0
-400 -401 0
-400 -402 0
-400 -403 0
-400 -404 0
-400 -405 0
-400 -406 0
-400 -407 0
-400 -408 0
-400 -409 0
-400 -410 0
-400 -411 0
-400 -412 0
-400 -413 0
-400 -414 0
-400 -415 0
-400 -416 0
-400 -417 0
-400 -418 0
-400 -419 0
-400 -420 0
-400 -421 0
-400 -422 0
-400 -423 0
-400 -424 0
-400 -425 0
-400 -426 0
-400 -427 0
-400 -428 0
-400 -429 0
-400 -430 0
-400 -431 0
-400 -432 0
-400 -433 0
-400 -434 0
-400 -435 0
-400 -436 0
-400 -437 0
-400 -438 0
-400 -439 0
-400 -440 0
-400 -441 0
-400 -442 0
-400 -443 0
-400 -444 0
-400 -445 0
-400 -446 0
-400 -447 0
-400 -448 0
-400 -449 0
-400 -450 0
-400 -451 0
-400 -452 0
-400 -453 0
-400 -454 0
-400 -455 0
-400 -456 0
-400 -457 0
-400 -458 0
-400 -459 0
-400 -460 0
-400 -461 0
-400 -462 0
-400 -463 0
-400 -464 0
-400 -465 0
-400 -466 0
-400 -467 0
-400 -468 0
-400 -469 0
-400 -470 0
-400 -471 0
-400 -472 0
-400 -473 0
-400 -474 0
-400 -475 0
-400 -476 0
-400 -477 0
-400 -478 0
-400 -479 0
-400 -480 0
-400 -481 0
-400 -482 0
-400 -483 0
-400 -484 0
-400 -485 0
-400 -486 0
-400 -487 0
-400 -488 0
-401 -402 0
-401 -403 0
-401 -404 0
-401 -405 0
-401 -406 0
-401 -407 0
-401 -408 0
-401 -409 0
-401 -410 0
-401 -411 0
-401 -412 0
-401 -413 0
-401 -414 0
-401 -415 0
-401 -416 0
-401 -417 0
-401 -418 0
-401 -419 0
-401 -420 0
-401 -421 0
-401 -422 0
-401 -423 0
-401 -424 0
-401 -425 0
-401 -426 0
-401 -427 0
-401 -428 0
-401 -429 0
-401 -430 0
-401 -431 0
-401 -432 0
-401 -433 0
-401 -434 0
-401 -435 0
-401 -436 0
-401 -437 0
-401 -438 0
-401 -439 0
-401 -440 0
-401 -441 0
-401 -442 0
-401 -443 0
-401 -444 0
-401 -445 0
-401 -446 0
-401 -447 0
-401 -448 0
-401 -449 0
-401 -450 0
-401 -451 0
-401 -452 0
-401 -453 0
-401 -454 0
-401 -455 0
-401 -456 0
-401 -457 0
-401 -458 0
-401 -459 0
-401 -460 0
-401 -461 0
-401 -462 0
-401 -463 0
-401 -464 0
-401 -465 0
-401 -466 0
-401 -467 0
-401 -468 0
-401 -469 0
-401 -470 0
-401 -471 0
-401 -472 0
-401 -473 0
-401 -474 0
-401 -475 0
-401 -476 0
-401 -477 0
-401 -478 0
-401 -479 0
-401 -480 0
-401 -481 0
-401 -482 0
-401 -483 0
-401 -484 0
-401 -485 0
-401 -486 0
-401 -487 0
-401 -488 0
-402 -403 0
-402 -404 0
-402 -405 0
-402 -406 0
-402 -407 0
-402 -408 0
-402 -409 0
-402 -410 0
-402 -411 0
-402 -412 0
-402 -413 0
-402 -414 0
-402 -415 0
-402 -416 0
-402 -417 0
-402 -418 0
-402 -419 0
-402 -420 0
-402 -421 0
-402 -422 0
-402 -423 0
-402 -424 0
-402 -425 0
-402 -426 0
-402 -427 0
-402 -428 0
-402 -429 0
-402 -430 0
-402 -431 0
-402 -432 0
-402 -433 0
-402 -434 0
-402 -435 0
-402 -436 0
-402 -437 0
-402 -438 0
-402 -439 0
-402 -440 0
-402 -441 0
-402 -442 0
-402 -443 0
-402 -444 0
-402 -445 0
-402 -446 0
-402 -447 0
-402 -448 0
-402 -449 0
-402 -450 0
-402 -451 0
-402 -452 0
-402 -453 0
-402 -454 0
-402 -455 0
-402 -456 0
-402 -457 0
-402 -458 0
-402 -459 0
-402 -460 0
-402 -461 0
-402 -462 0
-402 -463 0
-402 -464 0
-402 -465 0
-402 -466 0
-402 -467 0
-402 -468 0
-402 -469 0
-402 -470 0
-402 -471 0
-402 -472 0
-402 -473 0
-402 -474 0
-402 -475 0
-402 -476 0
-402 -477 0
-402 -478 0
-402 -479 0
-402 -480 0
-402 -481 0
-402 -482 0
-402 -483 0
-402 -484 0
-402 -485 0
-402 -486 0
-402 -487 0
-402 -488 0
-403 -404 0
-403 -405 0
-403 -406 0
-403 -407 0
-403 -408 0
-403 -409 0
-403 -410 0
-403 -411 0
-403 -412 0
-403 -413 0
-403 -414 0
-403 -415 0
-403 -416 0
-403 -417 0
-403 -418 0
-403 -419 0
-403 -420 0
-403 -421 0
-403 -422 0
-403 -423 0
-403 -424 0
-403 -425 0
-403 -426 0
-403 -427 0
-403 -428 0
-403 -429 0
-403 -430 0
-403 -431 0
-403 -432 0
-403 -433 0
-403 -434 0
-403 -435 0
-403 -436 0
-403 -437 0
-403 -438 0
-403 -439 0
-403 -440 0
-403 -441 0
-403 -442 0
-403 -443 0
-403 -444 0
-403 -445 0
-403 -446 0
-403 -447 0
-403 -448 0
-403 -449 0
-403 -450 0
-403 -451 0
-403 -452 0
-403 -453 0
-403 -454 0
-403 -455 0
-403 -456 0
-403 -457 0
-403 -458 0
-403 -459 0
-403 -460 0
-403 -461 0
-403 -462 0
-403 -463 0
-403 -464 0
-403 -465 0
-403 -466 0
-403 -467 0
-403 -468 0
-403 -469 0
-403 -470 0
-403 -471 0
-403 -472 0
-403 -473 0
-403 -474 0
-403 -475 0
-403 -476 0
-403 -477 0
-403 -478 0
-403 -479 0
-403 -480 0
-403 -481 0
-403 -482 0
-403 -483 0
-403 -484 0
-403 -485 0
-403 -486 0
-403 -487 0
-403 -488 0
-404 -405 0
-404 -406 0
-404 -407 0
-404 -408 0
-404 -409 0
-404 -410 0
-404 -411 0
-404 -412 0
-404 -413 0
-404 -414 0
-404 -415 0
-404 -416 0
-404 -417 0
-404 -418 0
-404 -419 0
-404 -420 0
-404 -421 0
-404 -422 0
-404 -423 0
-404 -424 0
-404 -425 0
-404 -426 0
-404 -427 0
-404 -428 0
-404 -429 0
-404 -430 0
-404 -431 0
-404 -432 0
-404 -433 0
-404 -434 0
-404 -435 0
-404 -436 0
-404 -437 0
-404 -438 0
-404 -439 0
-404 -440 0
-404 -441 0
-404 -442 0
-404 -443 0
-404 -444 0
-404 -445 0
-404 -446 0
-404 -447 0
-404 -448 0
-404 -449 0
-404 -450 0
-404 -451 0
-404 -452 0
-404 -453 0
-404 -454 0
-404 -455 0
-404 -456 0
-404 -457 0
-404 -458 0
-404 -459 0
-404 -460 0
-404 -461 0
-404 -462 0
-404 -463 0
-404 -464 0
-404 -465 0
-404 -466 0
-404 -467 0
-404 -468 0
-404 -469 0
-404 -470 0
-404 -471 0
-404 -472 0
-404 -473 0
-404 -474 0
-404 -475 0
-404 -476 0
-404 -477 0
-404 -478 0
-404 -479 0
-404 -480 0
-404 -481 0
-404 -482 0
-404 -483 0
-404 -484 0
-404 -485 0
-404 -486 0
-404 -487 0
-404 -488 0
-405 -406 0
-405 -407 0
-405 -408 0
-405 -409 0
-405 -410 0
-405 -411 0
-405 -412 0
-405 -413 0
-405 -414 0
-405 -415 0
-405 -416 0
-405 -417 0
-405 -418 0
-405 -419 0
-405 -420 0
-405 -421 0
-405 -422 0
-405 -423 0
-405 -424 0
-405 -425 0
-405 -426 0
-405 -427 0
-405 -428 0
-405 -429 0
-405 -430 0
-405 -431 0
-405 -432 0
-405 -433 0
-405 -434 0
-405 -435 0
-405 -436 0
-405 -437 0
-405 -438 0
-405 -439 0
-405 -440 0
-405 -441 0
-405 -442 0
-405 -443 0
-405 -444 0
-405 -445 0
-405 -446 0
-405 -447 0
-405 -448 0
-405 -449 0
-405 -450 0
-405 -451 0
-405 -452 0
-405 -453 0
-405 -454 0
-405 -455 0
-405 -456 0
-405 -457 0
-405 -458 0
-405 -459 0
-405 -460 0
-405 -461 0
-405 -462 0
-405 -463 0
-405 -464 0
-405 -465 0
-405 -466 0
-405 -467 0
-405 -468 0
-405 -469 0
-405 -470 0
-405 -471 0
-405 -472 0
-405 -473 0
-405 -474 0
-405 -475 0
-405 -476 0
-405 -477 0
-405 -478 0
-405 -479 0
-405 -480 0
-405 -481 0
-405 -482 0
-405 -483 0
-405 -484 0
-405 -485 0
-405 -486 0
-405 -487 0
-405 -488 0
-406 -407 0
-406 -408 0
-406 -409 0
-406 -410 0
-406 -411 0
-406 -412 0
-406 -413 0
-406 -414 0
-406 -415 0
-406 -416 0
-406 -417 0
-406 -418 0
-406 -419 0
-406 -420 0
-406 -421 0
-406 -422 0
-406 -423 0
-406 -424 0
-406 -425 0
-406 -426 0
-406 -427 0
-406 -428 0
-406 -429 0
-406 -430 0
-406 -431 0
-406 -432 0
-406 -433 0
-406 -434 0
-406 -435 0
-406 -436 0
-406 -437 0
-406 -438 0
-406 -439 0
-406 -440 0
-406 -441 0
-406 -442 0
-406 -443 0
-406 -444 0
-406 -445 0
-406 -446 0
-406 -447 0
-406 -448 0
-406 -449 0
-406 -450 0
-406 -451 0
-406 -452 0
-406 -453 0
-406 -454 0
-406 -455 0
-406 -456 0
-406 -457 0
-406 -458 0
-406 -459 0
-406 -460 0
-406 -461 0
-406 -462 0
-406 -463 0
-406 -464 0
-406 -465 0
-406 -466 0
-406 -467 0
-406 -468 0
-406 -469 0
-406 -470 0
-406 -471 0
-406 -472 0
-406 -473 0
-406 -474 0
-406 -475 0
-406 -476 0
-406 -477 0
-406 -478 0
-406 -479 0
-406 -480 0
-406 -481 0
-406 -482 0
-406 -483 0
-406 -484 0
-406 -485 0
-406 -486 0
-406 -487 0
-406 -488 0
-407 -408 0
-407 -409 0
-407 -410 0
-407 -411 0
-407 -412 0
-407 -413 0
-407 -414 0
-407 -415 0
-407 -416 0
-407 -417 0
-407 -418 0
-407 -419 0
-407 -420 0
-407 -421 0
-407 -422 0
-407 -423 0
-407 -424 0
-407 -425 0
-407 -426 0
-407 -427 0
-407 -428 0
-407 -429 0
-407 -430 0
-407 -431 0
-407 -432 0
-407 -433 0
-407 -434 0
-407 -435 0
-407 -436 0
-407 -437 0
-407 -438 0
-407 -439 0
-407 -440 0
-407 -441 0
-407 -442 0
-407 -443 0
-407 -444 0
-407 -445 0
-407 -446 0
-407 -447 0
-407 -448 0
-407 -449 0
-407 -450 0
-407 -451 0
-407 -452 0
-407 -453 0
-407 -454 0
-407 -455 0
-407 -456 0
-407 -457 0
-407 -458 0
-407 -459 0
-407 -460 0
-407 -461 0
-407 -462 0
-407 -463 0
-407 -464 0
-407 -465 0
-407 -466 0
-407 -467 0
-407 -468 0
-407 -469 0
-407 -470 0
-407 -471 0
-407 -472 0
-407 -473 0
-407 -474 0
-407 -475 0
-407 -476 0
-407 -477 0
-407 -478 0
-407 -479 0
-407 -480 0
-407 -481 0
-407 -482 0
-407 -483 0
-407 -484 0
-407 -485 0
-407 -486 0
-407 -487 0
-407 -488 0
-408 -409 0
-408 -410 0
-408 -411 0
-408 -412 0
-408 -413 0
-408 -414 0
-408 -415 0
-408 -416 0
-408 -417 0
-408 -418 0
-408 -419 0
-408 -420 0
-408 -421 0
-408 -422 0
-408 -423 0
-408 -424 0
-408 -425 0
-408 -426 0
-408 -427 0
-408 -428 0
-408 -429 0
-408 -430 0
-408 -431 0
-408 -432 0
-408 -433 0
-408 -434 0
-408 -435 0
-408 -436 0
-408 -437 0
-408 -438 0
-408 -439 0
-408 -440 0
-408 -441 0
-408 -442 0
-408 -443 0
-408 -444 0
-408 -445 0
-408 -446 0
-408 -447 0
-408 -448 0
-408 -449 0
-408 -450 0
-408 -451 0
-408 -452 0
-408 -453 0
-408 -454 0
-408 -455 0
-408 -456 0
-408 -457 0
-408 -458 0
-408 -459 0
-408 -460 0
-408 -461 0
-408 -462 0
-408 -463 0
-408 -464 0
-408 -465 0
-408 -466 0
-408 -467 0
-408 -468 0
-408 -469 0
-408 -470 0
-408 -471 0
-408 -472 0
-408 -473 0
-408 -474 0
-408 -475 0
-408 -476 0
-408 -477 0
-408 -478 0
-408 -479 0
-408 -480 0
-408 -481 0
-408 -482 0
-408 -483 0
-408 -484 0
-408 -485 0
-408 -486 0
-408 -487 0
-408 -488 0
-409 -410 0
-409 -411 0
-409 -412 0
-409 -413 0
-409 -414 0
-409 -415 0
-409 -416 0
-409 -417 0
-409 -418 0
-409 -419 0
-409 -420 0
-409 -421 0
-409 -422 0
-409 -423 0
-409 -424 0
-409 -425 0
-409 -426 0
-409 -427 0
-409 -428 0
-409 -429 0
-409 -430 0
-409 -431 0
-409 -432 0
-409 -433 0
-409 -434 0
-409 -435 0
-409 -436 0
-409 -437 0
-409 -438 0
-409 -439 0
-409 -440 0
-409 -441 0
-409 -442 0
-409 -443 0
-409 -444 0
-409 -445 0
-409 -446 0
-409 -447 0
-409 -448 0
-409 -449 0
-409 -450 0
-409 -451 0
-409 -452 0
-409 -453 0
-409 -454 0
-409 -455 0
-409 -456 0
-409 -457 0
-409 -458 0
-409 -459 0
-409 -460 0
-409 -461 0
-409 -462 0
-409 -463 0
-409 -464 0
-409 -465 0
-409 -466 0
-409 -467 0
-409 -468 0
-409 -469 0
-409 -470 0
-409 -471 0
-409 -472 0
-409 -473 0
-409 -474 0
-409 -475 0
-409 -476 0
-409 -477 0
-409 -478 0
-409 -479 0
-409 -480 0
-409 -481 0
-409 -482 0
-409 -483 0
-409 -484 0
-409 -485 0
-409 -486 0
-409 -487 0
-409 -488 0
-410 -411 0
-410 -412 0
-410 -413 0
-410 -414 0
-410 -415 0
-410 -416 0
-410 -417 0
-410 -418 0
-410 -419 0
-410 -420 0
-410 -421 0
-410 -422 0
-410 -423 0
-410 -424 0
-410 -425 0
-410 -426 0
-410 -427 0
-410 -428 0
-410 -429 0
-410 -430 0
-410 -431 0
-410 -432 0
-410 -433 0
-410 -434 0
-410 -435 0
-410 -436 0
-410 -437 0
-410 -438 0
-410 -439 0
-410 -440 0
-410 -441 0
-410 -442 0
-410 -443 0
-410 -444 0
-410 -445 0
-410 -446 0
-410 -447 0
-410 -448 0
-410 -449 0
-410 -450 0
-410 -451 0
-410 -452 0
-410 -453 0
-410 -454 0
-410 -455 0
-410 -456 0
-410 -457 0
-410 -458 0
-410 -459 0
-410 -460 0
-410 -461 0
-410 -462 0
-410 -463 0
-410 -464 0
-410 -465 0
-410 -466 0
-410 -467 0
-410 -468 0
-410 -469 0
-410 -470 0
-410 -471 0
-410 -472 0
-410 -473 0
-410 -474 0
-410 -475 0
-410 -476 0
-410 -477 0
-410 -478 0
-410 -479 0
-410 -480 0
-410 -481 0
-410 -482 0
-410 -483 0
-410 -484 0
-410 -485 0
-410 -486 0
-410 -487 0
-410 -488 0
-411 -412 0
-411 -413 0
-411 -414 0
-411 -415 0
-411 -416 0
-411 -417 0
-411 -418 0
-411 -419 0
-411 -420 0
-411 -421 0
-411 -422 0
-411 -423 0
-411 -424 0
-411 -425 0
-411 -426 0
-411 -427 0
-411 -428 0
-411 -429 0
-411 -430 0
-411 -431 0
-411 -432 0
-411 -433 0
-411 -434 0
-411 -435 0
-411 -436 0
-411 -437 0
-411 -438 0
-411 -439 0
-411 -440 0
-411 -441 0
-411 -442 0
-411 -443 0
-411 -444 0
-411 -445 0
-411 -446 0
-411 -447 0
-411 -448 0
-411 -449 0
-411 -450 0
-411 -451 0
-411 -452 0
-411 -453 0
-411 -454 0
-411 -455 0
-411 -456 0
-411 -457 0
-411 -458 0
-411 -459 0
-411 -460 0
-411 -461 0
-411 -462 0
-411 -463 0
-411 -464 0
-411 -465 0
-411 -466 0
-411 -467 0
-411 -468 0
-411 -469 0
-411 -470 0
-411 -471 0
-411 -472 0
-411 -473 0
-411 -474 0
-411 -475 0
-411 -476 0
-411 -477 0
-411 -478 0
-411 -479 0
-411 -480 0
-411 -481 0
-411 -482 0
-411 -483 0
-411 -484 0
-411 -485 0
-411 -486 0
-411 -487 0
-411 -488 0
-412 -413 0
-412 -414 0
-412 -415 0
-412 -416 0
-412 -417 0
-412 -418 0
-412 -419 0
-412 -420 0
-412 -421 0
-412 -422 0
-412 -423 0
-412 -424 0
-412 -425 0
-412 -426 0
-412 -427 0
-412 -428 0
-412 -429 0
-412 -430 0
-412 -431 0
-412 -432 0
-412 -433 0
-412 -434 0
-412 -435 0
-412 -436 0
-412 -437 0
-412 -438 0
-412 -439 0
-412 -440 0
-412 -441 0
-412 -442 0
-412 -443 0
-412 -444 0
-412 -445 0
-412 -446 0
-412 -447 0
-412 -448 0
-412 -449 0
-412 -450 0
-412 -451 0
-412 -452 0
-412 -453 0
-412 -454 0
-412 -455 0
-412 -456 0
-412 -457 0
-412 -458 0
-412 -459 0
-412 -460 0
-412 -461 0
-412 -462 0
-412 -463 0
-412 -464 0
-412 -465 0
-412 -466 0
-412 -467 0
-412 -468 0
-412 -469 0
-412 -470 0
-412 -471 0
-412 -472 0
-412 -473 0
-412 -474 0
-412 -475 0
-412 -476 0
-412 -477 0
-412 -478 0
-412 -479 0
-412 -480 0
-412 -481 0
-412 -482 0
-412 -483 0
-412 -484 0
-412 -485 0
-412 -486 0
-412 -487 0
-412 -488 0
-413 -414 0
-413 -415 0
-413 -416 0
-413 -417 0
-413 -418 0
-413 -419 0
-413 -420 0
-413 -421 0
-413 -422 0
-413 -423 0
-413 -424 0
-413 -425 0
-413 -426 0
-413 -427 0
-413 -428 0
-413 -429 0
-413 -430 0
-413 -431 0
-413 -432 0
-413 -433 0
-413 -434 0
-413 -435 0
-413 -436 0
-413 -437 0
-413 -438 0
-413 -439 0
-413 -440 0
-413 -441 0
-413 -442 0
-413 -443 0
-413 -444 0
-413 -445 0
-413 -446 0
-413 -447 0
-413 -448 0
-413 -449 0
-413 -450 0
-413 -451 0
-413 -452 0
-413 -453 0
-413 -454 0
-413 -455 0
-413 -456 0
-413 -457 0
-413 -458 0
-413 -459 0
-413 -460 0
-413 -461 0
-413 -462 0
-413 -463 0
-413 -464 0
-413 -465 0
-413 -466 0
-413 -467 0
-413 -468 0
-413 -469 0
-413 -470 0
-413 -471 0
-413 -472 0
-413 -473 0
-413 -474 0
-413 -475 0
-413 -476 0
-413 -477 0
-413 -478 0
-413 -479 0
-413 -480 0
-413 -481 0
-413 -482 0
-413 -483 0
-413 -484 0
-413 -485 0
-413 -486 0
-413 -487 0
-413 -488 0
-414 -415 0
-414 -416 0
-414 -417 0
-414 -418 0
-414 -419 0
-414 -420 0
-414 -421 0
-414 -422 0
-414 -423 0
-414 -424 0
-414 -425 0
-414 -426 0
-414 -427 0
-414 -428 0
-414 -429 0
-414 -430 0
-414 -431 0
-414 -432 0
-414 -433 0
-414 -434 0
-414 -435 0
-414 -436 0
-414 -437 0
-414 -438 0
-414 -439 0
-414 -440 0
-414 -441 0
-414 -442 0
-414 -443 0
-414 -444 0
-414 -445 0
-414 -446 0
-414 -447 0
-414 -448 0
-414 -449 0
-414 -450 0
-414 -451 0
-414 -452 0
-414 -453 0
-414 -454 0
-414 -455 0
-414 -456 0
-414 -457 0
-414 -458 0
-414 -459 0
-414 -460 0
-414 -461 0
-414 -462 0
-414 -463 0
-414 -464 0
-414 -465 0
-414 -466 0
-414 -467 0
-414 -468 0
-414 -469 0
-414 -470 0
-414 -471 0
-414 -472 0
-414 -473 0
-414 -474 0
-414 -475 0
-414 -476 0
-414 -477 0
-414 -478 0
-414 -479 0
-414 -480 0
-414 -481 0
-414 -482 0
-414 -483 0
-414 -484 0
-414 -485 0
-414 -486 0
-414 -487 0
-414 -488 0
-415 -416 0
-415 -417 0
-415 -418 0
-415 -419 0
-415 -420 0
-415 -421 0
-415 -422 0
-415 -423 0
-415 -424 0
-415 -425 0
-415 -426 0
-415 -427 0
-415 -428 0
-415 -429 0
-415 -430 0
-415 -431 0
-415 -432 0
-415 -433 0
-415 -434 0
-415 -435 0
-415 -436 0
-415 -437 0
-415 -438 0
-415 -439 0
-415 -440 0
-415 -441 0
-415 -442 0
-415 -443 0
-415 -444 0
-415 -445 0
-415 -446 0
-415 -447 0
-415 -448 0
-415 -449 0
-415 -450 0
-415 -451 0
-415 -452 0
-415 -453 0
-415 -454 0
-415 -455 0
-415 -456 0
-415 -457 0
-415 -458 0
-415 -459 0
-415 -460 0
-415 -461 0
-415 -462 0
-415 -463 0
-415 -464 0
-415 -465 0
-415 -466 0
-415 -467 0
-415 -468 0
-415 -469 0
-415 -470 0
-415 -471 0
-415 -472 0
-415 -473 0
-415 -474 0
-415 -475 0
-415 -476 0
-415 -477 0
-415 -478 0
-415 -479 0
-415 -480 0
-415 -481 0
-415 -482 0
-415 -483 0
-415 -484 0
-415 -485 0
-415 -486 0
-415 -487 0
-415 -488 0
-416 -417 0
-416 -418 0
-416 -419 0
-416 -420 0
-416 -421 0
-416 -422 0
-416 -423 0
-416 -424 0
-416 -425 0
-416 -426 0
-416 -427 0
-416 -428 0
-416 -429 0
-416 -430 0
-416 -431 0
-416 -432 0
-416 -433 0
-416 -434 0
-416 -435 0
-416 -436 0
-416 -437 0
-416 -438 0
-416 -439 0
-416 -440 0
-416 -441 0
-416 -442 0
-416 -443 0
-416 -444 0
-416 -445 0
-416 -446 0
-416 -447 0
-416 -448 0
-416 -449 0
-416 -450 0
-416 -451 0
-416 -452 0
-416 -453 0
-416 -454 0
-416 -455 0
-416 -456 0
-416 -457 0
-416 -458 0
-416 -459 0
-416 -460 0
-416 -461 0
-416 -462 0
-416 -463 0
-416 -464 0
-416 -465 0
-416 -466 0
-416 -467 0
-416 -468 0
-416 -469 0
-416 -470 0
-416 -471 0
-416 -472 0
-416 -473 0
-416 -474 0
-416 -475 0
-416 -476 0
-416 -477 0
-416 -478 0
-416 -479 0
-416 -480 0
-416 -481 0
-416 -482 0
-416 -483 0
-416 -484 0
-416 -485 0
-416 -486 0
-416 -487 0
-416 -488 0
-417 -418 0
-417 -419 0
-417 -420 0
-417 -421 0
-417 -422 0
-417 -423 0
-417 -424 0
-417 -425 0
-417 -426 0
-417 -427 0
-417 -428 0
-417 -429 0
-417 -430 0
-417 -431 0
-417 -432 0
-417 -433 0
-417 -434 0
-417 -435 0
-417 -436 0
-417 -437 0
-417 -438 0
-417 -439 0
-417 -440 0
-417 -441 0
-417 -442 0
-417 -443 0
-417 -444 0
-417 -445 0
-417 -446 0
-417 -447 0
-417 -448 0
-417 -449 0
-417 -450 0
-417 -451 0
-417 -452 0
-417 -453 0
-417 -454 0
-417 -455 0
-417 -456 0
-417 -457 0
-417 -458 0
-417 -459 0
-417 -460 0
-417 -461 0
-417 -462 0
-417 -463 0
-417 -464 0
-417 -465 0
-417 -466 0
-417 -467 0
-417 -468 0
-417 -469 0
-417 -470 0
-417 -471 0
-417 -472 0
-417 -473 0
-417 -474 0
-417 -475 0
-417 -476 0
-417 -477 0
-417 -478 0
-417 -479 0
-417 -480 0
-417 -481 0
-417 -482 0
-417 -483 0
-417 -484 0
-417 -485 0
-417 -486 0
-417 -487 0
-417 -488 0
-418 -419 0
-418 -420 0
-418 -421 0
-418 -422 0
-418 -423 0
-418 -424 0
-418 -425 0
-418 -426 0
-418 -427 0
-418 -428 0
-418 -429 0
-418 -430 0
-418 -431 0
-418 -432 0
-418 -433 0
-418 -434 0
-418 -435 0
-418 -436 0
-418 -437 0
-418 -438 0
-418 -439 0
-418 -440 0
-418 -441 0
-418 -442 0
-418 -443 0
-418 -444 0
-418 -445 0
-418 -446 0
-418 -447 0
-418 -448 0
-418 -449 0
-418 -450 0
-418 -451 0
-418 -452 0
-418 -453 0
-418 -454 0
-418 -455 0
-418 -456 0
-418 -457 0
-418 -458 0
-418 -459 0
-418 -460 0
-418 -461 0
-418 -462 0
-418 -463 0
-418 -464 0
-418 -465 0
-418 -466 0
-418 -467 0
-418 -468 0
-418 -469 0
-418 -470 0
-418 -471 0
-418 -472 0
-418 -473 0
-418 -474 0
-418 -475 0
-418 -476 0
-418 -477 0
-418 -478 0
-418 -479 0
-418 -480 0
-418 -481 0
-418 -482 0
-418 -483 0
-418 -484 0
-418 -485 0
-418 -486 0
-418 -487 0
-418 -488 0
-419 -420 0
-419 -421 0
-419 -422 0
-419 -423 0
-419 -424 0
-419 -425 0
-419 -426 0
-419 -427 0
-419 -428 0
-419 -429 0
-419 -430 0
-419 -431 0
-419 -432 0
-419 -433 0
-419 -434 0
-419 -435 0
-419 -436 0
-419 -437 0
-419 -438 0
-419 -439 0
-419 -440 0
-419 -441 0
-419 -442 0
-419 -443 0
-419 -444 0
-419 -445 0
-419 -446 0
-419 -447 0
-419 -448 0
-419 -449 0
-419 -450 0
-419 -451 0
-419 -452 0
-419 -453 0
-419 -454 0
-419 -455 0
-419 -456 0
-419 -457 0
-419 -458 0
-419 -459 0
-419 -460 0
-419 -461 0
-419 -462 0
-419 -463 0
-419 -464 0
-419 -465 0
-419 -466 0
-419 -467 0
-419 -468 0
-419 -469 0
-419 -470 0
-419 -471 0
-419 -472 0
-419 -473 0
-419 -474 0
-419 -475 0
-419 -476 0
-419 -477 0
-419 -478 0
-419 -479 0
-419 -480 0
-419 -481 0
-419 -482 0
-419 -483 0
-419 -484 0
-419 -485 0
-419 -486 0
-419 -487 0
-419 -488 0
-420 -421 0
-420 -422 0
-420 -423 0
-420 -424 0
-420 -425 0
-420 -426 0
-420 -427 0
-420 -428 0
-420 -429 0
-420 -430 0
-420 -431 0
-420 -432 0
-420 -433 0
-420 -434 0
-420 -435 0
-420 -436 0
-420 -437 0
-420 -438 0
-420 -439 0
-420 -440 0
-420 -441 0
-420 -442 0
-420 -443 0
-420 -444 0
-420 -445 0
-420 -446 0
-420 -447 0
-420 -448 0
-420 -449 0
-420 -450 0
-420 -451 0
-420 -452 0
-420 -453 0
-420 -454 0
-420 -455 0
-420 -456 0
-420 -457 0
-420 -458 0
-420 -459 0
-420 -460 0
-420 -461 0
-420 -462 0
-420 -463 0
-420 -464 0
-420 -465 0
-420 -466 0
-420 -467 0
-420 -468 0
-420 -469 0
-420 -470 0
-420 -471 0
-420 -472 0
-420 -473 0
-420 -474 0
-420 -475 0
-420 -476 0
-420 -477 0
-420 -478 0
-420 -479 0
-420 -480 0
-420 -481 0
-420 -482 0
-420 -483 0
-420 -484 0
-420 -485 0
-420 -486 0
-420 -487 0
-420 -488 0
-421 -422 0
-421 -423 0
-421 -424 0
-421 -425 0
-421 -426 0
-421 -427 0
-421 -428 0
-421 -429 0
-421 -430 0
-421 -431 0
-421 -432 0
-421 -433 0
-421 -434 0
-421 -435 0
-421 -436 0
-421 -437 0
-421 -438 0
-421 -439 0
-421 -440 0
-421 -441 0
-421 -442 0
-421 -443 0
-421 -444 0
-421 -445 0
-421 -446 0
-421 -447 0
-421 -448 0
-421 -449 0
-421 -450 0
-421 -451 0
-421 -452 0
-421 -453 0
-421 -454 0
-421 -455 0
-421 -456 0
-421 -457 0
-421 -458 0
-421 -459 0
-421 -460 0
-421 -461 0
-421 -462 0
-421 -463 0
-421 -464 0
-421 -465 0
-421 -466 0
-421 -467 0
-421 -468 0
-421 -469 0
-421 -470 0
-421 -471 0
-421 -472 0
-421 -473 0
-421 -474 0
-421 -475 0
-421 -476 0
-421 -477 0
-421 -478 0
-421 -479 0
-421 -480 0
-421 -481 0
-421 -482 0
-421 -483 0
-421 -484 0
-421 -485 0
-421 -486 0
-421 -487 0
-421 -488 0
-422 -423 0
-422 -424 0
-422 -425 0
-422 -426 0
-422 -427 0
-422 -428 0
-422 -429 0
-422 -430 0
-422 -431 0
-422 -432 0
-422 -433 0
-422 -434 0
-422 -435 0
-422 -436 0
-422 -437 0
-422 -438 0
-422 -439 0
-422 -440 0
-422 -441 0
-422 -442 0
-422 -443 0
-422 -444 0
-422 -445 0
-422 -446 0
-422 -447 0
-422 -448 0
-422 -449 0
-422 -450 0
-422 -451 0
-422 -452 0
-422 -453 0
-422 -454 0
-422 -455 0
-422 -456 0
-422 -457 0
-422 -458 0
-422 -459 0
-422 -460 0
-422 -461 0
-422 -462 0
-422 -463 0
-422 -464 0
-422 -465 0
-422 -466 0
-422 -467 0
-422 -468 0
-422 -469 0
-422 -470 0
-422 -471 0
-422 -472 0
-422 -473 0
-422 -474 0
-422 -475 0
-422 -476 0
-422 -477 0
-422 -478 0
-422 -479 0
-422 -480 0
-422 -481 0
-422 -482 0
-422 -483 0
-422 -484 0
-422 -485 0
-422 -486 0
-422 -487 0
-422 -488 0
-423 -424 0
-423 -425 0
-423 -426 0
-423 -427 0
-423 -428 0
-423 -429 0
-423 -430 0
-423 -431 0
-423 -432 0
-423 -433 0
-423 -434 0
-423 -435 0
-423 -436 0
-423 -437 0
-423 -438 0
-423 -439 0
-423 -440 0
-423 -441 0
-423 -442 0
-423 -443 0
-423 -444 0
-423 -445 0
-423 -446 0
-423 -447 0
-423 -448 0
-423 -449 0
-423 -450 0
-423 -451 0
-423 -452 0
-423 -453 0
-423 -454 0
-423 -455 0
-423 -456 0
-423 -457 0
-423 -458 0
-423 -459 0
-423 -460 0
-423 -461 0
-423 -462 0
-423 -463 0
-423 -464 0
-423 -465 0
-423 -466 0
-423 -467 0
-423 -468 0
-423 -469 0
-423 -470 0
-423 -471 0
-423 -472 0
-423 -473 0
-423 -474 0
-423 -475 0
-423 -476 0
-423 -477 0
-423 -478 0
-423 -479 0
-423 -480 0
-423 -481 0
-423 -482 0
-423 -483 0
-423 -484 0
-423 -485 0
-423 -486 0
-423 -487 0
-423 -488 0
-424 -425 0
-424 -426 0
-424 -427 0
-424 -428 0
-424 -429 0
-424 -430 0
-424 -431 0
-424 -432 0
-424 -433 0
-424 -434 0
-424 -435 0
-424 -436 0
-424 -437 0
-424 -438 0
-424 -439 0
-424 -440 0
-424 -441 0
-424 -442 0
-424 -443 0
-424 -444 0
-424 -445 0
-424 -446 0
-424 -447 0
-424 -448 0
-424 -449 0
-424 -450 0
-424 -451 0
-424 -452 0
-424 -453 0
-424 -454 0
-424 -455 0
-424 -456 0
-424 -457 0
-424 -458 0
-424 -459 0
-424 -460 0
-424 -461 0
-424 -462 0
-424 -463 0
-424 -464 0
-424 -465 0
-424 -466 0
-424 -467 0
-424 -468 0
-424 -469 0
-424 -470 0
-424 -471 0
-424 -472 0
-424 -473 0
-424 -474 0
-424 -475 0
-424 -476 0
-424 -477 0
-424 -478 0
-424 -479 0
-424 -480 0
-424 -481 0
-424 -482 0
-424 -483 0
-424 -484 0
-424 -485 0
-424 -486 0
-424 -487 0
-424 -488 0
-425 -426 0
-425 -427 0
-425 -428 0
-425 -429 0
-425 -430 0
-425 -431 0
-425 -432 0
-425 -433 0
-425 -434 0
-425 -435 0
-425 -436 0
-425 -437 0
-425 -438 0
-425 -439 0
-425 -440 0
-425 -441 0
-425 -442 0
-425 -443 0
-425 -444 0
-425 -445 0
-425 -446 0
-425 -447 0
-425 -448 0
-425 -449 0
-425 -450 0
-425 -451 0
-425 -452 0
-425 -453 0
-425 -454 0
-425 -455 0
-425 -456 0
-425 -457 0
-425 -458 0
-425 -459 0
-425 -460 0
-425 -461 0
-425 -462 0
-425 -463 0
-425 -464 0
-425 -465 0
-425 -466 0
-425 -467 0
-425 -468 0
-425 -469 0
-425 -470 0
-425 -471 0
-425 -472 0
-425 -473 0
-425 -474 0
-425 -475 0
-425 -476 0
-425 -477 0
-425 -478 0
-425 -479 0
-425 -480 0
-425 -481 0
-425 -482 0
-425 -483 0
-425 -484 0
-425 -485 0
-425 -486 0
-425 -487 0
-425 -488 0
-426 -427 0
-426 -428 0
-426 -429 0
-426 -430 0
-426 -431 0
-426 -432 0
-426 -433 0
-426 -434 0
-426 -435 0
-426 -436 0
-426 -437 0
-426 -438 0
-426 -439 0
-426 -440 0
-426 -441 0
-426 -442 0
-426 -443 0
-426 -444 0
-426 -445 0
-426 -446 0
-426 -447 0
-426 -448 0
-426 -449 0
-426 -450 0
-426 -451 0
-426 -452 0
-426 -453 0
-426 -454 0
-426 -455 0
-426 -456 0
-426 -457 0
-426 -458 0
-426 -459 0
-426 -460 0
-426 -461 0
-426 -462 0
-426 -463 0
-426 -464 0
-426 -465 0
-426 -466 0
-426 -467 0
-426 -468 0
-426 -469 0
-426 -470 0
-426 -471 0
-426 -472 0
-426 -473 0
-426 -474 0
-426 -475 0
-426 -476 0
-426 -477 0
-426 -478 0
-426 -479 0
-426 -480 0
-426 -481 0
-426 -482 0
-426 -483 0
-426 -484 0
-426 -485 0
-426 -486 0
-426 -487 0
-426 -488 0
-427 -428 0
-427 -429 0
-427 -430 0
-427 -431 0
-427 -432 0
-427 -433 0
-427 -434 0
-427 -435 0
-427 -436 0
-427 -437 0
-427 -438 0
-427 -439 0
-427 -440 0
-427 -441 0
-427 -442 0
-427 -443 0
-427 -444 0
-427 -445 0
-427 -446 0
-427 -447 0
-427 -448 0
-427 -449 0
-427 -450 0
-427 -451 0
-427 -452 0
-427 -453 0
-427 -454 0
-427 -455 0
-427 -456 0
-427 -457 0
-427 -458 0
-427 -459 0
-427 -460 0
-427 -461 0
-427 -462 0
-427 -463 0
-427 -464 0
-427 -465 0
-427 -466 0
-427 -467 0
-427 -468 0
-427 -469 0
-427 -470 0
-427 -471 0
-427 -472 0
-427 -473 0
-427 -474 0
-427 -475 0
-427 -476 0
-427 -477 0
-427 -478 0
-427 -479 0
-427 -480 0
-427 -481 0
-427 -482 0
-427 -483 0
-427 -484 0
-427 -485 0
-427 -486 0
-427 -487 0
-427 -488 0
-428 -429 0
-428 -430 0
-428 -431 0
-428 -432 0
-428 -433 0
-428 -434 0
-428 -435 0
-428 -436 0
-428 -437 0
-428 -438 0
-428 -439 0
-428 -440 0
-428 -441 0
-428 -442 0
-428 -443 0
-428 -444 0
-428 -445 0
-428 -446 0
-428 -447 0
-428 -448 0
-428 -449 0
-428 -450 0
-428 -451 0
-428 -452 0
-428 -453 0
-428 -454 0
-428 -455 0
-428 -456 0
-428 -457 0
-428 -458 0
-428 -459 0
-428 -460 0
-428 -461 0
-428 -462 0
-428 -463 0
-428 -464 0
-428 -465 0
-428 -466 0
-428 -467 0
-428 -468 0
-428 -469 0
-428 -470 0
-428 -471 0
-428 -472 0
-428 -473 0
-428 -474 0
-428 -475 0
-428 -476 0
-428 -477 0
-428 -478 0
-428 -479 0
-428 -480 0
-428 -481 0
-428 -482 0
-428 -483 0
-428 -484 0
-428 -485 0
-428 -486 0
-428 -487 0
-428 -488 0
-429 -430 0
-429 -431 0
-429 -432 0
-429 -433 0
-429 -434 0
-429 -435 0
-429 -436 0
-429 -437 0
-429 -438 0
-429 -439 0
-429 -440 0
-429 -441 0
-429 -442 0
-429 -443 0
-429 -444 0
-429 -445 0
-429 -446 0
-429 -447 0
-429 -448 0
-429 -449 0
-429 -450 0
-429 -451 0
-429 -452 0
-429 -453 0
-429 -454 0
-429 -455 0
-429 -456 0
-429 -457 0
-429 -458 0
-429 -459 0
-429 -460 0
-429 -461 0
-429 -462 0
-429 -463 0
-429 -464 0
-429 -465 0
-429 -466 0
-429 -467 0
-429 -468 0
-429 -469 0
-429 -470 0
-429 -471 0
-429 -472 0
-429 -473 0
-429 -474 0
-429 -475 0
-429 -476 0
-429 -477 0
-429 -478 0
-429 -479 0
-429 -480 0
-429 -481 0
-429 -482 0
-429 -483 0
-429 -484 0
-429 -485 0
-429 -486 0
-429 -487 0
-429 -488 0
-430 -431 0
-430 -432 0
-430 -433 0
-430 -434 0
-430 -435 0
-430 -436 0
-430 -437 0
-430 -438 0
-430 -439 0
-430 -440 0
-430 -441 0
-430 -442 0
-430 -443 0
-430 -444 0
-430 -445 0
-430 -446 0
-430 -447 0
-430 -448 0
-430 -449 0
-430 -450 0
-430 -451 0
-430 -452 0
-430 -453 0
-430 -454 0
-430 -455 0
-430 -456 0
-430 -457 0
-430 -458 0
-430 -459 0
-430 -460 0
-430 -461 0
-430 -462 0
-430 -463 0
-430 -464 0
-430 -465 0
-430 -466 0
-430 -467 0
-430 -468 0
-430 -469 0
-430 -470 0
-430 -471 0
-430 -472 0
-430 -473 0
-430 -474 0
-430 -475 0
-430 -476 0
-430 -477 0
-430 -478 0
-430 -479 0
-430 -480 0
-430 -481 0
-430 -482 0
-430 -483 0
-430 -484 0
-430 -485 0
-430 -486 0
-430 -487 0
-430 -488 0
-431 -432 0
-431 -433 0
-431 -434 0
-431 -435 0
-431 -436 0
-431 -437 0
-431 -438 0
-431 -439 0
-431 -440 0
-431 -441 0
-431 -442 0
-431 -443 0
-431 -444 0
-431 -445 0
-431 -446 0
-431 -447 0
-431 -448 0
-431 -449 0
-431 -450 0
-431 -451 0
-431 -452 0
-431 -453 0
-431 -454 0
-431 -455 0
-431 -456 0
-431 -457 0
-431 -458 0
-431 -459 0
-431 -460 0
-431 -461 0
-431 -462 0
-431 -463 0
-431 -464 0
-431 -465 0
-431 -466 0
-431 -467 0
-431 -468 0
-431 -469 0
-431 -470 0
-431 -471 0
-431 -472 0
-431 -473 0
-431 -474 0
-431 -475 0
-431 -476 0
-431 -477 0
-431 -478 0
-431 -479 0
-431 -480 0
-431 -481 0
-431 -482 0
-431 -483 0
-431 -484 0
-431 -485 0
-431 -486 0
-431 -487 0
-431 -488 0
-432 -433 0
-432 -434 0
-432 -435 0
-432 -436 0
-432 -437 0
-432 -438 0
-432 -439 0
-432 -440 0
-432 -441 0
-432 -442 0
-432 -443 0
-432 -444 0
-432 -445 0
-432 -446 0
-432 -447 0
-432 -448 0
-432 -449 0
-432 -450 0
-432 -451 0
-432 -452 0
-432 -453 0
-432 -454 0
-432 -455 0
-432 -456 0
-432 -457 0
-432 -458 0
-432 -459 0
-432 -460 0
-432 -461 0
-432 -462 0
-432 -463 0
-432 -464 0
-432 -465 0
-432 -466 0
-432 -467 0
-432 -468 0
-432 -469 0
-432 -470 0
-432 -471 0
-432 -472 0
-432 -473 0
-432 -474 0
-432 -475 0
-432 -476 0
-432 -477 0
-432 -478 0
-432 -479 0
-432 -480 0
-432 -481 0
-432 -482 0
-432 -483 0
-432 -484 0
-432 -485 0
-432 -486 0
-432 -487 0
-432 -488 0
-433 -434 0
-433 -435 0
-433 -436 0
-433 -437 0
-433 -438 0
-433 -439 0
-433 -440 0
-433 -441 0
-433 -442 0
-433 -443 0
-433 -444 0
-433 -445 0
-433 -446 0
-433 -447 0
-433 -448 0
-433 -449 0
-433 -450 0
-433 -451 0
-433 -452 0
-433 -453 0
-433 -454 0
-433 -455 0
-433 -456 0
-433 -457 0
-433 -458 0
-433 -459 0
-433 -460 0
-433 -461 0
-433 -462 0
-433 -463 0
-433 -464 0
-433 -465 0
-433 -466 0
-433 -467 0
-433 -468 0
-433 -469 0
-433 -470 0
-433 -471 0
-433 -472 0
-433 -473 0
-433 -474 0
-433 -475 0
-433 -476 0
-433 -477 0
-433 -478 0
-433 -479 0
-433 -480 0
-433 -481 0
-433 -482 0
-433 -483 0
-433 -484 0
-433 -485 0
-433 -486 0
-433 -487 0
-433 -488 0
-434 -435 0
-434 -436 0
-434 -437 0
-434 -438 0
-434 -439 0
-434 -440 0
-434 -441 0
-434 -442 0
-434 -443 0
-434 -444 0
-434 -445 0
-434 -446 0
-434 -447 0
-434 -448 0
-434 -449 0
-434 -450 0
-434 -451 0
-434 -452 0
-434 -453 0
-434 -454 0
-434 -455 0
-434 -456 0
-434 -457 0
-434 -458 0
-434 -459 0
-434 -460 0
-434 -461 0
-434 -462 0
-434 -463 0
-434 -464 0
-434 -465 0
-434 -466 0
-434 -467 0
-434 -468 0
-434 -469 0
-434 -470 0
-434 -471 0
-434 -472 0
-434 -473 0
-434 -474 0
-434 -475 0
-434 -476 0
-434 -477 0
-434 -478 0
-434 -479 0
-434 -480 0
-434 -481 0
-434 -482 0
-434 -483 0
-434 -484 0
-434 -485 0
-434 -486 0
-434 -487 0
-434 -488 0
-435 -436 0
-435 -437 0
-435 -438 0
-435 -439 0
-435 -440 0
-435 -441 0
-435 -442 0
-435 -443 0
-435 -444 0
-435 -445 0
-435 -446 0
-435 -447 0
-435 -448 0
-435 -449 0
-435 -450 0
-435 -451 0
-435 -452 0
-435 -453 0
-435 -454 0
-435 -455 0
-435 -456 0
-435 -457 0
-435 -458 0
-435 -459 0
-435 -460 0
-435 -461 0
-435 -462 0
-435 -463 0
-435 -464 0
-435 -465 0
-435 -466 0
-435 -467 0
-435 -468 0
-435 -469 0
-435 -470 0
-435 -471 0
-435 -472 0
-435 -473 0
-435 -474 0
-435 -475 0
-435 -476 0
-435 -477 0
-435 -478 0
-435 -479 0
-435 -480 0
-435 -481 0
-435 -482 0
-435 -483 0
-435 -484 0
-435 -485 0
-435 -486 0
-435 -487 0
-435 -488 0
-436 -437 0
-436 -438 0
-436 -439 0
-436 -440 0
-436 -441 0
-436 -442 0
-436 -443 0
-436 -444 0
-436 -445 0
-436 -446 0
-436 -447 0
-436 -448 0
-436 -449 0
-436 -450 0
-436 -451 0
-436 -452 0
-436 -453 0
-436 -454 0
-436 -455 0
-436 -456 0
-436 -457 0
-436 -458 0
-436 -459 0
-436 -460 0
-436 -461 0
-436 -462 0
-436 -463 0
-436 -464 0
-436 -465 0
-436 -466 0
-436 -467 0
-436 -468 0
-436 -469 0
-436 -470 0
-436 -471 0
-436 -472 0
-436 -473 0
-436 -474 0
-436 -475 0
-436 -476 0
-436 -477 0
-436 -478 0
-436 -479 0
-436 -480 0
-436 -481 0
-436 -482 0
-436 -483 0
-436 -484 0
-436 -485 0
-436 -486 0
-436 -487 0
-436 -488 0
-437 -438 0
-437 -439 0
-437 -440 0
-437 -441 0
-437 -442 0
-437 -443 0
-437 -444 0
-437 -445 0
-437 -446 0
-437 -447 0
-437 -448 0
-437 -449 0
-437 -450 0
-437 -451 0
-437 -452 0
-437 -453 0
-437 -454 0
-437 -455 0
-437 -456 0
-437 -457 0
-437 -458 0
-437 -459 0
-437 -460 0
-437 -461 0
-437 -462 0
-437 -463 0
-437 -464 0
-437 -465 0
-437 -466 0
-437 -467 0
-437 -468 0
-437 -469 0
-437 -470 0
-437 -471 0
-437 -472 0
-437 -473 0
-437 -474 0
-437 -475 0
-437 -476 0
-437 -477 0
-437 -478 0
-437 -479 0
-437 -480 0
-437 -481 0
-437 -482 0
-437 -483 0
-437 -484 0
-437 -485 0
-437 -486 0
-437 -487 0
-437 -488 0
-438 -439 0
-438 -440 0
-438 -441 0
-438 -442 0
-438 -443 0
-438 -444 0
-438 -445 0
-438 -446 0
-438 -447 0
-438 -448 0
-438 -449 0
-438 -450 0
-438 -451 0
-438 -452 0
-438 -453 0
-438 -454 0
-438 -455 0
-438 -456 0
-438 -457 0
-438 -458 0
-438 -459 0
-438 -460 0
-438 -461 0
-438 -462 0
-438 -463 0
-438 -464 0
-438 -465 0
-438 -466 0
-438 -467 0
-438 -468 0
-438 -469 0
-438 -470 0
-438 -471 0
-438 -472 0
-438 -473 0
-438 -474 0
-438 -475 0
-438 -476 0
-438 -477 0
-438 -478 0
-438 -479 0
-438 -480 0
-438 -481 0
-438 -482 0
-438 -483 0
-438 -484 0
-438 -485 0
-438 -486 0
-438 -487 0
-438 -488 0
-439 -440 0
-439 -441 0
-439 -442 0
-439 -443 0
-439 -444 0
-439 -445 0
-439 -446 0
-439 -447 0
-439 -448 0
-439 -449 0
-439 -450 0
-439 -451 0
-439 -452 0
-439 -453 0
-439 -454 0
-439 -455 0
-439 -456 0
-439 -457 0
-439 -458 0
-439 -459 0
-439 -460 0
-439 -461 0
-439 -462 0
-439 -463 0
-439 -464 0
-439 -465 0
-439 -466 0
-439 -467 0
-439 -468 0
-439 -469 0
-439 -470 0
-439 -471 0
-439 -472 0
-439 -473 0
-439 -474 0
-439 -475 0
-439 -476 0
-439 -477 0
-439 -478 0
-439 -479 0
-439 -480 0
-439 -481 0
-439 -482 0
-439 -483 0
-439 -484 0
-439 -485 0
-439 -486 0
-439 -487 0
-439 -488 0
-440 -441 0
-440 -442 0
-440 -443 0
-440 -444 0
-440 -445 0
-440 -446 0
-440 -447 0
-440 -448 0
-440 -449 0
-440 -450 0
-440 -451 0
-440 -452 0
-440 -453 0
-440 -454 0
-440 -455 0
-440 -456 0
-440 -457 0
-440 -458 0
-440 -459 0
-440 -460 0
-440 -461 0
-440 -462 0
-440 -463 0
-440 -464 0
-440 -465 0
-440 -466 0
-440 -467 0
-440 -468 0
-440 -469 0
-440 -470 0
-440 -471 0
-440 -472 0
-440 -473 0
-440 -474 0
-440 -475 0
-440 -476 0
-440 -477 0
-440 -478 0
-440 -479 0
-440 -480 0
-440 -481 0
-440 -482 0
-440 -483 0
-440 -484 0
-440 -485 0
-440 -486 0
-440 -487 0
-440 -488 0
-441 -442 0
-441 -443 0
-441 -444 0
-441 -445 0
-441 -446 0
-441 -447 0
-441 -448 0
-441 -449 0
-441 -450 0
-441 -451 0
-441 -452 0
-441 -453 0
-441 -454 0
-441 -455 0
-441 -456 0
-441 -457 0
-441 -458 0
-441 -459 0
-441 -460 0
-441 -461 0
-441 -462 0
-441 -463 0
-441 -464 0
-441 -465 0
-441 -466 0
-441 -467 0
-441 -468 0
-441 -469 0
-441 -470 0
-441 -471 0
-441 -472 0
-441 -473 0
-441 -474 0
-441 -475 0
-441 -476 0
-441 -477 0
-441 -478 0
-441 -479 0
-441 -480 0
-441 -481 0
-441 -482 0
-441 -483 0
-441 -484 0
-441 -485 0
-441 -486 0
-441 -487 0
-441 -488 0
-442 -443 0
-442 -444 0
-442 -445 0
-442 -446 0
-442 -447 0
-442 -448 0
-442 -449 0
-442 -450 0
-442 -451 0
-442 -452 0
-442 -453 0
-442 -454 0
-442 -455 0
-442 -456 0
-442 -457 0
-442 -458 0
-442 -459 0
-442 -460 0
-442 -461 0
-442 -462 0
-442 -463 0
-442 -464 0
-442 -465 0
-442 -466 0
-442 -467 0
-442 -468 0
-442 -469 0
-442 -470 0
-442 -471 0
-442 -472 0
-442 -473 0
-442 -474 0
-442 -475 0
-442 -476 0
-442 -477 0
-442 -478 0
-442 -479 0
-442 -480 0
-442 -481 0
-442 -482 0
-442 -483 0
-442 -484 0
-442 -485 0
-442 -486 0
-442 -487 0
-442 -488 0
-443 -444 0
-443 -445 0
-443 -446 0
-443 -447 0
-443 -448 0
-443 -449 0
-443 -450 0
-443 -451 0
-443 -452 0
-443 -453 0
-443 -454 0
-443 -455 0
-443 -456 0
-443 -457 0
-443 -458 0
-443 -459 0
-443 -460 0
-443 -461 0
-443 -462 0
-443 -463 0
-443 -464 0
-443 -465 0
-443 -466 0
-443 -467 0
-443 -468 0
-443 -469 0
-443 -470 0
-443 -471 0
-443 -472 0
-443 -473 0
-443 -474 0
-443 -475 0
-443 -476 0
-443 -477 0
-443 -478 0
-443 -479 0
-443 -480 0
-443 -481 0
-443 -482 0
-443 -483 0
-443 -484 0
-443 -485 0
-443 -486 0
-443 -487 0
-443 -488 0
-444 -445 0
-444 -446 0
-444 -447 0
-444 -448 0
-444 -449 0
-444 -450 0
-444 -451 0
-444 -452 0
-444 -453 0
-444 -454 0
-444 -455 0
-444 -456 0
-444 -457 0
-444 -458 0
-444 -459 0
-444 -460 0
-444 -461 0
-444 -462 0
-444 -463 0
-444 -464 0
-444 -465 0
-444 -466 0
-444 -467 0
-444 -468 0
-444 -469 0
-444 -470 0
-444 -471 0
-444 -472 0
-444 -473 0
-444 -474 0
-444 -475 0
-444 -476 0
-444 -477 0
-444 -478 0
-444 -479 0
-444 -480 0
-444 -481 0
-444 -482 0
-444 -483 0
-444 -484 0
-444 -485 0
-444 -486 0
-444 -487 0
-444 -488 0
-445 -446 0
-445 -447 0
-445 -448 0
-445 -449 0
-445 -450 0
-445 -451 0
-445 -452 0
-445 -453 0
-445 -454 0
-445 -455 0
-445 -456 0
-445 -457 0
-445 -458 0
-445 -459 0
-445 -460 0
-445 -461 0
-445 -462 0
-445 -463 0
-445 -464 0
-445 -465 0
-445 -466 0
-445 -467 0
-445 -468 0
-445 -469 0
-445 -470 0
-445 -471 0
-445 -472 0
-445 -473 0
-445 -474 0
-445 -475 0
-445 -476 0
-445 -477 0
-445 -478 0
-445 -479 0
-445 -480 0
-445 -481 0
-445 -482 0
-445 -483 0
-445 -484 0
-445 -485 0
-445 -486 0
-445 -487 0
-445 -488 0
-446 -447 0
-446 -448 0
-446 -449 0
-446 -450 0
-446 -451 0
-446 -452 0
-446 -453 0
-446 -454 0
-446 -455 0
-446 -456 0
-446 -457 0
-446 -458 0
-446 -459 0
-446 -460 0
-446 -461 0
-446 -462 0
-446 -463 0
-446 -464 0
-446 -465 0
-446 -466 0
-446 -467 0
-446 -468 0
-446 -469 0
-446 -470 0
-446 -471 0
-446 -472 0
-446 -473 0
-446 -474 0
-446 -475 0
-446 -476 0
-446 -477 0
-446 -478 0
-446 -479 0
-446 -480 0
-446 -481 0
-446 -482 0
-446 -483 0
-446 -484 0
-446 -485 0
-446 -486 0
-446 -487 0
-446 -488 0
-447 -448 0
-447 -449 0
-447 -450 0
-447 -451 0
-447 -452 0
-447 -453 0
-447 -454 0
-447 -455 0
-447 -456 0
-447 -457 0
-447 -458 0
-447 -459 0
-447 -460 0
-447 -461 0
-447 -462 0
-447 -463 0
-447 -464 0
-447 -465 0
-447 -466 0
-447 -467 0
-447 -468 0
-447 -469 0
-447 -470 0
-447 -471 0
-447 -472 0
-447 -473 0
-447 -474 0
-447 -475 0
-447 -476 0
-447 -477 0
-447 -478 0
-447 -479 0
-447 -480 0
-447 -481 0
-447 -482 0
-447 -483 0
-447 -484 0
-447 -485 0
-447 -486 0
-447 -487 0
-447 -488 0
-448 -449 0
-448 -450 0
-448 -451 0
-448 -452 0
-448 -453 0
-448 -454 0
-448 -455 0
-448 -456 0
-448 -457 0
-448 -458 0
-448 -459 0
-448 -460 0
-448 -461 0
-448 -462 0
-448 -463 0
-448 -464 0
-448 -465 0
-448 -466 0
-448 -467 0
-448 -468 0
-448 -469 0
-448 -470 0
-448 -471 0
-448 -472 0
-448 -473 0
-448 -474 0
-448 -475 0
-448 -476 0
-448 -477 0
-448 -478 0
-448 -479 0
-448 -480 0
-448 -481 0
-448 -482 0
-448 -483 0
-448 -484 0
-448 -485 0
-448 -486 0
-448 -487 0
-448 -488 0
-449 -450 0
-449 -451 0
-449 -452 0
-449 -453 0
-449 -454 0
-449 -455 0
-449 -456 0
-449 -457 0
-449 -458 0
-449 -459 0
-449 -460 0
-449 -461 0
-449 -462 0
-449 -463 0
-449 -464 0
-449 -465 0
-449 -466 0
-449 -467 0
-449 -468 0
-449 -469 0
-449 -470 0
-449 -471 0
-449 -472 0
-449 -473 0
-449 -474 0
-449 -475 0
-449 -476 0
-449 -477 0
-449 -478 0
-449 -479 0
-449 -480 0
-449 -481 0
-449 -482 0
-449 -483 0
-449 -484 0
-449 -485 0
-449 -486 0
-449 -487 0
-449 -488 0
-450 -451 0
-450 -452 0
-450 -453 0
-450 -454 0
-450 -455 0
-450 -456 0
-450 -457 0
-450 -458 0
-450 -459 0
-450 -460 0
-450 -461 0
-450 -462 0
-450 -463 0
-450 -464 0
-450 -465 0
-450 -466 0
-450 -467 0
-450 -468 0
-450 -469 0
-450 -470 0
-450 -471 0
-450 -472 0
-450 -473 0
-450 -474 0
-450 -475 0
-450 -476 0
-450 -477 0
-450 -478 0
-450 -479 0
-450 -480 0
-450 -481 0
-450 -482 0
-450 -483 0
-450 -484 0
-450 -485 0
-450 -486 0
-450 -487 0
-450 -488 0
-451 -452 0
-451 -453 0
-451 -454 0
-451 -455 0
-451 -456 0
-451 -457 0
-451 -458 0
-451 -459 0
-451 -460 0
-451 -461 0
-451 -462 0
-451 -463 0
-451 -464 0
-451 -465 0
-451 -466 0
-451 -467 0
-451 -468 0
-451 -469 0
-451 -470 0
-451 -471 0
-451 -472 0
-451 -473 0
-451 -474 0
-451 -475 0
-451 -476 0
-451 -477 0
-451 -478 0
-451 -479 0
-451 -480 0
-451 -481 0
-451 -482 0
-451 -483 0
-451 -484 0
-451 -485 0
-451 -486 0
-451 -487 0
-451 -488 0
-452 -453 0
-452 -454 0
-452 -455 0
-452 -456 0
-452 -457 0
-452 -458 0
-452 -459 0
-452 -460 0
-452 -461 0
-452 -462 0
-452 -463 0
-452 -464 0
-452 -465 0
-452 -466 0
-452 -467 0
-452 -468 0
-452 -469 0
-452 -470 0
-452 -471 0
-452 -472 0
-452 -473 0
-452 -474 0
-452 -475 0
-452 -476 0
-452 -477 0
-452 -478 0
-452 -479 0
-452 -480 0
-452 -481 0
-452 -482 0
-452 -483 0
-452 -484 0
-452 -485 0
-452 -486 0
-452 -487 0
-452 -488 0
-453 -454 0
-453 -455 0
-453 -456 0
-453 -457 0
-453 -458 0
-453 -459 0
-453 -460 0
-453 -461 0
-453 -462 0
-453 -463 0
-453 -464 0
-453 -465 0
-453 -466 0
-453 -467 0
-453 -468 0
-453 -469 0
-453 -470 0
-453 -471 0
-453 -472 0
-453 -473 0
-453 -474 0
-453 -475 0
-453 -476 0
-453 -477 0
-453 -478 0
-453 -479 0
-453 -480 0
-453 -481 0
-453 -482 0
-453 -483 0
-453 -484 0
-453 -485 0
-453 -486 0
-453 -487 0
-453 -488 0
-454 -455 0
-454 -456 0
-454 -457 0
-454 -458 0
-454 -459 0
-454 -460 0
-454 -461 0
-454 -462 0
-454 -463 0
-454 -464 0
-454 -465 0
-454 -466 0
-454 -467 0
-454 -468 0
-454 -469 0
-454 -470 0
-454 -471 0
-454 -472 0
-454 -473 0
-454 -474 0
-454 -475 0
-454 -476 0
-454 -477 0
-454 -478 0
-454 -479 0
-454 -480 0
-454 -481 0
-454 -482 0
-454 -483 0
-454 -484 0
-454 -485 0
-454 -486 0
-454 -487 0
-454 -488 0
-455 -456 0
-455 -457 0
-455 -458 0
-455 -459 0
-455 -460 0
-455 -461 0
-455 -462 0
-455 -463 0
-455 -464 0
-455 -465 0
-455 -466 0
-455 -467 0
-455 -468 0
-455 -469 0
-455 -470 0
-455 -471 0
-455 -472 0
-455 -473 0
-455 -474 0
-455 -475 0
-455 -476 0
-455 -477 0
-455 -478 0
-455 -479 0
-455 -480 0
-455 -481 0
-455 -482 0
-455 -483 0
-455 -484 0
-455 -485 0
-455 -486 0
-455 -487 0
-455 -488 0
-456 -457 0
-456 -458 0
-456 -459 0
-456 -460 0
-456 -461 0
-456 -462 0
-456 -463 0
-456 -464 0
-456 -465 0
-456 -466 0
-456 -467 0
-456 -468 0
-456 -469 0
-456 -470 0
-456 -471 0
-456 -472 0
-456 -473 0
-456 -474 0
-456 -475 0
-456 -476 0
-456 -477 0
-456 -478 0
-456 -479 0
-456 -480 0
-456 -481 0
-456 -482 0
-456 -483 0
-456 -484 0
-456 -485 0
-456 -486 0
-456 -487 0
-456 -488 0
-457 -458 0
-457 -459 0
-457 -460 0
-457 -461 0
-457 -462 0
-457 -463 0
-457 -464 0
-457 -465 0
-457 -466 0
-457 -467 0
-457 -468 0
-457 -469 0
-457 -470 0
-457 -471 0
-457 -472 0
-457 -473 0
-457 -474 0
-457 -475 0
-457 -476 0
-457 -477 0
-457 -478 0
-457 -479 0
-457 -480 0
-457 -481 0
-457 -482 0
-457 -483 0
-457 -484 0
-457 -485 0
-457 -486 0
-457 -487 0
-457 -488 0
-458 -459 0
-458 -460 0
-458 -461 0
-458 -462 0
-458 -463 0
-458 -464 0
-458 -465 0
-458 -466 0
-458 -467 0
-458 -468 0
-458 -469 0
-458 -470 0
-458 -471 0
-458 -472 0
-458 -473 0
-458 -474 0
-458 -475 0
-458 -476 0
-458 -477 0
-458 -478 0
-458 -479 0
-458 -480 0
-458 -481 0
-458 -482 0
-458 -483 0
-458 -484 0
-458 -485 0
-458 -486 0
-458 -487 0
-458 -488 0
-459 -460 0
-459 -461 0
-459 -462 0
-459 -463 0
-459 -464 0
-459 -465 0
-459 -466 0
-459 -467 0
-459 -468 0
-459 -469 0
-459 -470 0
-459 -471 0
-459 -472 0
-459 -473 0
-459 -474 0
-459 -475 0
-459 -476 0
-459 -477 0
-459 -478 0
-459 -479 0
-459 -480 0
-459 -481 0
-459 -482 0
-459 -483 0
-459 -484 0
-459 -485 0
-459 -486 0
-459 -487 0
-459 -488 0
-460 -461 0
-460 -462 0
-460 -463 0
-460 -464 0
-460 -465 0
-460 -466 0
-460 -467 0
-460 -468 0
-460 -469 0
-460 -470 0
-460 -471 0
-460 -472 0
-460 -473 0
-460 -474 0
-460 -475 0
-460 -476 0
-460 -477 0
-460 -478 0
-460 -479 0
-460 -480 0
-460 -481 0
-460 -482 0
-460 -483 0
-460 -484 0
-460 -485 0
-460 -486 0
-460 -487 0
-460 -488 0
-461 -462 0
-461 -463 0
-461 -464 0
-461 -465 0
-461 -466 0
-461 -467 0
-461 -468 0
-461 -469 0
-461 -470 0
-461 -471 0
-461 -472 0
-461 -473 0
-461 -474 0
-461 -475 0
-461 -476 0
-461 -477 0
-461 -478 0
-461 -479 0
-461 -480 0
-461 -481 0
-461 -482 0
-461 -483 0
-461 -484 0
-461 -485 0
-461 -486 0
-461 -487 0
-461 -488 0
-462 -463 0
-462 -464 0
-462 -465 0
-462 -466 0
-462 -467 0
-462 -468 0
-462 -469 0
-462 -470 0
-462 -471 0
-462 -472 0
-462 -473 0
-462 -474 0
-462 -475 0
-462 -476 0
-462 -477 0
-462 -478 0
-462 -479 0
-462 -480 0
-462 -481 0
-462 -482 0
-462 -483 0
-462 -484 0
-462 -485 0
-462 -486 0
-462 -487 0
-462 -488 0
-463 -464 0
-463 -465 0
-463 -466 0
-463 -467 0
-463 -468 0
-463 -469 0
-463 -470 0
-463 -471 0
-463 -472 0
-463 -473 0
-463 -474 0
-463 -475 0
-463 -476 0
-463 -477 0
-463 -478 0
-463 -479 0
-463 -480 0
-463 -481 0
-463 -482 0
-463 -483 0
-463 -484 0
-463 -485 0
-463 -486 0
-463 -487 0
-463 -488 0
-464 -465 0
-464 -466 0
-464 -467 0
-464 -468 0
-464 -469 0
-464 -470 0
-464 -471 0
-464 -472 0
-464 -473 0
-464 -474 0
-464 -475 0
-464 -476 0
-464 -477 0
-464 -478 0
-464 -479 0
-464 -480 0
-464 -481 0
-464 -482 0
-464 -483 0
-464 -484 0
-464 -485 0
-464 -486 0
-464 -487 0
-464 -488 0
-465 -466 0
-465 -467 0
-465 -468 0
-465 -469 0
-465 -470 0
-465 -471 0
-465 -472 0
-465 -473 0
-465 -474 0
-465 -475 0
-465 -476 0
-465 -477 0
-465 -478 0
-465 -479 0
-465 -480 0
-465 -481 0
-465 -482 0
-465 -483 0
-465 -484 0
-465 -485 0
-465 -486 0
-465 -487 0
-465 -488 0
-466 -467 0
-466 -468 0
-466 -469 0
-466 -470 0
-466 -471 0
-466 -472 0
-466 -473 0
-466 -474 0
-466 -475 0
-466 -476 0
-466 -477 0
-466 -478 0
-466 -479 0
-466 -480 0
-466 -481 0
-466 -482 0
-466 -483 0
-466 -484 0
-466 -485 0
-466 -486 0
-466 -487 0
-466 -488 0
-467 -468 0
-467 -469 0
-467 -470 0
-467 -471 0
-467 -472 0
-467 -473 0
-467 -474 0
-467 -475 0
-467 -476 0
-467 -477 0
-467 -478 0
-467 -479 0
-467 -480 0
-467 -481 0
-467 -482 0
-467 -483 0
-467 -484 0
-467 -485 0
-467 -486 0
-467 -487 0
-467 -488 0
-468 -469 0
-468 -470 0
-468 -471 0
-468 -472 0
-468 -473 0
-468 -474 0
-468 -475 0
-468 -476 0
-468 -477 0
-468 -478 0
-468 -479 0
-468 -480 0
-468 -481 0
-468 -482 0
-468 -483 0
-468 -484 0
-468 -485 0
-468 -486 0
-468 -487 0
-468 -488 0
-469 -470 0
-469 -471 0
-469 -472 0
-469 -473 0
-469 -474 0
-469 -475 0
-469 -476 0
-469 -477 0
-469 -478 0
-469 -479 0
-469 -480 0
-469 -481 0
-469 -482 0
-469 -483 0
-469 -484 0
-469 -485 0
-469 -486 0
-469 -487 0
-469 -488 0
-470 -471 0
-470 -472 0
-470 -473 0
-470 -474 0
-470 -475 0
-470 -476 0
-470 -477 0
-470 -478 0
-470 -479 0
-470 -480 0
-470 -481 0
-470 -482 0
-470 -483 0
-470 -484 0
-470 -485 0
-470 -486 0
-470 -487 0
-470 -488 0
-471 -472 0
-471 -473 0
-471 -474 0
-471 -475 0
-471 -476 0
-471 -477 0
-471 -478 0
-471 -479 0
-471 -480 0
-471 -481 0
-471 -482 0
-471 -483 0
-471 -484 0
-471 -485 0
-471 -486 0
-471 -487 0
-471 -488 0
-472 -473 0
-472 -474 0
-472 -475 0
-472 -476 0
-472 -477 0
-472 -478 0
-472 -479 0
-472 -480 0
-472 -481 0
-472 -482 0
-472 -483 0
-472 -484 0
-472 -485 0
-472 -486 0
-472 -487 0
-472 -488 0
-473 -474 0
-473 -475 0
-473 -476 0
-473 -477 0
-473 -478 0
-473 -479 0
-473 -480 0
-473 -481 0
-473 -482 0
-473 -483 0
-473 -484 0
-473 -485 0
-473 -486 0
-473 -487 0
-473 -488 0
-474 -475 0
-474 -476 0
-474 -477 0
-474 -478 0
-474 -479 0
-474 -480 0
-474 -481 0
-474 -482 0
-474 -483 0
-474 -484 0
-474 -485 0
-474 -486 0
-474 -487 0
-474 -488 0
-475 -476 0
-475 -477 0
-475 -478 0
-475 -479 0
-475 -480 0
-475 -481 0
-475 -482 0
-475 -483 0
-475 -484 0
-475 -485 0
-475 -486 0
-475 -487 0
-475 -488 0
-476 -477 0
-476 -478 0
-476 -479 0
-476 -480 0
-476 -481 0
-476 -482 0
-476 -483 0
-476 -484 0
-476 -485 0
-476 -486 0
-476 -487 0
-476 -488 0
-477 -478 0
-477 -479 0
-477 -480 0
-477 -481 0
-477 -482 0
-477 -483 0
-477 -484 0
-477 -485 0
-477 -486 0
-477 -487 0
-477 -488 0
-478 -479 0
-478 -480 0
-478 -481 0
-478 -482 0
-478 -483 0
-478 -484 0
-478 -485 0
-478 -486 0
-478 -487 0
-478 -488 0
-479 -480 0
-479 -481 0
-479 -482 0
-479 -483 0
-479 -484 0
-479 -485 0
-479 -486 0
-479 -487 0
-479 -488 0
-480 -481 0
-480 -482 0
-480 -483 0
-480 -484 0
-480 -485 0
-480 -486 0
-480 -487 0
-480 -488 0
-481 -482 0
-481 -483 0
-481 -484 0
-481 -485 0
-481 -486 0
-481 -487 0
-481 -488 0
-482 -483 0
-482 -484 0
-482 -485 0
-482 -486 0
-482 -487 0
-482 -488 0
-483 -484 0
-483 -485 0
-483 -486 0
-483 -487 0
-483 -488 0
-484 -485 0
-484 -486 0
-484 -487 0
-484 -488 0
-485 -486 0
-485 -487 0
-485 -488 0
-486 -487 0
-486 -488 0
-487 -488 0
-377 -97 0
-377 -98 0
-377 -99 0
-377 100 0
-377 -101 0
-377 -102 0
-377 -103 0
-377 104 0
-377 -105 0
-377 -106 0
-377 -107 0
-377 108 0
-377 -109 0
-377 -110 0
-377 -111 0
-377 112 0
-377 -113 0
-377 -114 0
-377 -115 0
-377 116 0
-377 -117 0
-377 -118 0
-377 -119 0
-377 120 0
-377 -121 0
-377 -122 0
-377 -123 0
-377 124 0
-377 -125 0
-377 -126 0
-377 -127 0
-377 128 0
-378 -97 0
-378 98 0
-378 -99 0
-378 -100 0
-378 -101 0
-378 102 0
-378 -103 0
-378 -104 0
-378 -105 0
-378 106 0
-378 -107 0
-378 -108 0
-378 -109 0
-378 110 0
-378 -111 0
-378 -112 0
-378 -113 0
-378 114 0
-378 -115 0
-378 -116 0
-378 -117 0
-378 118 0
-378 -119 0
-378 -120 0
-378 -121 0
-378 122 0
-378 -123 0
-378 -124 0
-378 -125 0
-378 126 0
-378 -127 0
-378 -128 0
-379 -97 0
-379 -98 0
-379 99 0
-379 -100 0
-379 -101 0
-379 -102 0
-379 103 0
-379 -104 0
-379 -105 0
-379 -106 0
-379 107 0
-379 -108 0
-379 -109 0
-379 -110 0
-379 111 0
-379 -112 0
-379 -113 0
-379 -114 0
-379 115 0
-379 -116 0
-379 -117 0
-379 -118 0
-379 119 0
-379 -120 0
-379 -121 0
-379 -122 0
-379 123 0
-379 -124 0
-379 -125 0
-379 -126 0
-379 127 0
-379 -128 0
-380 97 0
-380 -98 0
-380 -99 0
-380 -100 0
-380 101 0
-380 -102 0
-380 -103 0
-380 -104 0
-380 105 0
-380 -106 0
-380 -107 0
-380 -108 0
-380 109 0
-380 -110 0
-380 -111 0
-380 -112 0
-380 113 0
-380 -114 0
-380 -115 0
-380 -116 0
-380 117 0
-380 -118 0
-380 -119 0
-380 -120 0
-380 121 0
-380 -122 0
-380 -123 0
-380 -124 0
-380 125 0
-380 -126 0
-380 -127 0
-380 -128 0
-381 -97 0
-381 -98 0
-381 -99 0
-381 -100 0
-381 -101 0
-381 102 0
-381 -103 0
-381 104 0
-381 -105 0
-381 -106 0
-381 -107 0
-381 -108 0
-381 -109 0
-381 110 0
-381 -111 0
-381 112 0
-381 -113 0
-381 -114 0
-381 -115 0
-381 -116 0
-381 -117 0
-381 118 0
-381 -119 0
-381 120 0
-381 -121 0
-381 -122 0
-381 -123 0
-381 -124 0
-381 -125 0
-381 126 0
-381 -127 0
-381 128 0
-382 -97 0
-382 98 0
-382 -99 0
-382 100 0
-382 -101 0
-382 -102 0
-382 -103 0
-382 -104 0
-382 -105 0
-382 106 0
-382 -107 0
-382 108 0
-382 -109 0
-382 -110 0
-382 -111 0
-382 -112 0
-382 -113 0
-382 114 0
-382 -115 0
-382 116 0
-382 -117 0
-382 -118 0
-382 -119 0
-382 -120 0
-382 -121 0
-382 122 0
-382 -123 0
-382 124 0
-382 -125 0
-382 -126 0
-382 -127 0
-382 -128 0
-383 -97 0
-383 -98 0
-383 -99 0
-383 -100 0
-383 101 0
-383 -102 0
-383 103 0
-383 -104 0
-383 -105 0
-383 -106 0
-383 -107 0
-383 -108 0
-383 109 0
-383 -110 0
-383 111 0
-383 -112 0
-383 -113 0
-383 -114 0
-383 -115 0
-383 -116 0
-383 117 0
-383 -118 0
-383 119 0
-383 -120 0
-383 -121 0
-383 -122 0
-383 -123 0
-383 -124 0
-383 125 0
-383 -126 0
-383 127 0
-383 -128 0
-384 97 0
-384 -98 0
-384 99 0
-384 -100 0
-384 -101 0
-384 -102 0
-384 -103 0
-384 -104 0
-384 105 0
-384 -106 0
-384 107 0
-384 -108 0
-384 -109 0
-384 -110 0
-384 -111 0
-384 -112 0
-384 113 0
-384 -114 0
-384 115 0
-384 -116 0
-384 -117 0
-384 -118 0
-384 -119 0
-384 -120 0
-384 121 0
-384 -122 0
-384 123 0
-384 -124 0
-384 -125 0
-384 -126 0
-384 -127 0
-384 -128 0
-385 -97 0
-385 -98 0
-385 -99 0
-385 -100 0
-385 -101 0
-385 -102 0
-385 -103 0
-385 -104 0
-385 -105 0
-385 106 0
-385 -107 0
-385 108 0
-385 -109 0
-385 110 0
-385 -111 0
-385 112 0
-385 -113 0
-385 -114 0
-385 -115 0
-385 -116 0
-385 -117 0
-385 -118 0
-385 -119 0
-385 -120 0
-385 -121 0
-385 122 0
-385 -123 0
-385 124 0
-385 -125 0
-385 126 0
-385 -127 0
-385 128 0
-386 -97 0
-386 98 0
-386 -99 0
-386 100 0
-386 -101 0
-386 102 0
-386 -103 0
-386 104 0
-386 -105 0
-386 -106 0
-386 -107 0
-386 -108 0
-386 -109 0
-386 -110 0
-386 -111 0
-386 -112 0
-386 -113 0
-386 114 0
-386 -115 0
-386 116 0
-386 -117 0
-386 118 0
-386 -119 0
-386 120 0
-386 -121 0
-386 -122 0
-386 -123 0
-386 -124 0
-386 -125 0
-386 -126 0
-386 -127 0
-386 -128 0
-387 -97 0
-387 -98 0
-387 -99 0
-387 -100 0
-387 -101 0
-387 -102 0
-387 -103 0
-387 -104 0
-387 105 0
-387 -106 0
-387 107 0
-387 -108 0
-387 109 0
-387 -110 0
-387 111 0
-387 -112 0
-387 -113 0
-387 -114 0
-387 -115 0
-387 -116 0
-387 -117 0
-387 -118 0
-387 -119 0
-387 -120 0
-387 121 0
-387 -122 0
-387 123 0
-387 -124 0
-387 125 0
-387 -126 0
-387 127 0
-387 -128 0
-388 97 0
-388 -98 0
-388 99 0
-388 -100 0
-388 101 0
-388 -102 0
-388 103 0
-388 -104 0
-388 -105 0
-388 -106 0
-388 -107 0
-388 -108 0
-388 -109 0
-388 -110 0
-388 -111 0
-388 -112 0
-388 113 0
-388 -114 0
-388 115 0
-388 -116 0
-388 117 0
-388 -118 0
-388 119 0
-388 -120 0
-388 -121 0
-388 -122 0
-388 -123 0
-388 -124 0
-388 -125 0
-388 -126 0
-388 -127 0
-388 -128 0
-389 -97 0
-389 -98 0
-389 -99 0
-389 -100 0
-389 -101 0
-389 -102 0
-389 -103 0
-389 -104 0
-389 -105 0
-389 -106 0
-389 -107 0
-389 -108 0
-389 -109 0
-389 -110 0
-389 -111 0
-389 -112 0
-389 -113 0
-389 114 0
-389 -115 0
-389 116 0
-389 -117 0
-389 118 0
-389 -119 0
-389 120 0
-389 -121 0
-389 122 0
-389 -123 0
-389 124 0
-389 -125 0
-389 126 0
-389 -127 0
-389 128 0
-390 -97 0
-390 98 0
-390 -99 0
-390 100 0
-390 -101 0
-390 102 0
-390 -103 0
-390 104 0
-390 -105 0
-390 106 0
-390 -107 0
-390 108 0
-390 -109 0
-390 110 0
-390 -111 0
-390 112 0
-390 -113 0
-390 -114 0
-390 -115 0
-390 -116 0
-390 -117 0
-390 -118 0
-390 -119 0
-390 -120 0
-390 -121 0
-390 -122 0
-390 -123 0
-390 -124 0
-390 -125 0
-390 -126 0
-390 -127 0
-390 -128 0
-391 -97 0
-391 -98 0
-391 -99 0
-391 -100 0
-391 -101 0
-391 -102 0
-391 -103 0
-391 -104 0
-391 -105 0
-391 -106 0
-391 -107 0
-391 -108 0
-391 -109 0
-391 -110 0
-391 -111 0
-391 -112 0
-391 113 0
-391 -114 0
-391 115 0
-391 -116 0
-391 117 0
-391 -118 0
-391 119 0
-391 -120 0
-391 121 0
-391 -122 0
-391 123 0
-391 -124 0
-391 125 0
-391 -126 0
-391 127 0
-391 -128 0
-392 97 0
-392 -98 0
-392 99 0
-392 -100 0
-392 101 0
-392 -102 0
-392 103 0
-392 -104 0
-392 105 0
-392 -106 0
-392 107 0
-392 -108 0
-392 109 0
-392 -110 0
-392 111 0
-392 -112 0
-392 -113 0
-392 -114 0
-392 -115 0
-392 -116 0
-392 -117 0
-392 -118 0
-392 -119 0
-392 -120 0
-392 -121 0
-392 -122 0
-392 -123 0
-392 -124 0
-392 -125 0
-392 -126 0
-392 -127 0
-392 -128 0
-393 -97 0
-393 -98 2 0
-393 98 -2 0
-393 -99 0
-393 -100 4 0
-393 100 -4 0
-393 -101 0
-393 -102 6 0
-393 102 -6 0
-393 -103 0
-393 -104 8 0
-393 104 -8 0
-393 -105 0
-393 -106 10 0
-393 106 -10 0
-393 -107 0
-393 -108 12 0
-393 108 -12 0
-393 -109 0
-393 -110 14 0
-393 110 -14 0
-393 -111 0
-393 -112 16 0
-393 112 -16 0
-393 -113 0
-393 -114 18 0
-393 114 -18 0
-393 -115 0
-393 -116 20 0
-393 116 -20 0
-393 -117 0
-393 -118 22 0
-393 118 -22 0
-393 -119 0
-393 -120 24 0
-393 120 -24 0
-393 -121 0
-393 -122 26 0
-393 122 -26 0
-393 -123 0
-393 -124 28 0
-393 124 -28 0
-393 -125 0
-393 -126 30 0
-393 126 -30 0
-393 -127 0
-393 -128 32 0
-393 128 -32 0
-394 -97 0
-394 -98 -2 0
-394 98 2 0
-394 -99 0
-394 -100 -4 0
-394 100 4 0
-394 -101 0
-394 -102 -6 0
-394 102 6 0
-394 -103 0
-394 -104 -8 0
-394 104 8 0
-394 -105 0
-394 -106 -10 0
-394 106 10 0
-394 -107 0
-394 -108 -12 0
-394 108 12 0
-394 -109 0
-394 -110 -14 0
-394 110 14 0
-394 -111 0
-394 -112 -16 0
-394 112 16 0
-394 -113 0
-394 -114 -18 0
-394 114 18 0
-394 -115 0
-394 -116 -20 0
-394 116 20 0
-394 -117 0
-394 -118 -22 0
-394 118 22 0
-394 -119 0
-394 -120 -24 0
-394 120 24 0
-394 -121 0
-394 -122 -26 0
-394 122 26 0
-394 -123 0
-394 -124 -28 0
-394 124 28 0
-394 -125 0
-394 -126 -30 0
-394 126 30 0
-394 -127 0
-394 -128 -32 0
-394 128 32 0
-395 -97 1 0
-395 97 -1 0
-395 -98 0
-395 -99 3 0
-395 99 -3 0
-395 -100 0
-395 -101 5 0
-395 101 -5 0
-395 -102 0
-395 -103 7 0
-395 103 -7 0
-395 -104 0
-395 -105 9 0
-395 105 -9 0
-395 -106 0
-395 -107 11 0
-395 107 -11 0
-395 -108 0
-395 -109 13 0
-395 109 -13 0
-395 -110 0
-395 -111 15 0
-395 111 -15 0
-395 -112 0
-395 -113 17 0
-395 113 -17 0
-395 -114 0
-395 -115 19 0
-395 115 -19 0
-395 -116 0
-395 -117 21 0
-395 117 -21 0
-395 -118 0
-395 -119 23 0
-395 119 -23 0
-395 -120 0
-395 -121 25 0
-395 121 -25 0
-395 -122 0
-395 -123 27 0
-395 123 -27 0
-395 -124 0
-395 -125 29 0
-395 125 -29 0
-395 -126 0
-395 -127 31 0
-395 127 -31 0
-395 -128 0
-396 -97 -1 0
-396 97 1 0
-396 -98 0
-396 -99 -3 0
-396 99 3 0
-396 -100 0
-396 -101 -5 0
-396 101 5 0
-396 -102 0
-396 -103 -7 0
-396 103 7 0
-396 -104 0
-396 -105 -9 0
-396 105 9 0
-396 -106 0
-396 -107 -11 0
-396 107 11 0
-396 -108 0
-396 -109 -13 0
-396 109 13 0
-396 -110 0
-396 -111 -15 0
-396 111 15 0
-396 -112 0
-396 -113 -17 0
-396 113 17 0
-396 -114 0
-396 -115 -19 0
-396 115 19 0
-396 -116 0
-396 -117 -21 0
-396 117 21 0
-396 -118 0
-396 -119 -23 0
-396 119 23 0
-396 -120 0
-396 -121 -25 0
-396 121 25 0
-396 -122 0
-396 -123 -27 0
-396 123 27 0
-396 -124 0
-396 -125 -29 0
-396 125 29 0
-396 -126 0
-396 -127 -31 0
-396 127 31 0
-396 -128 0
-397 -97 0
-397 -98 34 0
-397 98 -34 0
-397 -99 0
-397 -100 36 0
-397 100 -36 0
-397 -101 0
-397 -102 38 0
-397 102 -38 0
-397 -103 0
-397 -104 40 0
-397 104 -40 0
-397 -105 0
-397 -106 42 0
-397 106 -42 0
-397 -107 0
-397 -108 44 0
-397 108 -44 0
-397 -109 0
-397 -110 46 0
-397 110 -46 0
-397 -111 0
-397 -112 48 0
-397 112 -48 0
-397 -113 0
-397 -114 50 0
-397 114 -50 0
-397 -115 0
-397 -116 52 0
-397 116 -52 0
-397 -117 0
-397 -118 54 0
-397 118 -54 0
-397 -119 0
-397 -120 56 0
-397 120 -56 0
-397 -121 0
-397 -122 58 0
-397 122 -58 0
-397 -123 0
-397 -124 60 0
-397 124 -60 0
-397 -125 0
-397 -126 62 0
-397 126 -62 0
-397 -127 0
-397 -128 64 0
-397 128 -64 0
-398 -97 0
-398 -98 -34 0
-398 98 34 0
-398 -99 0
-398 -100 -36 0
-398 100 36 0
-398 -101 0
-398 -102 -38 0
-398 102 38 0
-398 -103 0
-398 -104 -40 0
-398 104 40 0
-398 -105 0
-398 -106 -42 0
-398 106 42 0
-398 -107 0
-398 -108 -44 0
-398 108 44 0
-398 -109 0
-398 -110 -46 0
-398 110 46 0
-398 -111 0
-398 -112 -48 0
-398 112 48 0
-398 -113 0
-398 -114 -50 0
-398 114 50 0
-398 -115 0
-398 -116 -52 0
-398 116 52 0
-398 -117 0
-398 -118 -54 0
-398 118 54 0
-398 -119 0
-398 -120 -56 0
-398 120 56 0
-398 -121 0
-398 -122 -58 0
-398 122 58 0
-398 -123 0
-398 -124 -60 0
-398 124 60 0
-398 -125 0
-398 -126 -62 0
-398 126 62 0
-398 -127 0
-398 -128 -64 0
-398 128 64 0
-399 -97 33 0
-399 97 -33 0
-399 -98 0
-399 -99 35 0
-399 99 -35 0
-399 -100 0
-399 -101 37 0
-399 101 -37 0
-399 -102 0
-399 -103 39 0
-399 103 -39 0
-399 -104 0
-399 -105 41 0
-399 105 -41 0
-399 -106 0
-399 -107 43 0
-399 107 -43 0
-399 -108 0
-399 -109 45 0
-399 109 -45 0
-399 -110 0
-399 -111 47 0
-399 111 -47 0
-399 -112 0
-399 -113 49 0
-399 113 -49 0
-399 -114 0
-399 -115 51 0
-399 115 -51 0
-399 -116 0
-399 -117 53 0
-399 117 -53 0
-399 -118 0
-399 -119 55 0
-399 119 -55 0
-399 -120 0
-399 -121 57 0
-399 121 -57 0
-399 -122 0
-399 -123 59 0
-399 123 -59 0
-399 -124 0
-399 -125 61 0
-399 125 -61 0
-399 -126 0
-399 -127 63 0
-399 127 -63 0
-399 -128 0
-400 -97 -33 0
-400 97 33 0
-400 -98 0
-400 -99 -35 0
-400 99 35 0
-400 -100 0
-400 -101 -37 0
-400 101 37 0
-400 -102 0
-400 -103 -39 0
-400 103 39 0
-400 -104 0
-400 -105 -41 0
-400 105 41 0
-400 -106 0
-400 -107 -43 0
-400 107 43 0
-400 -108 0
-400 -109 -45 0
-400 109 45 0
-400 -110 0
-400 -111 -47 0
-400 111 47 0
-400 -112 0
-400 -113 -49 0
-400 113 49 0
-400 -114 0
-400 -115 -51 0
-400 115 51 0
-400 -116 0
-400 -117 -53 0
-400 117 53 0
-400 -118 0
-400 -119 -55 0
-400 119 55 0
-400 -120 0
-400 -121 -57 0
-400 121 57 0
-400 -122 0
-400 -123 -59 0
-400 123 59 0
-400 -124 0
-400 -125 -61 0
-400 125 61 0
-400 -126 0
-400 -127 -63 0
-400 127 63 0
-400 -128 0
-401 -97 0
-401 -98 66 0
-401 98 -66 0
-401 -99 0
-401 -100 68 0
-401 100 -68 0
-401 -101 0
-401 -102 70 0
-401 102 -70 0
-401 -103 0
-401 -104 72 0
-401 104 -72 0
-401 -105 0
-401 -106 74 0
-401 106 -74 0
-401 -107 0
-401 -108 76 0
-401 108 -76 0
-401 -109 0
-401 -110 78 0
-401 110 -78 0
-401 -111 0
-401 -112 80 0
-401 112 -80 0
-401 -113 0
-401 -114 82 0
-401 114 -82 0
-401 -115 0
-401 -116 84 0
-401 116 -84 0
-401 -117 0
-401 -118 86 0
-401 118 -86 0
-401 -119 0
-401 -120 88 0
-401 120 -88 0
-401 -121 0
-401 -122 90 0
-401 122 -90 0
-401 -123 0
-401 -124 92 0
-401 124 -92 0
-401 -125 0
-401 -126 94 0
-401 126 -94 0
-401 -127 0
-401 -128 96 0
-401 128 -96 0
-402 -97 0
-402 -98 -66 0
-402 98 66 0
-402 -99 0
-402 -100 -68 0
-402 100 68 0
-402 -101 0
-402 -102 -70 0
-402 102 70 0
-402 -103 0
-402 -104 -72 0
-402 104 72 0
-402 -105 0
-402 -106 -74 0
-402 106 74 0
-402 -107 0
-402 -108 -76 0
-402 108 76 0
-402 -109 0
-402 -110 -78 0
-402 110 78 0
-402 -111 0
-402 -112 -80 0
-402 112 80 0
-402 -113 0
-402 -114 -82 0
-402 114 82 0
-402 -115 0
-402 -116 -84 0
-402 116 84 0
-402 -117 0
-402 -118 -86 0
-402 118 86 0
-402 -119 0
-402 -120 -88 0
-402 120 88 0
-402 -121 0
-402 -122 -90 0
-402 122 90 0
-402 -123 0
-402 -124 -92 0
-402 124 92 0
-402 -125 0
-402 -126 -94 0
-402 126 94 0
-402 -127 0
-402 -128 -96 0
-402 128 96 0
-403 -97 65 0
-403 97 -65 0
-403 -98 0
-403 -99 67 0
-403 99 -67 0
-403 -100 0
-403 -101 69 0
-403 101 -69 0
-403 -102 0
-403 -103 71 0
-403 103 -71 0
-403 -104 0
-403 -105 73 0
-403 105 -73 0
-403 -106 0
-403 -107 75 0
-403 107 -75 0
-403 -108 0
-403 -109 77 0
-403 109 -77 0
-403 -110 0
-403 -111 79 0
-403 111 -79 0
-403 -112 0
-403 -113 81 0
-403 113 -81 0
-403 -114 0
-403 -115 83 0
-403 115 -83 0
-403 -116 0
-403 -117 85 0
-403 117 -85 0
-403 -118 0
-403 -119 87 0
-403 119 -87 0
-403 -120 0
-403 -121 89 0
-403 121 -89 0
-403 -122 0
-403 -123 91 0
-403 123 -91 0
-403 -124 0
-403 -125 93 0
-403 125 -93 0
-403 -126 0
-403 -127 95 0
-403 127 -95 0
-403 -128 0
-404 -97 -65 0
-404 97 65 0
-404 -98 0
-404 -99 -67 0
-404 99 67 0
-404 -100 0
-404 -101 -69 0
-404 101 69 0
-404 -102 0
-404 -103 -71 0
-404 103 71 0
-404 -104 0
-404 -105 -73 0
-404 105 73 0
-404 -106 0
-404 -107 -75 0
-404 107 75 0
-404 -108 0
-404 -109 -77 0
-404 109 77 0
-404 -110 0
-404 -111 -79 0
-404 111 79 0
-404 -112 0
-404 -113 -81 0
-404 113 81 0
-404 -114 0
-404 -115 -83 0
-404 115 83 0
-404 -116 0
-404 -117 -85 0
-404 117 85 0
-404 -118 0
-404 -119 -87 0
-404 119 87 0
-404 -120 0
-404 -121 -89 0
-404 121 89 0
-404 -122 0
-404 -123 -91 0
-404 123 91 0
-404 -124 0
-404 -125 -93 0
-404 125 93 0
-404 -126 0
-404 -127 -95 0
-404 127 95 0
-404 -128 0
-405 -97 0
-405 -98 0
-405 -99 0
-405 -100 0
-405 -101 0
-405 -102 0
-405 103 0
-405 104 0
-405 -105 0
-405 -106 0
-405 -107 0
-405 -108 0
-405 -109 0
-405 -110 0
-405 111 0
-405 112 0
-405 -113 0
-405 -114 0
-405 -115 0
-405 -116 0
-405 -117 0
-405 -118 0
-405 119 0
-405 120 0
-405 -121 0
-405 -122 0
-405 -123 0
-405 -124 0
-405 -125 0
-405 -126 0
-405 127 0
-405 128 0
-406 -97 0
-406 -98 0
-406 99 0
-406 100 0
-406 -101 0
-406 -102 0
-406 -103 0
-406 -104 0
-406 -105 0
-406 -106 0
-406 107 0
-406 108 0
-406 -109 0
-406 -110 0
-406 -111 0
-406 -112 0
-406 -113 0
-406 -114 0
-406 115 0
-406 116 0
-406 -117 0
-406 -118 0
-406 -119 0
-406 -120 0
-406 -121 0
-406 -122 0
-406 123 0
-406 124 0
-406 -125 0
-406 -126 0
-406 -127 0
-406 -128 0
-407 -97 0
-407 -98 0
-407 -99 0
-407 -100 0
-407 101 0
-407 102 0
-407 -103 0
-407 -104 0
-407 -105 0
-407 -106 0
-407 -107 0
-407 -108 0
-407 109 0
-407 110 0
-407 -111 0
-407 -112 0
-407 -113 0
-407 -114 0
-407 -115 0
-407 -116 0
-407 117 0
-407 118 0
-407 -119 0
-407 -120 0
-407 -121 0
-407 -122 0
-407 -123 0
-407 -124 0
-407 125 0
-407 126 0
-407 -127 0
-407 -128 0
-408 97 0
-408 98 0
-408 -99 0
-408 -100 0
-408 -101 0
-408 -102 0
-408 -103 0
-408 -104 0
-408 105 0
-408 106 0
-408 -107 0
-408 -108 0
-408 -109 0
-408 -110 0
-408 -111 0
-408 -112 0
-408 113 0
-408 114 0
-408 -115 0
-408 -116 0
-408 -117 0
-408 -118 0
-408 -119 0
-408 -120 0
-408 121 0
-408 122 0
-408 -123 0
-408 -124 0
-408 -125 0
-408 -126 0
-408 -127 0
-408 -128 0
-409 -97 0
-409 -98 0
-409 -99 0
-409 -100 0
-409 -101 0
-409 -102 0
-409 -103 0
-409 -104 0
-409 -105 0
-409 -106 0
-409 107 0
-409 108 0
-409 -109 0
-409 -110 0
-409 111 0
-409 112 0
-409 -113 0
-409 -114 0
-409 -115 0
-409 -116 0
-409 -117 0
-409 -118 0
-409 -119 0
-409 -120 0
-409 -121 0
-409 -122 0
-409 123 0
-409 124 0
-409 -125 0
-409 -126 0
-409 127 0
-409 128 0
-410 -97 0
-410 -98 0
-410 99 0
-410 100 0
-410 -101 0
-410 -102 0
-410 103 0
-410 104 0
-410 -105 0
-410 -106 0
-410 -107 0
-410 -108 0
-410 -109 0
-410 -110 0
-410 -111 0
-410 -112 0
-410 -113 0
-410 -114 0
-410 115 0
-410 116 0
-410 -117 0
-410 -118 0
-410 119 0
-410 120 0
-410 -121 0
-410 -122 0
-410 -123 0
-410 -124 0
-410 -125 0
-410 -126 0
-410 -127 0
-410 -128 0
-411 -97 0
-411 -98 0
-411 -99 0
-411 -100 0
-411 -101 0
-411 -102 0
-411 -103 0
-411 -104 0
-411 105 0
-411 106 0
-411 -107 0
-411 -108 0
-411 109 0
-411 110 0
-411 -111 0
-411 -112 0
-411 -113 0
-411 -114 0
-411 -115 0
-411 -116 0
-411 -117 0
-411 -118 0
-411 -119 0
-411 -120 0
-411 121 0
-411 122 0
-411 -123 0
-411 -124 0
-411 125 0
-411 126 0
-411 -127 0
-411 -128 0
-412 97 0
-412 98 0
-412 -99 0
-412 -100 0
-412 101 0
-412 102 0
-412 -103 0
-412 -104 0
-412 -105 0
-412 -106 0
-412 -107 0
-412 -108 0
-412 -109 0
-412 -110 0
-412 -111 0
-412 -112 0
-412 113 0
-412 114 0
-412 -115 0
-412 -116 0
-412 117 0
-412 118 0
-412 -119 0
-412 -120 0
-412 -121 0
-412 -122 0
-412 -123 0
-412 -124 0
-412 -125 0
-412 -126 0
-412 -127 0
-412 -128 0
-413 -97 0
-413 -98 0
-413 -99 0
-413 -100 0
-413 -101 0
-413 -102 0
-413 -103 0
-413 -104 0
-413 -105 0
-413 -106 0
-413 -107 0
-413 -108 0
-413 -109 0
-413 -110 0
-413 -111 0
-413 -112 0
-413 -113 0
-413 -114 0
-413 115 0
-413 116 0
-413 -117 0
-413 -118 0
-413 119 0
-413 120 0
-413 -121 0
-413 -122 0
-413 123 0
-413 124 0
-413 -125 0
-413 -126 0
-413 127 0
-413 128 0
-414 -97 0
-414 -98 0
-414 99 0
-414 100 0
-414 -101 0
-414 -102 0
-414 103 0
-414 104 0
-414 -105 0
-414 -106 0
-414 107 0
-414 108 0
-414 -109 0
-414 -110 0
-414 111 0
-414 112 0
-414 -113 0
-414 -114 0
-414 -115 0
-414 -116 0
-414 -117 0
-414 -118 0
-414 -119 0
-414 -120 0
-414 -121 0
-414 -122 0
-414 -123 0
-414 -124 0
-414 -125 0
-414 -126 0
-414 -127 0
-414 -128 0
-415 -97 0
-415 -98 0
-415 -99 0
-415 -100 0
-415 -101 0
-415 -102 0
-415 -103 0
-415 -104 0
-415 -105 0
-415 -106 0
-415 -107 0
-415 -108 0
-415 -109 0
-415 -110 0
-415 -111 0
-415 -112 0
-415 113 0
-415 114 0
-415 -115 0
-415 -116 0
-415 117 0
-415 118 0
-415 -119 0
-415 -120 0
-415 121 0
-415 122 0
-415 -123 0
-415 -124 0
-415 125 0
-415 126 0
-415 -127 0
-415 -128 0
-416 97 0
-416 98 0
-416 -99 0
-416 -100 0
-416 101 0
-416 102 0
-416 -103 0
-416 -104 0
-416 105 0
-416 106 0
-416 -107 0
-416 -108 0
-416 109 0
-416 110 0
-416 -111 0
-416 -112 0
-416 -113 0
-416 -114 0
-416 -115 0
-416 -116 0
-416 -117 0
-416 -118 0
-416 -119 0
-416 -120 0
-416 -121 0
-416 -122 0
-416 -123 0
-416 -124 0
-416 -125 0
-416 -126 0
-416 -127 0
-416 -128 0
-417 -97 0
-417 -98 0
-417 -99 3 0
-417 99 -3 0
-417 -100 4 0
-417 100 -4 0
-417 -101 0
-417 -102 0
-417 -103 7 0
-417 103 -7 0
-417 -104 8 0
-417 104 -8 0
-417 -105 0
-417 -106 0
-417 -107 11 0
-417 107 -11 0
-417 -108 12 0
-417 108 -12 0
-417 -109 0
-417 -110 0
-417 -111 15 0
-417 111 -15 0
-417 -112 16 0
-417 112 -16 0
-417 -113 0
-417 -114 0
-417 -115 19 0
-417 115 -19 0
-417 -116 20 0
-417 116 -20 0
-417 -117 0
-417 -118 0
-417 -119 23 0
-417 119 -23 0
-417 -120 24 0
-417 120 -24 0
-417 -121 0
-417 -122 0
-417 -123 27 0
-417 123 -27 0
-417 -124 28 0
-417 124 -28 0
-417 -125 0
-417 -126 0
-417 -127 31 0
-417 127 -31 0
-417 -128 32 0
-417 128 -32 0
-418 -97 0
-418 -98 0
-418 -99 -3 0
-418 99 3 0
-418 -100 -4 0
-418 100 4 0
-418 -101 0
-418 -102 0
-418 -103 -7 0
-418 103 7 0
-418 -104 -8 0
-418 104 8 0
-418 -105 0
-418 -106 0
-418 -107 -11 0
-418 107 11 0
-418 -108 -12 0
-418 108 12 0
-418 -109 0
-418 -110 0
-418 -111 -15 0
-418 111 15 0
-418 -112 -16 0
-418 112 16 0
-418 -113 0
-418 -114 0
-418 -115 -19 0
-418 115 19 0
-418 -116 -20 0
-418 116 20 0
-418 -117 0
-418 -118 0
-418 -119 -23 0
-418 119 23 0
-418 -120 -24 0
-418 120 24 0
-418 -121 0
-418 -122 0
-418 -123 -27 0
-418 123 27 0
-418 -124 -28 0
-418 124 28 0
-418 -125 0
-418 -126 0
-418 -127 -31 0
-418 127 31 0
-418 -128 -32 0
-418 128 32 0
-419 -97 1 0
-419 97 -1 0
-419 -98 2 0
-419 98 -2 0
-419 -99 0
-419 -100 0
-419 -101 5 0
-419 101 -5 0
-419 -102 6 0
-419 102 -6 0
-419 -103 0
-419 -104 0
-419 -105 9 0
-419 105 -9 0
-419 -106 10 0
-419 106 -10 0
-419 -107 0
-419 -108 0
-419 -109 13 0
-419 109 -13 0
-419 -110 14 0
-419 110 -14 0
-419 -111 0
-419 -112 0
-419 -113 17 0
-419 113 -17 0
-419 -114 18 0
-419 114 -18 0
-419 -115 0
-419 -116 0
-419 -117 21 0
-419 117 -21 0
-419 -118 22 0
-419 118 -22 0
-419 -119 0
-419 -120 0
-419 -121 25 0
-419 121 -25 0
-419 -122 26 0
-419 122 -26 0
-419 -123 0
-419 -124 0
-419 -125 29 0
-419 125 -29 0
-419 -126 30 0
-419 126 -30 0
-419 -127 0
-419 -128 0
-420 -97 -1 0
-420 97 1 0
-420 -98 -2 0
-420 98 2 0
-420 -99 0
-420 -100 0
-420 -101 -5 0
-420 101 5 0
-420 -102 -6 0
-420 102 6 0
-420 -103 0
-420 -104 0
-420 -105 -9 0
-420 105 9 0
-420 -106 -10 0
-420 106 10 0
-420 -107 0
-420 -108 0
-420 -109 -13 0
-420 109 13 0
-420 -110 -14 0
-420 110 14 0
-420 -111 0
-420 -112 0
-420 -113 -17 0
-420 113 17 0
-420 -114 -18 0
-420 114 18 0
-420 -115 0
-420 -116 0
-420 -117 -21 0
-420 117 21 0
-420 -118 -22 0
-420 118 22 0
-420 -119 0
-420 -120 0
-420 -121 -25 0
-420 121 25 0
-420 -122 -26 0
-420 122 26 0
-420 -123 0
-420 -124 0
-420 -125 -29 0
-420 125 29 0
-420 -126 -30 0
-420 126 30 0
-420 -127 0
-420 -128 0
-421 -97 0
-421 -98 0
-421 -99 35 0
-421 99 -35 0
-421 -100 36 0
-421 100 -36 0
-421 -101 0
-421 -102 0
-421 -103 39 0
-421 103 -39 0
-421 -104 40 0
-421 104 -40 0
-421 -105 0
-421 -106 0
-421 -107 43 0
-421 107 -43 0
-421 -108 44 0
-421 108 -44 0
-421 -109 0
-421 -110 0
-421 -111 47 0
-421 111 -47 0
-421 -112 48 0
-421 112 -48 0
-421 -113 0
-421 -114 0
-421 -115 51 0
-421 115 -51 0
-421 -116 52 0
-421 116 -52 0
-421 -117 0
-421 -118 0
-421 -119 55 0
-421 119 -55 0
-421 -120 56 0
-421 120 -56 0
-421 -121 0
-421 -122 0
-421 -123 59 0
-421 123 -59 0
-421 -124 60 0
-421 124 -60 0
-421 -125 0
-421 -126 0
-421 -127 63 0
-421 127 -63 0
-421 -128 64 0
-421 128 -64 0
-422 -97 0
-422 -98 0
-422 -99 -35 0
-422 99 35 0
-422 -100 -36 0
-422 100 36 0
-422 -101 0
-422 -102 0
-422 -103 -39 0
-422 103 39 0
-422 -104 -40 0
-422 104 40 0
-422 -105 0
-422 -106 0
-422 -107 -43 0
-422 107 43 0
-422 -108 -44 0
-422 108 44 0
-422 -109 0
-422 -110 0
-422 -111 -47 0
-422 111 47 0
-422 -112 -48 0
-422 112 48 0
-422 -113 0
-422 -114 0
-422 -115 -51 0
-422 115 51 0
-422 -116 -52 0
-422 116 52 0
-422 -117 0
-422 -118 0
-422 -119 -55 0
-422 119 55 0
-422 -120 -56 0
-422 120 56 0
-422 -121 0
-422 -122 0
-422 -123 -59 0
-422 123 59 0
-422 -124 -60 0
-422 124 60 0
-422 -125 0
-422 -126 0
-422 -127 -63 0
-422 127 63 0
-422 -128 -64 0
-422 128 64 0
-423 -97 33 0
-423 97 -33 0
-423 -98 34 0
-423 98 -34 0
-423 -99 0
-423 -100 0
-423 -101 37 0
-423 101 -37 0
-423 -102 38 0
-423 102 -38 0
-423 -103 0
-423 -104 0
-423 -105 41 0
-423 105 -41 0
-423 -106 42 0
-423 106 -42 0
-423 -107 0
-423 -108 0
-423 -109 45 0
-423 109 -45 0
-423 -110 46 0
-423 110 -46 0
-423 -111 0
-423 -112 0
-423 -113 49 0
-423 113 -49 0
-423 -114 50 0
-423 114 -50 0
-423 -115 0
-423 -116 0
-423 -117 53 0
-423 117 -53 0
-423 -118 54 0
-423 118 -54 0
-423 -119 0
-423 -120 0
-423 -121 57 0
-423 121 -57 0
-423 -122 58 0
-423 122 -58 0
-423 -123 0
-423 -124 0
-423 -125 61 0
-423 125 -61 0
-423 -126 62 0
-423 126 -62 0
-423 -127 0
-423 -128 0
-424 -97 -33 0
-424 97 33 0
-424 -98 -34 0
-424 98 34 0
-424 -99 0
-424 -100 0
-424 -101 -37 0
-424 101 37 0
-424 -102 -38 0
-424 102 38 0
-424 -103 0
-424 -104 0
-424 -105 -41 0
-424 105 41 0
-424 -106 -42 0
-424 106 42 0
-424 -107 0
-424 -108 0
-424 -109 -45 0
-424 109 45 0
-424 -110 -46 0
-424 110 46 0
-424 -111 0
-424 -112 0
-424 -113 -49 0
-424 113 49 0
-424 -114 -50 0
-424 114 50 0
-424 -115 0
-424 -116 0
-424 -117 -53 0
-424 117 53 0
-424 -118 -54 0
-424 118 54 0
-424 -119 0
-424 -120 0
-424 -121 -57 0
-424 121 57 0
-424 -122 -58 0
-424 122 58 0
-424 -123 0
-424 -124 0
-424 -125 -61 0
-424 125 61 0
-424 -126 -62 0
-424 126 62 0
-424 -127 0
-424 -128 0
-425 -97 0
-425 -98 0
-425 -99 67 0
-425 99 -67 0
-425 -100 68 0
-425 100 -68 0
-425 -101 0
-425 -102 0
-425 -103 71 0
-425 103 -71 0
-425 -104 72 0
-425 104 -72 0
-425 -105 0
-425 -106 0
-425 -107 75 0
-425 107 -75 0
-425 -108 76 0
-425 108 -76 0
-425 -109 0
-425 -110 0
-425 -111 79 0
-425 111 -79 0
-425 -112 80 0
-425 112 -80 0
-425 -113 0
-425 -114 0
-425 -115 83 0
-425 115 -83 0
-425 -116 84 0
-425 116 -84 0
-425 -117 0
-425 -118 0
-425 -119 87 0
-425 119 -87 0
-425 -120 88 0
-425 120 -88 0
-425 -121 0
-425 -122 0
-425 -123 91 0
-425 123 -91 0
-425 -124 92 0
-425 124 -92 0
-425 -125 0
-425 -126 0
-425 -127 95 0
-425 127 -95 0
-425 -128 96 0
-425 128 -96 0
-426 -97 0
-426 -98 0
-426 -99 -67 0
-426 99 67 0
-426 -100 -68 0
-426 100 68 0
-426 -101 0
-426 -102 0
-426 -103 -71 0
-426 103 71 0
-426 -104 -72 0
-426 104 72 0
-426 -105 0
-426 -106 0
-426 -107 -75 0
-426 107 75 0
-426 -108 -76 0
-426 108 76 0
-426 -109 0
-426 -110 0
-426 -111 -79 0
-426 111 79 0
-426 -112 -80 0
-426 112 80 0
-426 -113 0
-426 -114 0
-426 -115 -83 0
-426 115 83 0
-426 -116 -84 0
-426 116 84 0
-426 -117 0
-426 -118 0
-426 -119 -87 0
-426 119 87 0
-426 -120 -88 0
-426 120 88 0
-426 -121 0
-426 -122 0
-426 -123 -91 0
-426 123 91 0
-426 -124 -92 0
-426 124 92 0
-426 -125 0
-426 -126 0
-426 -127 -95 0
-426 127 95 0
-426 -128 -96 0
-426 128 96 0
-427 -97 65 0
-427 97 -65 0
-427 -98 66 0
-427 98 -66 0
-427 -99 0
-427 -100 0
-427 -101 69 0
-427 101 -69 0
-427 -102 70 0
-427 102 -70 0
-427 -103 0
-427 -104 0
-427 -105 73 0
-427 105 -73 0
-427 -106 74 0
-427 106 -74 0
-427 -107 0
-427 -108 0
-427 -109 77 0
-427 109 -77 0
-427 -110 78 0
-427 110 -78 0
-427 -111 0
-427 -112 0
-427 -113 81 0
-427 113 -81 0
-427 -114 82 0
-427 114 -82 0
-427 -115 0
-427 -116 0
-427 -117 85 0
-427 117 -85 0
-427 -118 86 0
-427 118 -86 0
-427 -119 0
-427 -120 0
-427 -121 89 0
-427 121 -89 0
-427 -122 90 0
-427 122 -90 0
-427 -123 0
-427 -124 0
-427 -125 93 0
-427 125 -93 0
-427 -126 94 0
-427 126 -94 0
-427 -127 0
-427 -128 0
-428 -97 -65 0
-428 97 65 0
-428 -98 -66 0
-428 98 66 0
-428 -99 0
-428 -100 0
-428 -101 -69 0
-428 101 69 0
-428 -102 -70 0
-428 102 70 0
-428 -103 0
-428 -104 0
-428 -105 -73 0
-428 105 73 0
-428 -106 -74 0
-428 106 74 0
-428 -107 0
-428 -108 0
-428 -109 -77 0
-428 109 77 0
-428 -110 -78 0
-428 110 78 0
-428 -111 0
-428 -112 0
-428 -113 -81 0
-428 113 81 0
-428 -114 -82 0
-428 114 82 0
-428 -115 0
-428 -116 0
-428 -117 -85 0
-428 117 85 0
-428 -118 -86 0
-428 118 86 0
-428 -119 0
-428 -120 0
-428 -121 -89 0
-428 121 89 0
-428 -122 -90 0
-428 122 90 0
-428 -123 0
-428 -124 0
-428 -125 -93 0
-428 125 93 0
-428 -126 -94 0
-428 126 94 0
-428 -127 0
-428 -128 0
-429 -97 0
-429 -98 0
-429 -99 0
-429 -100 0
-429 -101 0
-429 -102 0
-429 -103 0
-429 -104 0
-429 -105 0
-429 -106 0
-429 -107 0
-429 -108 0
-429 109 0
-429 110 0
-429 111 0
-429 112 0
-429 -113 0
-429 -114 0
-429 -115 0
-429 -116 0
-429 -117 0
-429 -118 0
-429 -119 0
-429 -120 0
-429 -121 0
-429 -122 0
-429 -123 0
-429 -124 0
-429 125 0
-429 126 0
-429 127 0
-429 128 0
-430 -97 0
-430 -98 0
-430 -99 0
-430 -100 0
-430 101 0
-430 102 0
-430 103 0
-430 104 0
-430 -105 0
-430 -106 0
-430 -107 0
-430 -108 0
-430 -109 0
-430 -110 0
-430 -111 0
-430 -112 0
-430 -113 0
-430 -114 0
-430 -115 0
-430 -116 0
-430 117 0
-430 118 0
-430 119 0
-430 120 0
-430 -121 0
-430 -122 0
-430 -123 0
-430 -124 0
-430 -125 0
-430 -126 0
-430 -127 0
-430 -128 0
-431 -97 0
-431 -98 0
-431 -99 0
-431 -100 0
-431 -101 0
-431 -102 0
-431 -103 0
-431 -104 0
-431 105 0
-431 106 0
-431 107 0
-431 108 0
-431 -109 0
-431 -110 0
-431 -111 0
-431 -112 0
-431 -113 0
-431 -114 0
-431 -115 0
-431 -116 0
-431 -117 0
-431 -118 0
-431 -119 0
-431 -120 0
-431 121 0
-431 122 0
-431 123 0
-431 124 0
-431 -125 0
-431 -126 0
-431 -127 0
-431 -128 0
-432 97 0
-432 98 0
-432 99 0
-432 100 0
-432 -101 0
-432 -102 0
-432 -103 0
-432 -104 0
-432 -105 0
-432 -106 0
-432 -107 0
-432 -108 0
-432 -109 0
-432 -110 0
-432 -111 0
-432 -112 0
-432 113 0
-432 114 0
-432 115 0
-432 116 0
-432 -117 0
-432 -118 0
-432 -119 0
-432 -120 0
-432 -121 0
-432 -122 0
-432 -123 0
-432 -124 0
-432 -125 0
-432 -126 0
-432 -127 0
-432 -128 0
-433 -97 0
-433 -98 0
-433 -99 0
-433 -100 0
-433 -101 0
-433 -102 0
-433 -103 0
-433 -104 0
-433 -105 0
-433 -106 0
-433 -107 0
-433 -108 0
-433 -109 0
-433 -110 0
-433 -111 0
-433 -112 0
-433 -113 0
-433 -114 0
-433 -115 0
-433 -116 0
-433 117 0
-433 118 0
-433 119 0
-433 120 0
-433 -121 0
-433 -122 0
-433 -123 0
-433 -124 0
-433 125 0
-433 126 0
-433 127 0
-433 128 0
-434 -97 0
-434 -98 0
-434 -99 0
-434 -100 0
-434 101 0
-434 102 0
-434 103 0
-434 104 0
-434 -105 0
-434 -106 0
-434 -107 0
-434 -108 0
-434 109 0
-434 110 0
-434 111 0
-434 112 0
-434 -113 0
-434 -114 0
-434 -115 0
-434 -116 0
-434 -117 0
-434 -118 0
-434 -119 0
-434 -120 0
-434 -121 0
-434 -122 0
-434 -123 0
-434 -124 0
-434 -125 0
-434 -126 0
-434 -127 0
-434 -128 0
-435 -97 0
-435 -98 0
-435 -99 0
-435 -100 0
-435 -101 0
-435 -102 0
-435 -103 0
-435 -104 0
-435 -105 0
-435 -106 0
-435 -107 0
-435 -108 0
-435 -109 0
-435 -110 0
-435 -111 0
-435 -112 0
-435 113 0
-435 114 0
-435 115 0
-435 116 0
-435 -117 0
-435 -118 0
-435 -119 0
-435 -120 0
-435 121 0
-435 122 0
-435 123 0
-435 124 0
-435 -125 0
-435 -126 0
-435 -127 0
-435 -128 0
-436 97 0
-436 98 0
-436 99 0
-436 100 0
-436 -101 0
-436 -102 0
-436 -103 0
-436 -104 0
-436 105 0
-436 106 0
-436 107 0
-436 108 0
-436 -109 0
-436 -110 0
-436 -111 0
-436 -112 0
-436 -113 0
-436 -114 0
-436 -115 0
-436 -116 0
-436 -117 0
-436 -118 0
-436 -119 0
-436 -120 0
-436 -121 0
-436 -122 0
-436 -123 0
-436 -124 0
-436 -125 0
-436 -126 0
-436 -127 0
-436 -128 0
-437 -97 0
-437 -98 0
-437 -99 0
-437 -100 0
-437 -101 5 0
-437 101 -5 0
-437 -102 6 0
-437 102 -6 0
-437 -103 7 0
-437 103 -7 0
-437 -104 8 0
-437 104 -8 0
-437 -105 0
-437 -106 0
-437 -107 0
-437 -108 0
-437 -109 13 0
-437 109 -13 0
-437 -110 14 0
-437 110 -14 0
-437 -111 15 0
-437 111 -15 0
-437 -112 16 0
-437 112 -16 0
-437 -113 0
-437 -114 0
-437 -115 0
-437 -116 0
-437 -117 21 0
-437 117 -21 0
-437 -118 22 0
-437 118 -22 0
-437 -119 23 0
-437 119 -23 0
-437 -120 24 0
-437 120 -24 0
-437 -121 0
-437 -122 0
-437 -123 0
-437 -124 0
-437 -125 29 0
-437 125 -29 0
-437 -126 30 0
-437 126 -30 0
-437 -127 31 0
-437 127 -31 0
-437 -128 32 0
-437 128 -32 0
-438 -97 0
-438 -98 0
-438 -99 0
-438 -100 0
-438 -101 -5 0
-438 101 5 0
-438 -102 -6 0
-438 102 6 0
-438 -103 -7 0
-438 103 7 0
-438 -104 -8 0
-438 104 8 0
-438 -105 0
-438 -106 0
-438 -107 0
-438 -108 0
-438 -109 -13 0
-438 109 13 0
-438 -110 -14 0
-438 110 14 0
-438 -111 -15 0
-438 111 15 0
-438 -112 -16 0
-438 112 16 0
-438 -113 0
-438 -114 0
-438 -115 0
-438 -116 0
-438 -117 -21 0
-438 117 21 0
-438 -118 -22 0
-438 118 22 0
-438 -119 -23 0
-438 119 23 0
-438 -120 -24 0
-438 120 24 0
-438 -121 0
-438 -122 0
-438 -123 0
-438 -124 0
-438 -125 -29 0
-438 125 29 0
-438 -126 -30 0
-438 126 30 0
-438 -127 -31 0
-438 127 31 0
-438 -128 -32 0
-438 128 32 0
-439 -97 1 0
-439 97 -1 0
-439 -98 2 0
-439 98 -2 0
-439 -99 3 0
-439 99 -3 0
-439 -100 4 0
-439 100 -4 0
-439 -101 0
-439 -102 0
-439 -103 0
-439 -104 0
-439 -105 9 0
-439 105 -9 0
-439 -106 10 0
-439 106 -10 0
-439 -107 11 0
-439 107 -11 0
-439 -108 12 0
-439 108 -12 0
-439 -109 0
-439 -110 0
-439 -111 0
-439 -112 0
-439 -113 17 0
-439 113 -17 0
-439 -114 18 0
-439 114 -18 0
-439 -115 19 0
-439 115 -19 0
-439 -116 20 0
-439 116 -20 0
-439 -117 0
-439 -118 0
-439 -119 0
-439 -120 0
-439 -121 25 0
-439 121 -25 0
-439 -122 26 0
-439 122 -26 0
-439 -123 27 0
-439 123 -27 0
-439 -124 28 0
-439 124 -28 0
-439 -125 0
-439 -126 0
-439 -127 0
-439 -128 0
-440 -97 -1 0
-440 97 1 0
-440 -98 -2 0
-440 98 2 0
-440 -99 -3 0
-440 99 3 0
-440 -100 -4 0
-440 100 4 0
-440 -101 0
-440 -102 0
-440 -103 0
-440 -104 0
-440 -105 -9 0
-440 105 9 0
-440 -106 -10 0
-440 106 10 0
-440 -107 -11 0
-440 107 11 0
-440 -108 -12 0
-440 108 12 0
-440 -109 0
-440 -110 0
-440 -111 0
-440 -112 0
-440 -113 -17 0
-440 113 17 0
-440 -114 -18 0
-440 114 18 0
-440 -115 -19 0
-440 115 19 0
-440 -116 -20 0
-440 116 20 0
-440 -117 0
-440 -118 0
-440 -119 0
-440 -120 0
-440 -121 -25 0
-440 121 25 0
-440 -122 -26 0
-440 122 26 0
-440 -123 -27 0
-440 123 27 0
-440 -124 -28 0
-440 124 28 0
-440 -125 0
-440 -126 0
-440 -127 0
-440 -128 0
-441 -97 0
-441 -98 0
-441 -99 0
-441 -100 0
-441 -101 37 0
-441 101 -37 0
-441 -102 38 0
-441 102 -38 0
-441 -103 39 0
-441 103 -39 0
-441 -104 40 0
-441 104 -40 0
-441 -105 0
-441 -106 0
-441 -107 0
-441 -108 0
-441 -109 45 0
-441 109 -45 0
-441 -110 46 0
-441 110 -46 0
-441 -111 47 0
-441 111 -47 0
-441 -112 48 0
-441 112 -48 0
-441 -113 0
-441 -114 0
-441 -115 0
-441 -116 0
-441 -117 53 0
-441 117 -53 0
-441 -118 54 0
-441 118 -54 0
-441 -119 55 0
-441 119 -55 0
-441 -120 56 0
-441 120 -56 0
-441 -121 0
-441 -122 0
-441 -123 0
-441 -124 0
-441 -125 61 0
-441 125 -61 0
-441 -126 62 0
-441 126 -62 0
-441 -127 63 0
-441 127 -63 0
-441 -128 64 0
-441 128 -64 0
-442 -97 0
-442 -98 0
-442 -99 0
-442 -100 0
-442 -101 -37 0
-442 101 37 0
-442 -102 -38 0
-442 102 38 0
-442 -103 -39 0
-442 103 39 0
-442 -104 -40 0
-442 104 40 0
-442 -105 0
-442 -106 0
-442 -107 0
-442 -108 0
-442 -109 -45 0
-442 109 45 0
-442 -110 -46 0
-442 110 46 0
-442 -111 -47 0
-442 111 47 0
-442 -112 -48 0
-442 112 48 0
-442 -113 0
-442 -114 0
-442 -115 0
-442 -116 0
-442 -117 -53 0
-442 117 53 0
-442 -118 -54 0
-442 118 54 0
-442 -119 -55 0
-442 119 55 0
-442 -120 -56 0
-442 120 56 0
-442 -121 0
-442 -122 0
-442 -123 0
-442 -124 0
-442 -125 -61 0
-442 125 61 0
-442 -126 -62 0
-442 126 62 0
-442 -127 -63 0
-442 127 63 0
-442 -128 -64 0
-442 128 64 0
-443 -97 33 0
-443 97 -33 0
-443 -98 34 0
-443 98 -34 0
-443 -99 35 0
-443 99 -35 0
-443 -100 36 0
-443 100 -36 0
-443 -101 0
-443 -102 0
-443 -103 0
-443 -104 0
-443 -105 41 0
-443 105 -41 0
-443 -106 42 0
-443 106 -42 0
-443 -107 43 0
-443 107 -43 0
-443 -108 44 0
-443 108 -44 0
-443 -109 0
-443 -110 0
-443 -111 0
-443 -112 0
-443 -113 49 0
-443 113 -49 0
-443 -114 50 0
-443 114 -50 0
-443 -115 51 0
-443 115 -51 0
-443 -116 52 0
-443 116 -52 0
-443 -117 0
-443 -118 0
-443 -119 0
-443 -120 0
-443 -121 57 0
-443 121 -57 0
-443 -122 58 0
-443 122 -58 0
-443 -123 59 0
-443 123 -59 0
-443 -124 60 0
-443 124 -60 0
-443 -125 0
-443 -126 0
-443 -127 0
-443 -128 0
-444 -97 -33 0
-444 97 33 0
-444 -98 -34 0
-444 98 34 0
-444 -99 -35 0
-444 99 35 0
-444 -100 -36 0
-444 100 36 0
-444 -101 0
-444 -102 0
-444 -103 0
-444 -104 0
-444 -105 -41 0
-444 105 41 0
-444 -106 -42 0
-444 106 42 0
-444 -107 -43 0
-444 107 43 0
-444 -108 -44 0
-444 108 44 0
-444 -109 0
-444 -110 0
-444 -111 0
-444 -112 0
-444 -113 -49 0
-444 113 49 0
-444 -114 -50 0
-444 114 50 0
-444 -115 -51 0
-444 115 51 0
-444 -116 -52 0
-444 116 52 0
-444 -117 0
-444 -118 0
-444 -119 0
-444 -120 0
-444 -121 -57 0
-444 121 57 0
-444 -122 -58 0
-444 122 58 0
-444 -123 -59 0
-444 123 59 0
-444 -124 -60 0
-444 124 60 0
-444 -125 0
-444 -126 0
-444 -127 0
-444 -128 0
-445 -97 0
-445 -98 0
-445 -99 0
-445 -100 0
-445 -101 69 0
-445 101 -69 0
-445 -102 70 0
-445 102 -70 0
-445 -103 71 0
-445 103 -71 0
-445 -104 72 0
-445 104 -72 0
-445 -105 0
-445 -106 0
-445 -107 0
-445 -108 0
-445 -109 77 0
-445 109 -77 0
-445 -110 78 0
-445 110 -78 0
-445 -111 79 0
-445 111 -79 0
-445 -112 80 0
-445 112 -80 0
-445 -113 0
-445 -114 0
-445 -115 0
-445 -116 0
-445 -117 85 0
-445 117 -85 0
-445 -118 86 0
-445 118 -86 0
-445 -119 87 0
-445 119 -87 0
-445 -120 88 0
-445 120 -88 0
-445 -121 0
-445 -122 0
-445 -123 0
-445 -124 0
-445 -125 93 0
-445 125 -93 0
-445 -126 94 0
-445 126 -94 0
-445 -127 95 0
-445 127 -95 0
-445 -128 96 0
-445 128 -96 0
-446 -97 0
-446 -98 0
-446 -99 0
-446 -100 0
-446 -101 -69 0
-446 101 69 0
-446 -102 -70 0
-446 102 70 0
-446 -103 -71 0
-446 103 71 0
-446 -104 -72 0
-446 104 72 0
-446 -105 0
-446 -106 0
-446 -107 0
-446 -108 0
-446 -109 -77 0
-446 109 77 0
-446 -110 -78 0
-446 110 78 0
-446 -111 -79 0
-446 111 79 0
-446 -112 -80 0
-446 112 80 0
-446 -113 0
-446 -114 0
-446 -115 0
-446 -116 0
-446 -117 -85 0
-446 117 85 0
-446 -118 -86 0
-446 118 86 0
-446 -119 -87 0
-446 119 87 0
-446 -120 -88 0
-446 120 88 0
-446 -121 0
-446 -122 0
-446 -123 0
-446 -124 0
-446 -125 -93 0
-446 125 93 0
-446 -126 -94 0
-446 126 94 0
-446 -127 -95 0
-446 127 95 0
-446 -128 -96 0
-446 128 96 0
-447 -97 65 0
-447 97 -65 0
-447 -98 66 0
-447 98 -66 0
-447 -99 67 0
-447 99 -67 0
-447 -100 68 0
-447 100 -68 0
-447 -101 0
-447 -102 0
-447 -103 0
-447 -104 0
-447 -105 73 0
-447 105 -73 0
-447 -106 74 0
-447 106 -74 0
-447 -107 75 0
-447 107 -75 0
-447 -108 76 0
-447 108 -76 0
-447 -109 0
-447 -110 0
-447 -111 0
-447 -112 0
-447 -113 81 0
-447 113 -81 0
-447 -114 82 0
-447 114 -82 0
-447 -115 83 0
-447 115 -83 0
-447 -116 84 0
-447 116 -84 0
-447 -117 0
-447 -118 0
-447 -119 0
-447 -120 0
-447 -121 89 0
-447 121 -89 0
-447 -122 90 0
-447 122 -90 0
-447 -123 91 0
-447 123 -91 0
-447 -124 92 0
-447 124 -92 0
-447 -125 0
-447 -126 0
-447 -127 0
-447 -128 0
-448 -97 -65 0
-448 97 65 0
-448 -98 -66 0
-448 98 66 0
-448 -99 -67 0
-448 99 67 0
-448 -100 -68 0
-448 100 68 0
-448 -101 0
-448 -102 0
-448 -103 0
-448 -104 0
-448 -105 -73 0
-448 105 73 0
-448 -106 -74 0
-448 106 74 0
-448 -107 -75 0
-448 107 75 0
-448 -108 -76 0
-448 108 76 0
-448 -109 0
-448 -110 0
-448 -111 0
-448 -112 0
-448 -113 -81 0
-448 113 81 0
-448 -114 -82 0
-448 114 82 0
-448 -115 -83 0
-448 115 83 0
-448 -116 -84 0
-448 116 84 0
-448 -117 0
-448 -118 0
-448 -119 0
-448 -120 0
-448 -121 -89 0
-448 121 89 0
-448 -122 -90 0
-448 122 90 0
-448 -123 -91 0
-448 123 91 0
-448 -124 -92 0
-448 124 92 0
-448 -125 0
-448 -126 0
-448 -127 0
-448 -128 0
-449 -97 0
-449 -98 0
-449 -99 0
-449 -100 0
-449 -101 0
-449 -102 0
-449 -103 0
-449 -104 0
-449 -105 0
-449 -106 0
-449 -107 0
-449 -108 0
-449 -109 0
-449 -110 0
-449 -111 0
-449 -112 0
-449 -113 0
-449 -114 0
-449 -115 0
-449 -116 0
-449 -117 0
-449 -118 0
-449 -119 0
-449 -120 0
-449 121 0
-449 122 0
-449 123 0
-449 124 0
-449 125 0
-449 126 0
-449 127 0
-449 128 0
-450 -97 0
-450 -98 0
-450 -99 0
-450 -100 0
-450 -101 0
-450 -102 0
-450 -103 0
-450 -104 0
-450 105 0
-450 106 0
-450 107 0
-450 108 0
-450 109 0
-450 110 0
-450 111 0
-450 112 0
-450 -113 0
-450 -114 0
-450 -115 0
-450 -116 0
-450 -117 0
-450 -118 0
-450 -119 0
-450 -120 0
-450 -121 0
-450 -122 0
-450 -123 0
-450 -124 0
-450 -125 0
-450 -126 0
-450 -127 0
-450 -128 0
-451 -97 0
-451 -98 0
-451 -99 0
-451 -100 0
-451 -101 0
-451 -102 0
-451 -103 0
-451 -104 0
-451 -105 0
-451 -106 0
-451 -107 0
-451 -108 0
-451 -109 0
-451 -110 0
-451 -111 0
-451 -112 0
-451 113 0
-451 114 0
-451 115 0
-451 116 0
-451 117 0
-451 118 0
-451 119 0
-451 120 0
-451 -121 0
-451 -122 0
-451 -123 0
-451 -124 0
-451 -125 0
-451 -126 0
-451 -127 0
-451 -128 0
-452 97 0
-452 98 0
-452 99 0
-452 100 0
-452 101 0
-452 102 0
-452 103 0
-452 104 0
-452 -105 0
-452 -106 0
-452 -107 0
-452 -108 0
-452 -109 0
-452 -110 0
-452 -111 0
-452 -112 0
-452 -113 0
-452 -114 0
-452 -115 0
-452 -116 0
-452 -117 0
-452 -118 0
-452 -119 0
-452 -120 0
-452 -121 0
-452 -122 0
-452 -123 0
-452 -124 0
-452 -125 0
-452 -126 0
-452 -127 0
-452 -128 0
-453 -97 0
-453 -98 0
-453 -99 0
-453 -100 0
-453 -101 0
-453 -102 0
-453 -103 0
-453 -104 0
-453 -105 9 0
-453 105 -9 0
-453 -106 10 0
-453 106 -10 0
-453 -107 11 0
-453 107 -11 0
-453 -108 12 0
-453 108 -12 0
-453 -109 13 0
-453 109 -13 0
-453 -110 14 0
-453 110 -14 0
-453 -111 15 0
-453 111 -15 0
-453 -112 16 0
-453 112 -16 0
-453 -113 0
-453 -114 0
-453 -115 0
-453 -116 0
-453 -117 0
-453 -118 0
-453 -119 0
-453 -120 0
-453 -121 25 0
-453 121 -25 0
-453 -122 26 0
-453 122 -26 0
-453 -123 27 0
-453 123 -27 0
-453 -124 28 0
-453 124 -28 0
-453 -125 29 0
-453 125 -29 0
-453 -126 30 0
-453 126 -30 0
-453 -127 31 0
-453 127 -31 0
-453 -128 32 0
-453 128 -32 0
-454 -97 0
-454 -98 0
-454 -99 0
-454 -100 0
-454 -101 0
-454 -102 0
-454 -103 0
-454 -104 0
-454 -105 -9 0
-454 105 9 0
-454 -106 -10 0
-454 106 10 0
-454 -107 -11 0
-454 107 11 0
-454 -108 -12 0
-454 108 12 0
-454 -109 -13 0
-454 109 13 0
-454 -110 -14 0
-454 110 14 0
-454 -111 -15 0
-454 111 15 0
-454 -112 -16 0
-454 112 16 0
-454 -113 0
-454 -114 0
-454 -115 0
-454 -116 0
-454 -117 0
-454 -118 0
-454 -119 0
-454 -120 0
-454 -121 -25 0
-454 121 25 0
-454 -122 -26 0
-454 122 26 0
-454 -123 -27 0
-454 123 27 0
-454 -124 -28 0
-454 124 28 0
-454 -125 -29 0
-454 125 29 0
-454 -126 -30 0
-454 126 30 0
-454 -127 -31 0
-454 127 31 0
-454 -128 -32 0
-454 128 32 0
-455 -97 1 0
-455 97 -1 0
-455 -98 2 0
-455 98 -2 0
-455 -99 3 0
-455 99 -3 0
-455 -100 4 0
-455 100 -4 0
-455 -101 5 0
-455 101 -5 0
-455 -102 6 0
-455 102 -6 0
-455 -103 7 0
-455 103 -7 0
-455 -104 8 0
-455 104 -8 0
-455 -105 0
-455 -106 0
-455 -107 0
-455 -108 0
-455 -109 0
-455 -110 0
-455 -111 0
-455 -112 0
-455 -113 17 0
-455 113 -17 0
-455 -114 18 0
-455 114 -18 0
-455 -115 19 0
-455 115 -19 0
-455 -116 20 0
-455 116 -20 0
-455 -117 21 0
-455 117 -21 0
-455 -118 22 0
-455 118 -22 0
-455 -119 23 0
-455 119 -23 0
-455 -120 24 0
-455 120 -24 0
-455 -121 0
-455 -122 0
-455 -123 0
-455 -124 0
-455 -125 0
-455 -126 0
-455 -127 0
-455 -128 0
-456 -97 -1 0
-456 97 1 0
-456 -98 -2 0
-456 98 2 0
-456 -99 -3 0
-456 99 3 0
-456 -100 -4 0
-456 100 4 0
-456 -101 -5 0
-456 101 5 0
-456 -102 -6 0
-456 102 6 0
-456 -103 -7 0
-456 103 7 0
-456 -104 -8 0
-456 104 8 0
-456 -105 0
-456 -106 0
-456 -107 0
-456 -108 0
-456 -109 0
-456 -110 0
-456 -111 0
-456 -112 0
-456 -113 -17 0
-456 113 17 0
-456 -114 -18 0
-456 114 18 0
-456 -115 -19 0
-456 115 19 0
-456 -116 -20 0
-456 116 20 0
-456 -117 -21 0
-456 117 21 0
-456 -118 -22 0
-456 118 22 0
-456 -119 -23 0
-456 119 23 0
-456 -120 -24 0
-456 120 24 0
-456 -121 0
-456 -122 0
-456 -123 0
-456 -124 0
-456 -125 0
-456 -126 0
-456 -127 0
-456 -128 0
-457 -97 0
-457 -98 0
-457 -99 0
-457 -100 0
-457 -101 0
-457 -102 0
-457 -103 0
-457 -104 0
-457 -105 41 0
-457 105 -41 0
-457 -106 42 0
-457 106 -42 0
-457 -107 43 0
-457 107 -43 0
-457 -108 44 0
-457 108 -44 0
-457 -109 45 0
-457 109 -45 0
-457 -110 46 0
-457 110 -46 0
-457 -111 47 0
-457 111 -47 0
-457 -112 48 0
-457 112 -48 0
-457 -113 0
-457 -114 0
-457 -115 0
-457 -116 0
-457 -117 0
-457 -118 0
-457 -119 0
-457 -120 0
-457 -121 57 0
-457 121 -57 0
-457 -122 58 0
-457 122 -58 0
-457 -123 59 0
-457 123 -59 0
-457 -124 60 0
-457 124 -60 0
-457 -125 61 0
-457 125 -61 0
-457 -126 62 0
-457 126 -62 0
-457 -127 63 0
-457 127 -63 0
-457 -128 64 0
-457 128 -64 0
-458 -97 0
-458 -98 0
-458 -99 0
-458 -100 0
-458 -101 0
-458 -102 0
-458 -103 0
-458 -104 0
-458 -105 -41 0
-458 105 41 0
-458 -106 -42 0
-458 106 42 0
-458 -107 -43 0
-458 107 43 0
-458 -108 -44 0
-458 108 44 0
-458 -109 -45 0
-458 109 45 0
-458 -110 -46 0
-458 110 46 0
-458 -111 -47 0
-458 111 47 0
-458 -112 -48 0
-458 112 48 0
-458 -113 0
-458 -114 0
-458 -115 0
-458 -116 0
-458 -117 0
-458 -118 0
-458 -119 0
-458 -120 0
-458 -121 -57 0
-458 121 57 0
-458 -122 -58 0
-458 122 58 0
-458 -123 -59 0
-458 123 59 0
-458 -124 -60 0
-458 124 60 0
-458 -125 -61 0
-458 125 61 0
-458 -126 -62 0
-458 126 62 0
-458 -127 -63 0
-458 127 63 0
-458 -128 -64 0
-458 128 64 0
-459 -97 33 0
-459 97 -33 0
-459 -98 34 0
-459 98 -34 0
-459 -99 35 0
-459 99 -35 0
-459 -100 36 0
-459 100 -36 0
-459 -101 37 0
-459 101 -37 0
-459 -102 38 0
-459 102 -38 0
-459 -103 39 0
-459 103 -39 0
-459 -104 40 0
-459 104 -40 0
-459 -105 0
-459 -106 0
-459 -107 0
-459 -108 0
-459 -109 0
-459 -110 0
-459 -111 0
-459 -112 0
-459 -113 49 0
-459 113 -49 0
-459 -114 50 0
-459 114 -50 0
-459 -115 51 0
-459 115 -51 0
-459 -116 52 0
-459 116 -52 0
-459 -117 53 0
-459 117 -53 0
-459 -118 54 0
-459 118 -54 0
-459 -119 55 0
-459 119 -55 0
-459 -120 56 0
-459 120 -56 0
-459 -121 0
-459 -122 0
-459 -123 0
-459 -124 0
-459 -125 0
-459 -126 0
-459 -127 0
-459 -128 0
-460 -97 -33 0
-460 97 33 0
-460 -98 -34 0
-460 98 34 0
-460 -99 -35 0
-460 99 35 0
-460 -100 -36 0
-460 100 36 0
-460 -101 -37 0
-460 101 37 0
-460 -102 -38 0
-460 102 38 0
-460 -103 -39 0
-460 103 39 0
-460 -104 -40 0
-460 104 40 0
-460 -105 0
-460 -106 0
-460 -107 0
-460 -108 0
-460 -109 0
-460 -110 0
-460 -111 0
-460 -112 0
-460 -113 -49 0
-460 113 49 0
-460 -114 -50 0
-460 114 50 0
-460 -115 -51 0
-460 115 51 0
-460 -116 -52 0
-460 116 52 0
-460 -117 -53 0
-460 117 53 0
-460 -118 -54 0
-460 118 54 0
-460 -119 -55 0
-460 119 55 0
-460 -120 -56 0
-460 120 56 0
-460 -121 0
-460 -122 0
-460 -123 0
-460 -124 0
-460 -125 0
-460 -126 0
-460 -127 0
-460 -128 0
-461 -97 0
-461 -98 0
-461 -99 0
-461 -100 0
-461 -101 0
-461 -102 0
-461 -103 0
-461 -104 0
-461 -105 73 0
-461 105 -73 0
-461 -106 74 0
-461 106 -74 0
-461 -107 75 0
-461 107 -75 0
-461 -108 76 0
-461 108 -76 0
-461 -109 77 0
-461 109 -77 0
-461 -110 78 0
-461 110 -78 0
-461 -111 79 0
-461 111 -79 0
-461 -112 80 0
-461 112 -80 0
-461 -113 0
-461 -114 0
-461 -115 0
-461 -116 0
-461 -117 0
-461 -118 0
-461 -119 0
-461 -120 0
-461 -121 89 0
-461 121 -89 0
-461 -122 90 0
-461 122 -90 0
-461 -123 91 0
-461 123 -91 0
-461 -124 92 0
-461 124 -92 0
-461 -125 93 0
-461 125 -93 0
-461 -126 94 0
-461 126 -94 0
-461 -127 95 0
-461 127 -95 0
-461 -128 96 0
-461 128 -96 0
-462 -97 0
-462 -98 0
-462 -99 0
-462 -100 0
-462 -101 0
-462 -102 0
-462 -103 0
-462 -104 0
-462 -105 -73 0
-462 105 73 0
-462 -106 -74 0
-462 106 74 0
-462 -107 -75 0
-462 107 75 0
-462 -108 -76 0
-462 108 76 0
-462 -109 -77 0
-462 109 77 0
-462 -110 -78 0
-462 110 78 0
-462 -111 -79 0
-462 111 79 0
-462 -112 -80 0
-462 112 80 0
-462 -113 0
-462 -114 0
-462 -115 0
-462 -116 0
-462 -117 0
-462 -118 0
-462 -119 0
-462 -120 0
-462 -121 -89 0
-462 121 89 0
-462 -122 -90 0
-462 122 90 0
-462 -123 -91 0
-462 123 91 0
-462 -124 -92 0
-462 124 92 0
-462 -125 -93 0
-462 125 93 0
-462 -126 -94 0
-462 126 94 0
-462 -127 -95 0
-462 127 95 0
-462 -128 -96 0
-462 128 96 0
-463 -97 65 0
-463 97 -65 0
-463 -98 66 0
-463 98 -66 0
-463 -99 67 0
-463 99 -67 0
-463 -100 68 0
-463 100 -68 0
-463 -101 69 0
-463 101 -69 0
-463 -102 70 0
-463 102 -70 0
-463 -103 71 0
-463 103 -71 0
-463 -104 72 0
-463 104 -72 0
-463 -105 0
-463 -106 0
-463 -107 0
-463 -108 0
-463 -109 0
-463 -110 0
-463 -111 0
-463 -112 0
-463 -113 81 0
-463 113 -81 0
-463 -114 82 0
-463 114 -82 0
-463 -115 83 0
-463 115 -83 0
-463 -116 84 0
-463 116 -84 0
-463 -117 85 0
-463 117 -85 0
-463 -118 86 0
-463 118 -86 0
-463 -119 87 0
-463 119 -87 0
-463 -120 88 0
-463 120 -88 0
-463 -121 0
-463 -122 0
-463 -123 0
-463 -124 0
-463 -125 0
-463 -126 0
-463 -127 0
-463 -128 0
-464 -97 -65 0
-464 97 65 0
-464 -98 -66 0
-464 98 66 0
-464 -99 -67 0
-464 99 67 0
-464 -100 -68 0
-464 100 68 0
-464 -101 -69 0
-464 101 69 0
-464 -102 -70 0
-464 102 70 0
-464 -103 -71 0
-464 103 71 0
-464 -104 -72 0
-464 104 72 0
-464 -105 0
-464 -106 0
-464 -107 0
-464 -108 0
-464 -109 0
-464 -110 0
-464 -111 0
-464 -112 0
-464 -113 -81 0
-464 113 81 0
-464 -114 -82 0
-464 114 82 0
-464 -115 -83 0
-464 115 83 0
-464 -116 -84 0
-464 116 84 0
-464 -117 -85 0
-464 117 85 0
-464 -118 -86 0
-464 118 86 0
-464 -119 -87 0
-464 119 87 0
-464 -120 -88 0
-464 120 88 0
-464 -121 0
-464 -122 0
-464 -123 0
-464 -124 0
-464 -125 0
-464 -126 0
-464 -127 0
-464 -128 0
-465 -97 0
-465 -98 0
-465 -99 0
-465 -100 0
-465 -101 0
-465 -102 0
-465 -103 0
-465 -104 0
-465 -105 0
-465 -106 0
-465 -107 0
-465 -108 0
-465 -109 0
-465 -110 0
-465 -111 0
-465 -112 0
-465 -113 17 0
-465 113 -17 0
-465 -114 18 0
-465 114 -18 0
-465 -115 19 0
-465 115 -19 0
-465 -116 20 0
-465 116 -20 0
-465 -117 21 0
-465 117 -21 0
-465 -118 22 0
-465 118 -22 0
-465 -119 23 0
-465 119 -23 0
-465 -120 24 0
-465 120 -24 0
-465 -121 25 0
-465 121 -25 0
-465 -122 26 0
-465 122 -26 0
-465 -123 27 0
-465 123 -27 0
-465 -124 28 0
-465 124 -28 0
-465 -125 29 0
-465 125 -29 0
-465 -126 30 0
-465 126 -30 0
-465 -127 31 0
-465 127 -31 0
-465 -128 32 0
-465 128 -32 0
-466 -97 0
-466 -98 0
-466 -99 0
-466 -100 0
-466 -101 0
-466 -102 0
-466 -103 0
-466 -104 0
-466 -105 0
-466 -106 0
-466 -107 0
-466 -108 0
-466 -109 0
-466 -110 0
-466 -111 0
-466 -112 0
-466 -113 -17 0
-466 113 17 0
-466 -114 -18 0
-466 114 18 0
-466 -115 -19 0
-466 115 19 0
-466 -116 -20 0
-466 116 20 0
-466 -117 -21 0
-466 117 21 0
-466 -118 -22 0
-466 118 22 0
-466 -119 -23 0
-466 119 23 0
-466 -120 -24 0
-466 120 24 0
-466 -121 -25 0
-466 121 25 0
-466 -122 -26 0
-466 122 26 0
-466 -123 -27 0
-466 123 27 0
-466 -124 -28 0
-466 124 28 0
-466 -125 -29 0
-466 125 29 0
-466 -126 -30 0
-466 126 30 0
-466 -127 -31 0
-466 127 31 0
-466 -128 -32 0
-466 128 32 0
-467 -97 1 0
-467 97 -1 0
-467 -98 2 0
-467 98 -2 0
-467 -99 3 0
-467 99 -3 0
-467 -100 4 0
-467 100 -4 0
-467 -101 5 0
-467 101 -5 0
-467 -102 6 0
-467 102 -6 0
-467 -103 7 0
-467 103 -7 0
-467 -104 8 0
-467 104 -8 0
-467 -105 9 0
-467 105 -9 0
-467 -106 10 0
-467 106 -10 0
-467 -107 11 0
-467 107 -11 0
-467 -108 12 0
-467 108 -12 0
-467 -109 13 0
-467 109 -13 0
-467 -110 14 0
-467 110 -14 0
-467 -111 15 0
-467 111 -15 0
-467 -112 16 0
-467 112 -16 0
-467 -113 0
-467 -114 0
-467 -115 0
-467 -116 0
-467 -117 0
-467 -118 0
-467 -119 0
-467 -120 0
-467 -121 0
-467 -122 0
-467 -123 0
-467 -124 0
-467 -125 0
-467 -126 0
-467 -127 0
-467 -128 0
-468 -97 -1 0
-468 97 1 0
-468 -98 -2 0
-468 98 2 0
-468 -99 -3 0
-468 99 3 0
-468 -100 -4 0
-468 100 4 0
-468 -101 -5 0
-468 101 5 0
-468 -102 -6 0
-468 102 6 0
-468 -103 -7 0
-468 103 7 0
-468 -104 -8 0
-468 104 8 0
-468 -105 -9 0
-468 105 9 0
-468 -106 -10 0
-468 106 10 0
-468 -107 -11 0
-468 107 11 0
-468 -108 -12 0
-468 108 12 0
-468 -109 -13 0
-468 109 13 0
-468 -110 -14 0
-468 110 14 0
-468 -111 -15 0
-468 111 15 0
-468 -112 -16 0
-468 112 16 0
-468 -113 0
-468 -114 0
-468 -115 0
-468 -116 0
-468 -117 0
-468 -118 0
-468 -119 0
-468 -120 0
-468 -121 0
-468 -122 0
-468 -123 0
-468 -124 0
-468 -125 0
-468 -126 0
-468 -127 0
-468 -128 0
-469 -97 0
-469 -98 0
-469 -99 0
-469 -100 0
-469 -101 0
-469 -102 0
-469 -103 0
-469 -104 0
-469 -105 0
-469 -106 0
-469 -107 0
-469 -108 0
-469 -109 0
-469 -110 0
-469 -111 0
-469 -112 0
-469 -113 49 0
-469 113 -49 0
-469 -114 50 0
-469 114 -50 0
-469 -115 51 0
-469 115 -51 0
-469 -116 52 0
-469 116 -52 0
-469 -117 53 0
-469 117 -53 0
-469 -118 54 0
-469 118 -54 0
-469 -119 55 0
-469 119 -55 0
-469 -120 56 0
-469 120 -56 0
-469 -121 57 0
-469 121 -57 0
-469 -122 58 0
-469 122 -58 0
-469 -123 59 0
-469 123 -59 0
-469 -124 60 0
-469 124 -60 0
-469 -125 61 0
-469 125 -61 0
-469 -126 62 0
-469 126 -62 0
-469 -127 63 0
-469 127 -63 0
-469 -128 64 0
-469 128 -64 0
-470 -97 0
-470 -98 0
-470 -99 0
-470 -100 0
-470 -101 0
-470 -102 0
-470 -103 0
-470 -104 0
-470 -105 0
-470 -106 0
-470 -107 0
-470 -108 0
-470 -109 0
-470 -110 0
-470 -111 0
-470 -112 0
-470 -113 -49 0
-470 113 49 0
-470 -114 -50 0
-470 114 50 0
-470 -115 -51 0
-470 115 51 0
-470 -116 -52 0
-470 116 52 0
-470 -117 -53 0
-470 117 53 0
-470 -118 -54 0
-470 118 54 0
-470 -119 -55 0
-470 119 55 0
-470 -120 -56 0
-470 120 56 0
-470 -121 -57 0
-470 121 57 0
-470 -122 -58 0
-470 122 58 0
-470 -123 -59 0
-470 123 59 0
-470 -124 -60 0
-470 124 60 0
-470 -125 -61 0
-470 125 61 0
-470 -126 -62 0
-470 126 62 0
-470 -127 -63 0
-470 127 63 0
-470 -128 -64 0
-470 128 64 0
-471 -97 33 0
-471 97 -33 0
-471 -98 34 0
-471 98 -34 0
-471 -99 35 0
-471 99 -35 0
-471 -100 36 0
-471 100 -36 0
-471 -101 37 0
-471 101 -37 0
-471 -102 38 0
-471 102 -38 0
-471 -103 39 0
-471 103 -39 0
-471 -104 40 0
-471 104 -40 0
-471 -105 41 0
-471 105 -41 0
-471 -106 42 0
-471 106 -42 0
-471 -107 43 0
-471 107 -43 0
-471 -108 44 0
-471 108 -44 0
-471 -109 45 0
-471 109 -45 0
-471 -110 46 0
-471 110 -46 0
-471 -111 47 0
-471 111 -47 0
-471 -112 48 0
-471 112 -48 0
-471 -113 0
-471 -114 0
-471 -115 0
-471 -116 0
-471 -117 0
-471 -118 0
-471 -119 0
-471 -120 0
-471 -121 0
-471 -122 0
-471 -123 0
-471 -124 0
-471 -125 0
-471 -126 0
-471 -127 0
-471 -128 0
-472 -97 -33 0
-472 97 33 0
-472 -98 -34 0
-472 98 34 0
-472 -99 -35 0
-472 99 35 0
-472 -100 -36 0
-472 100 36 0
-472 -101 -37 0
-472 101 37 0
-472 -102 -38 0
-472 102 38 0
-472 -103 -39 0
-472 103 39 0
-472 -104 -40 0
-472 104 40 0
-472 -105 -41 0
-472 105 41 0
-472 -106 -42 0
-472 106 42 0
-472 -107 -43 0
-472 107 43 0
-472 -108 -44 0
-472 108 44 0
-472 -109 -45 0
-472 109 45 0
-472 -110 -46 0
-472 110 46 0
-472 -111 -47 0
-472 111 47 0
-472 -112 -48 0
-472 112 48 0
-472 -113 0
-472 -114 0
-472 -115 0
-472 -116 0
-472 -117 0
-472 -118 0
-472 -119 0
-472 -120 0
-472 -121 0
-472 -122 0
-472 -123 0
-472 -124 0
-472 -125 0
-472 -126 0
-472 -127 0
-472 -128 0
-473 -97 0
-473 -98 0
-473 -99 0
-473 -100 0
-473 -101 0
-473 -102 0
-473 -103 0
-473 -104 0
-473 -105 0
-473 -106 0
-473 -107 0
-473 -108 0
-473 -109 0
-473 -110 0
-473 -111 0
-473 -112 0
-473 -113 81 0
-473 113 -81 0
-473 -114 82 0
-473 114 -82 0
-473 -115 83 0
-473 115 -83 0
-473 -116 84 0
-473 116 -84 0
-473 -117 85 0
-473 117 -85 0
-473 -118 86 0
-473 118 -86 0
-473 -119 87 0
-473 119 -87 0
-473 -120 88 0
-473 120 -88 0
-473 -121 89 0
-473 121 -89 0
-473 -122 90 0
-473 122 -90 0
-473 -123 91 0
-473 123 -91 0
-473 -124 92 0
-473 124 -92 0
-473 -125 93 0
-473 125 -93 0
-473 -126 94 0
-473 126 -94 0
-473 -127 95 0
-473 127 -95 0
-473 -128 96 0
-473 128 -96 0
-474 -97 0
-474 -98 0
-474 -99 0
-474 -100 0
-474 -101 0
-474 -102 0
-474 -103 0
-474 -104 0
-474 -105 0
-474 -106 0
-474 -107 0
-474 -108 0
-474 -109 0
-474 -110 0
-474 -111 0
-474 -112 0
-474 -113 -81 0
-474 113 81 0
-474 -114 -82 0
-474 114 82 0
-474 -115 -83 0
-474 115 83 0
-474 -116 -84 0
-474 116 84 0
-474 -117 -85 0
-474 117 85 0
-474 -118 -86 0
-474 118 86 0
-474 -119 -87 0
-474 119 87 0
-474 -120 -88 0
-474 120 88 0
-474 -121 -89 0
-474 121 89 0
-474 -122 -90 0
-474 122 90 0
-474 -123 -91 0
-474 123 91 0
-474 -124 -92 0
-474 124 92 0
-474 -125 -93 0
-474 125 93 0
-474 -126 -94 0
-474 126 94 0
-474 -127 -95 0
-474 127 95 0
-474 -128 -96 0
-474 128 96 0
-475 -97 65 0
-475 97 -65 0
-475 -98 66 0
-475 98 -66 0
-475 -99 67 0
-475 99 -67 0
-475 -100 68 0
-475 100 -68 0
-475 -101 69 0
-475 101 -69 0
-475 -102 70 0
-475 102 -70 0
-475 -103 71 0
-475 103 -71 0
-475 -104 72 0
-475 104 -72 0
-475 -105 73 0
-475 105 -73 0
-475 -106 74 0
-475 106 -74 0
-475 -107 75 0
-475 107 -75 0
-475 -108 76 0
-475 108 -76 0
-475 -109 77 0
-475 109 -77 0
-475 -110 78 0
-475 110 -78 0
-475 -111 79 0
-475 111 -79 0
-475 -112 80 0
-475 112 -80 0
-475 -113 0
-475 -114 0
-475 -115 0
-475 -116 0
-475 -117 0
-475 -118 0
-475 -119 0
-475 -120 0
-475 -121 0
-475 -122 0
-475 -123 0
-475 -124 0
-475 -125 0
-475 -126 0
-475 -127 0
-475 -128 0
-476 -97 -65 0
-476 97 65 0
-476 -98 -66 0
-476 98 66 0
-476 -99 -67 0
-476 99 67 0
-476 -100 -68 0
-476 100 68 0
-476 -101 -69 0
-476 101 69 0
-476 -102 -70 0
-476 102 70 0
-476 -103 -71 0
-476 103 71 0
-476 -104 -72 0
-476 104 72 0
-476 -105 -73 0
-476 105 73 0
-476 -106 -74 0
-476 106 74 0
-476 -107 -75 0
-476 107 75 0
-476 -108 -76 0
-476 108 76 0
-476 -109 -77 0
-476 109 77 0
-476 -110 -78 0
-476 110 78 0
-476 -111 -79 0
-476 111 79 0
-476 -112 -80 0
-476 112 80 0
-476 -113 0
-476 -114 0
-476 -115 0
-476 -116 0
-476 -117 0
-476 -118 0
-476 -119 0
-476 -120 0
-476 -121 0
-476 -122 0
-476 -123 0
-476 -124 0
-476 -125 0
-476 -126 0
-476 -127 0
-476 -128 0
-477 -97 1 0
-477 -97 33 0
-477 97 -1 -33 0
-477 -98 2 0
-477 -98 34 0
-477 98 -2 -34 0
-477 -99 3 0
-477 -99 35 0
-477 99 -3 -35 0
-477 -100 4 0
-477 -100 36 0
-477 100 -4 -36 0
-477 -101 5 0
-477 -101 37 0
-477 101 -5 -37 0
-477 -102 6 0
-477 -102 38 0
-477 102 -6 -38 0
-477 -103 7 0
-477 -103 39 0
-477 103 -7 -39 0
-477 -104 8 0
-477 -104 40 0
-477 104 -8 -40 0
-477 -105 9 0
-477 -105 41 0
-477 105 -9 -41 0
-477 -106 10 0
-477 -106 42 0
-477 106 -10 -42 0
-477 -107 11 0
-477 -107 43 0
-477 107 -11 -43 0
-477 -108 12 0
-477 -108 44 0
-477 108 -12 -44 0
-477 -109 13 0
-477 -109 45 0
-477 109 -13 -45 0
-477 -110 14 0
-477 -110 46 0
-477 110 -14 -46 0
-477 -111 15 0
-477 -111 47 0
-477 111 -15 -47 0
-477 -112 16 0
-477 -112 48 0
-477 112 -16 -48 0
-477 -113 17 0
-477 -113 49 0
-477 113 -17 -49 0
-477 -114 18 0
-477 -114 50 0
-477 114 -18 -50 0
-477 -115 19 0
-477 -115 51 0
-477 115 -19 -51 0
-477 -116 20 0
-477 -116 52 0
-477 116 -20 -52 0
-477 -117 21 0
-477 -117 53 0
-477 117 -21 -53 0
-477 -118 22 0
-477 -118 54 0
-477 118 -22 -54 0
-477 -119 23 0
-477 -119 55 0
-477 119 -23 -55 0
-477 -120 24 0
-477 -120 56 0
-477 120 -24 -56 0
-477 -121 25 0
-477 -121 57 0
-477 121 -25 -57 0
-477 -122 26 0
-477 -122 58 0
-477 122 -26 -58 0
-477 -123 27 0
-477 -123 59 0
-477 123 -27 -59 0
-477 -124 28 0
-477 -124 60 0
-477 124 -28 -60 0
-477 -125 29 0
-477 -125 61 0
-477 125 -29 -61 0
-477 -126 30 0
-477 -126 62 0
-477 126 -30 -62 0
-477 -127 31 0
-477 -127 63 0
-477 127 -31 -63 0
-477 -128 32 0
-477 -128 64 0
-477 128 -32 -64 0
-478 -97 1 0
-478 -97 -33 0
-478 97 -1 33 0
-478 -98 2 0
-478 -98 -34 0
-478 98 -2 34 0
-478 -99 3 0
-478 -99 -35 0
-478 99 -3 35 0
-478 -100 4 0
-478 -100 -36 0
-478 100 -4 36 0
-478 -101 5 0
-478 -101 -37 0
-478 101 -5 37 0
-478 -102 6 0
-478 -102 -38 0
-478 102 -6 38 0
-478 -103 7 0
-478 -103 -39 0
-478 103 -7 39 0
-478 -104 8 0
-478 -104 -40 0
-478 104 -8 40 0
-478 -105 9 0
-478 -105 -41 0
-478 105 -9 41 0
-478 -106 10 0
-478 -106 -42 0
-478 106 -10 42 0
-478 -107 11 0
-478 -107 -43 0
-478 107 -11 43 0
-478 -108 12 0
-478 -108 -44 0
-478 108 -12 44 0
-478 -109 13 0
-478 -109 -45 0
-478 109 -13 45 0
-478 -110 14 0
-478 -110 -46 0
-478 110 -14 46 0
-478 -111 15 0
-478 -111 -47 0
-478 111 -15 47 0
-478 -112 16 0
-478 -112 -48 0
-478 112 -16 48 0
-478 -113 17 0
-478 -113 -49 0
-478 113 -17 49 0
-478 -114 18 0
-478 -114 -50 0
-478 114 -18 50 0
-478 -115 19 0
-478 -115 -51 0
-478 115 -19 51 0
-478 -116 20 0
-478 -116 -52 0
-478 116 -20 52 0
-478 -117 21 0
-478 -117 -53 0
-478 117 -21 53 0
-478 -118 22 0
-478 -118 -54 0
-478 118 -22 54 0
-478 -119 23 0
-478 -119 -55 0
-478 119 -23 55 0
-478 -120 24 0
-478 -120 -56 0
-478 120 -24 56 0
-478 -121 25 0
-478 -121 -57 0
-478 121 -25 57 0
-478 -122 26 0
-478 -122 -58 0
-478 122 -26 58 0
-478 -123 27 0
-478 -123 -59 0
-478 123 -27 59 0
-478 -124 28 0
-478 -124 -60 0
-478 124 -28 60 0
-478 -125 29 0
-478 -125 -61 0
-478 125 -29 61 0
-478 -126 30 0
-478 -126 -62 0
-478 126 -30 62 0
-478 -127 31 0
-478 -127 -63 0
-478 127 -31 63 0
-478 -128 32 0
-478 -128 -64 0
-478 128 -32 64 0
-479 -97 -1 0
-479 -97 33 0
-479 97 1 -33 0
-479 -98 -2 0
-479 -98 34 0
-479 98 2 -34 0
-479 -99 -3 0
-479 -99 35 0
-479 99 3 -35 0
-479 -100 -4 0
-479 -100 36 0
-479 100 4 -36 0
-479 -101 -5 0
-479 -101 37 0
-479 101 5 -37 0
-479 -102 -6 0
-479 -102 38 0
-479 102 6 -38 0
-479 -103 -7 0
-479 -103 39 0
-479 103 7 -39 0
-479 -104 -8 0
-479 -104 40 0
-479 104 8 -40 0
-479 -105 -9 0
-479 -105 41 0
-479 105 9 -41 0
-479 -106 -10 0
-479 -106 42 0
-479 106 10 -42 0
-479 -107 -11 0
-479 -107 43 0
-479 107 11 -43 0
-479 -108 -12 0
-479 -108 44 0
-479 108 12 -44 0
-479 -109 -13 0
-479 -109 45 0
-479 109 13 -45 0
-479 -110 -14 0
-479 -110 46 0
-479 110 14 -46 0
-479 -111 -15 0
-479 -111 47 0
-479 111 15 -47 0
-479 -112 -16 0
-479 -112 48 0
-479 112 16 -48 0
-479 -113 -17 0
-479 -113 49 0
-479 113 17 -49 0
-479 -114 -18 0
-479 -114 50 0
-479 114 18 -50 0
-479 -115 -19 0
-479 -115 51 0
-479 115 19 -51 0
-479 -116 -20 0
-479 -116 52 0
-479 116 20 -52 0
-479 -117 -21 0
-479 -117 53 0
-479 117 21 -53 0
-479 -118 -22 0
-479 -118 54 0
-479 118 22 -54 0
-479 -119 -23 0
-479 -119 55 0
-479 119 23 -55 0
-479 -120 -24 0
-479 -120 56 0
-479 120 24 -56 0
-479 -121 -25 0
-479 -121 57 0
-479 121 25 -57 0
-479 -122 -26 0
-479 -122 58 0
-479 122 26 -58 0
-479 -123 -27 0
-479 -123 59 0
-479 123 27 -59 0
-479 -124 -28 0
-479 -124 60 0
-479 124 28 -60 0
-479 -125 -29 0
-479 -125 61 0
-479 125 29 -61 0
-479 -126 -30 0
-479 -126 62 0
-479 126 30 -62 0
-479 -127 -31 0
-479 -127 63 0
-479 127 31 -63 0
-479 -128 -32 0
-479 -128 64 0
-479 128 32 -64 0
-480 -97 -1 0
-480 -97 -33 0
-480 97 1 33 0
-480 -98 -2 0
-480 -98 -34 0
-480 98 2 34 0
-480 -99 -3 0
-480 -99 -35 0
-480 99 3 35 0
-480 -100 -4 0
-480 -100 -36 0
-480 100 4 36 0
-480 -101 -5 0
-480 -101 -37 0
-480 101 5 37 0
-480 -102 -6 0
-480 -102 -38 0
-480 102 6 38 0
-480 -103 -7 0
-480 -103 -39 0
-480 103 7 39 0
-480 -104 -8 0
-480 -104 -40 0
-480 104 8 40 0
-480 -105 -9 0
-480 -105 -41 0
-480 105 9 41 0
-480 -106 -10 0
-480 -106 -42 0
-480 106 10 42 0
-480 -107 -11 0
-480 -107 -43 0
-480 107 11 43 0
-480 -108 -12 0
-480 -108 -44 0
-480 108 12 44 0
-480 -109 -13 0
-480 -109 -45 0
-480 109 13 45 0
-480 -110 -14 0
-480 -110 -46 0
-480 110 14 46 0
-480 -111 -15 0
-480 -111 -47 0
-480 111 15 47 0
-480 -112 -16 0
-480 -112 -48 0
-480 112 16 48 0
-480 -113 -17 0
-480 -113 -49 0
-480 113 17 49 0
-480 -114 -18 0
-480 -114 -50 0
-480 114 18 50 0
-480 -115 -19 0
-480 -115 -51 0
-480 115 19 51 0
-480 -116 -20 0
-480 -116 -52 0
-480 116 20 52 0
-480 -117 -21 0
-480 -117 -53 0
-480 117 21 53 0
-480 -118 -22 0
-480 -118 -54 0
-480 118 22 54 0
-480 -119 -23 0
-480 -119 -55 0
-480 119 23 55 0
-480 -120 -24 0
-480 -120 -56 0
-480 120 24 56 0
-480 -121 -25 0
-480 -121 -57 0
-480 121 25 57 0
-480 -122 -26 0
-480 -122 -58 0
-480 122 26 58 0
-480 -123 -27 0
-480 -123 -59 0
-480 123 27 59 0
-480 -124 -28 0
-480 -124 -60 0
-480 124 28 60 0
-480 -125 -29 0
-480 -125 -61 0
-480 125 29 61 0
-480 -126 -30 0
-480 -126 -62 0
-480 126 30 62 0
-480 -127 -31 0
-480 -127 -63 0
-480 127 31 63 0
-480 -128 -32 0
-480 -128 -64 0
-480 128 32 64 0
-481 -97 1 0
-481 -97 65 0
-481 97 -1 -65 0
-481 -98 2 0
-481 -98 66 0
-481 98 -2 -66 0
-481 -99 3 0
-481 -99 67 0
-481 99 -3 -67 0
-481 -100 4 0
-481 -100 68 0
-481 100 -4 -68 0
-481 -101 5 0
-481 -101 69 0
-481 101 -5 -69 0
-481 -102 6 0
-481 -102 70 0
-481 102 -6 -70 0
-481 -103 7 0
-481 -103 71 0
-481 103 -7 -71 0
-481 -104 8 0
-481 -104 72 0
-481 104 -8 -72 0
-481 -105 9 0
-481 -105 73 0
-481 105 -9 -73 0
-481 -106 10 0
-481 -106 74 0
-481 106 -10 -74 0
-481 -107 11 0
-481 -107 75 0
-481 107 -11 -75 0
-481 -108 12 0
-481 -108 76 0
-481 108 -12 -76 0
-481 -109 13 0
-481 -109 77 0
-481 109 -13 -77 0
-481 -110 14 0
-481 -110 78 0
-481 110 -14 -78 0
-481 -111 15 0
-481 -111 79 0
-481 111 -15 -79 0
-481 -112 16 0
-481 -112 80 0
-481 112 -16 -80 0
-481 -113 17 0
-481 -113 81 0
-481 113 -17 -81 0
-481 -114 18 0
-481 -114 82 0
-481 114 -18 -82 0
-481 -115 19 0
-481 -115 83 0
-481 115 -19 -83 0
-481 -116 20 0
-481 -116 84 0
-481 116 -20 -84 0
-481 -117 21 0
-481 -117 85 0
-481 117 -21 -85 0
-481 -118 22 0
-481 -118 86 0
-481 118 -22 -86 0
-481 -119 23 0
-481 -119 87 0
-481 119 -23 -87 0
-481 -120 24 0
-481 -120 88 0
-481 120 -24 -88 0
-481 -121 25 0
-481 -121 89 0
-481 121 -25 -89 0
-481 -122 26 0
-481 -122 90 0
-481 122 -26 -90 0
-481 -123 27 0
-481 -123 91 0
-481 123 -27 -91 0
-481 -124 28 0
-481 -124 92 0
-481 124 -28 -92 0
-481 -125 29 0
-481 -125 93 0
-481 125 -29 -93 0
-481 -126 30 0
-481 -126 94 0
-481 126 -30 -94 0
-481 -127 31 0
-481 -127 95 0
-481 127 -31 -95 0
-481 -128 32 0
-481 -128 96 0
-481 128 -32 -96 0
-482 -97 1 0
-482 -97 -65 0
-482 97 -1 65 0
-482 -98 2 0
-482 -98 -66 0
-482 98 -2 66 0
-482 -99 3 0
-482 -99 -67 0
-482 99 -3 67 0
-482 -100 4 0
-482 -100 -68 0
-482 100 -4 68 0
-482 -101 5 0
-482 -101 -69 0
-482 101 -5 69 0
-482 -102 6 0
-482 -102 -70 0
-482 102 -6 70 0
-482 -103 7 0
-482 -103 -71 0
-482 103 -7 71 0
-482 -104 8 0
-482 -104 -72 0
-482 104 -8 72 0
-482 -105 9 0
-482 -105 -73 0
-482 105 -9 73 0
-482 -106 10 0
-482 -106 -74 0
-482 106 -10 74 0
-482 -107 11 0
-482 -107 -75 0
-482 107 -11 75 0
-482 -108 12 0
-482 -108 -76 0
-482 108 -12 76 0
-482 -109 13 0
-482 -109 -77 0
-482 109 -13 77 0
-482 -110 14 0
-482 -110 -78 0
-482 110 -14 78 0
-482 -111 15 0
-482 -111 -79 0
-482 111 -15 79 0
-482 -112 16 0
-482 -112 -80 0
-482 112 -16 80 0
-482 -113 17 0
-482 -113 -81 0
-482 113 -17 81 0
-482 -114 18 0
-482 -114 -82 0
-482 114 -18 82 0
-482 -115 19 0
-482 -115 -83 0
-482 115 -19 83 0
-482 -116 20 0
-482 -116 -84 0
-482 116 -20 84 0
-482 -117 21 0
-482 -117 -85 0
-482 117 -21 85 0
-482 -118 22 0
-482 -118 -86 0
-482 118 -22 86 0
-482 -119 23 0
-482 -119 -87 0
-482 119 -23 87 0
-482 -120 24 0
-482 -120 -88 0
-482 120 -24 88 0
-482 -121 25 0
-482 -121 -89 0
-482 121 -25 89 0
-482 -122 26 0
-482 -122 -90 0
-482 122 -26 90 0
-482 -123 27 0
-482 -123 -91 0
-482 123 -27 91 0
-482 -124 28 0
-482 -124 -92 0
-482 124 -28 92 0
-482 -125 29 0
-482 -125 -93 0
-482 125 -29 93 0
-482 -126 30 0
-482 -126 -94 0
-482 126 -30 94 0
-482 -127 31 0
-482 -127 -95 0
-482 127 -31 95 0
-482 -128 32 0
-482 -128 -96 0
-482 128 -32 96 0
-483 -97 -1 0
-483 -97 65 0
-483 97 1 -65 0
-483 -98 -2 0
-483 -98 66 0
-483 98 2 -66 0
-483 -99 -3 0
-483 -99 67 0
-483 99 3 -67 0
-483 -100 -4 0
-483 -100 68 0
-483 100 4 -68 0
-483 -101 -5 0
-483 -101 69 0
-483 101 5 -69 0
-483 -102 -6 0
-483 -102 70 0
-483 102 6 -70 0
-483 -103 -7 0
-483 -103 71 0
-483 103 7 -71 0
-483 -104 -8 0
-483 -104 72 0
-483 104 8 -72 0
-483 -105 -9 0
-483 -105 73 0
-483 105 9 -73 0
-483 -106 -10 0
-483 -106 74 0
-483 106 10 -74 0
-483 -107 -11 0
-483 -107 75 0
-483 107 11 -75 0
-483 -108 -12 0
-483 -108 76 0
-483 108 12 -76 0
-483 -109 -13 0
-483 -109 77 0
-483 109 13 -77 0
-483 -110 -14 0
-483 -110 78 0
-483 110 14 -78 0
-483 -111 -15 0
-483 -111 79 0
-483 111 15 -79 0
-483 -112 -16 0
-483 -112 80 0
-483 112 16 -80 0
-483 -113 -17 0
-483 -113 81 0
-483 113 17 -81 0
-483 -114 -18 0
-483 -114 82 0
-483 114 18 -82 0
-483 -115 -19 0
-483 -115 83 0
-483 115 19 -83 0
-483 -116 -20 0
-483 -116 84 0
-483 116 20 -84 0
-483 -117 -21 0
-483 -117 85 0
-483 117 21 -85 0
-483 -118 -22 0
-483 -118 86 0
-483 118 22 -86 0
-483 -119 -23 0
-483 -119 87 0
-483 119 23 -87 0
-483 -120 -24 0
-483 -120 88 0
-483 120 24 -88 0
-483 -121 -25 0
-483 -121 89 0
-483 121 25 -89 0
-483 -122 -26 0
-483 -122 90 0
-483 122 26 -90 0
-483 -123 -27 0
-483 -123 91 0
-483 123 27 -91 0
-483 -124 -28 0
-483 -124 92 0
-483 124 28 -92 0
-483 -125 -29 0
-483 -125 93 0
-483 125 29 -93 0
-483 -126 -30 0
-483 -126 94 0
-483 126 30 -94 0
-483 -127 -31 0
-483 -127 95 0
-483 127 31 -95 0
-483 -128 -32 0
-483 -128 96 0
-483 128 32 -96 0
-484 -97 -1 0
-484 -97 -65 0
-484 97 1 65 0
-484 -98 -2 0
-484 -98 -66 0
-484 98 2 66 0
-484 -99 -3 0
-484 -99 -67 0
-484 99 3 67 0
-484 -100 -4 0
-484 -100 -68 0
-484 100 4 68 0
-484 -101 -5 0
-484 -101 -69 0
-484 101 5 69 0
-484 -102 -6 0
-484 -102 -70 0
-484 102 6 70 0
-484 -103 -7 0
-484 -103 -71 0
-484 103 7 71 0
-484 -104 -8 0
-484 -104 -72 0
-484 104 8 72 0
-484 -105 -9 0
-484 -105 -73 0
-484 105 9 73 0
-484 -106 -10 0
-484 -106 -74 0
-484 106 10 74 0
-484 -107 -11 0
-484 -107 -75 0
-484 107 11 75 0
-484 -108 -12 0
-484 -108 -76 0
-484 108 12 76 0
-484 -109 -13 0
-484 -109 -77 0
-484 109 13 77 0
-484 -110 -14 0
-484 -110 -78 0
-484 110 14 78 0
-484 -111 -15 0
-484 -111 -79 0
-484 111 15 79 0
-484 -112 -16 0
-484 -112 -80 0
-484 112 16 80 0
-484 -113 -17 0
-484 -113 -81 0
-484 113 17 81 0
-484 -114 -18 0
-484 -114 -82 0
-484 114 18 82 0
-484 -115 -19 0
-484 -115 -83 0
-484 115 19 83 0
-484 -116 -20 0
-484 -116 -84 0
-484 116 20 84 0
-484 -117 -21 0
-484 -117 -85 0
-484 117 21 85 0
-484 -118 -22 0
-484 -118 -86 0
-484 118 22 86 0
-484 -119 -23 0
-484 -119 -87 0
-484 119 23 87 0
-484 -120 -24 0
-484 -120 -88 0
-484 120 24 88 0
-484 -121 -25 0
-484 -121 -89 0
-484 121 25 89 0
-484 -122 -26 0
-484 -122 -90 0
-484 122 26 90 0
-484 -123 -27 0
-484 -123 -91 0
-484 123 27 91 0
-484 -124 -28 0
-484 -124 -92 0
-484 124 28 92 0
-484 -125 -29 0
-484 -125 -93 0
-484 125 29 93 0
-484 -126 -30 0
-484 -126 -94 0
-484 126 30 94 0
-484 -127 -31 0
-484 -127 -95 0
-484 127 31 95 0
-484 -128 -32 0
-484 -128 -96 0
-484 128 32 96 0
-485 -97 33 0
-485 -97 65 0
-485 97 -33 -65 0
-485 -98 34 0
-485 -98 66 0
-485 98 -34 -66 0
-485 -99 35 0
-485 -99 67 0
-485 99 -35 -67 0
-485 -100 36 0
-485 -100 68 0
-485 100 -36 -68 0
-485 -101 37 0
-485 -101 69 0
-485 101 -37 -69 0
-485 -102 38 0
-485 -102 70 0
-485 102 -38 -70 0
-485 -103 39 0
-485 -103 71 0
-485 103 -39 -71 0
-485 -104 40 0
-485 -104 72 0
-485 104 -40 -72 0
-485 -105 41 0
-485 -105 73 0
-485 105 -41 -73 0
-485 -106 42 0
-485 -106 74 0
-485 106 -42 -74 0
-485 -107 43 0
-485 -107 75 0
-485 107 -43 -75 0
-485 -108 44 0
-485 -108 76 0
-485 108 -44 -76 0
-485 -109 45 0
-485 -109 77 0
-485 109 -45 -77 0
-485 -110 46 0
-485 -110 78 0
-485 110 -46 -78 0
-485 -111 47 0
-485 -111 79 0
-485 111 -47 -79 0
-485 -112 48 0
-485 -112 80 0
-485 112 -48 -80 0
-485 -113 49 0
-485 -113 81 0
-485 113 -49 -81 0
-485 -114 50 0
-485 -114 82 0
-485 114 -50 -82 0
-485 -115 51 0
-485 -115 83 0
-485 115 -51 -83 0
-485 -116 52 0
-485 -116 84 0
-485 116 -52 -84 0
-485 -117 53 0
-485 -117 85 0
-485 117 -53 -85 0
-485 -118 54 0
-485 -118 86 0
-485 118 -54 -86 0
-485 -119 55 0
-485 -119 87 0
-485 119 -55 -87 0
-485 -120 56 0
-485 -120 88 0
-485 120 -56 -88 0
-485 -121 57 0
-485 -121 89 0
-485 121 -57 -89 0
-485 -122 58 0
-485 -122 90 0
-485 122 -58 -90 0
-485 -123 59 0
-485 -123 91 0
-485 123 -59 -91 0
-485 -124 60 0
-485 -124 92 0
-485 124 -60 -92 0
-485 -125 61 0
-485 -125 93 0
-485 125 -61 -93 0
-485 -126 62 0
-485 -126 94 0
-485 126 -62 -94 0
-485 -127 63 0
-485 -127 95 0
-485 127 -63 -95 0
-485 -128 64 0
-485 -128 96 0
-485 128 -64 -96 0
-486 -97 33 0
-486 -97 -65 0
-486 97 -33 65 0
-486 -98 34 0
-486 -98 -66 0
-486 98 -34 66 0
-486 -99 35 0
-486 -99 -67 0
-486 99 -35 67 0
-486 -100 36 0
-486 -100 -68 0
-486 100 -36 68 0
-486 -101 37 0
-486 -101 -69 0
-486 101 -37 69 0
-486 -102 38 0
-486 -102 -70 0
-486 102 -38 70 0
-486 -103 39 0
-486 -103 -71 0
-486 103 -39 71 0
-486 -104 40 0
-486 -104 -72 0
-486 104 -40 72 0
-486 -105 41 0
-486 -105 -73 0
-486 105 -41 73 0
-486 -106 42 0
-486 -106 -74 0
-486 106 -42 74 0
-486 -107 43 0
-486 -107 -75 0
-486 107 -43 75 0
-486 -108 44 0
-486 -108 -76 0
-486 108 -44 76 0
-486 -109 45 0
-486 -109 -77 0
-486 109 -45 77 0
-486 -110 46 0
-486 -110 -78 0
-486 110 -46 78 0
-486 -111 47 0
-486 -111 -79 0
-486 111 -47 79 0
-486 -112 48 0
-486 -112 -80 0
-486 112 -48 80 0
-486 -113 49 0
-486 -113 -81 0
-486 113 -49 81 0
-486 -114 50 0
-486 -114 -82 0
-486 114 -50 82 0
-486 -115 51 0
-486 -115 -83 0
-486 115 -51 83 0
-486 -116 52 0
-486 -116 -84 0
-486 116 -52 84 0
-486 -117 53 0
-486 -117 -85 0
-486 117 -53 85 0
-486 -118 54 0
-486 -118 -86 0
-486 118 -54 86 0
-486 -119 55 0
-486 -119 -87 0
-486 119 -55 87 0
-486 -120 56 0
-486 -120 -88 0
-486 120 -56 88 0
-486 -121 57 0
-486 -121 -89 0
-486 121 -57 89 0
-486 -122 58 0
-486 -122 -90 0
-486 122 -58 90 0
-486 -123 59 0
-486 -123 -91 0
-486 123 -59 91 0
-486 -124 60 0
-486 -124 -92 0
-486 124 -60 92 0
-486 -125 61 0
-486 -125 -93 0
-486 125 -61 93 0
-486 -126 62 0
-486 -126 -94 0
-486 126 -62 94 0
-486 -127 63 0
-486 -127 -95 0
-486 127 -63 95 0
-486 -128 64 0
-486 -128 -96 0
-486 128 -64 96 0
-487 -97 -33 0
-487 -97 65 0
-487 97 33 -65 0
-487 -98 -34 0
-487 -98 66 0
-487 98 34 -66 0
-487 -99 -35 0
-487 -99 67 0
-487 99 35 -67 0
-487 -100 -36 0
-487 -100 68 0
-487 100 36 -68 0
-487 -101 -37 0
-487 -101 69 0
-487 101 37 -69 0
-487 -102 -38 0
-487 -102 70 0
-487 102 38 -70 0
-487 -103 -39 0
-487 -103 71 0
-487 103 39 -71 0
-487 -104 -40 0
-487 -104 72 0
-487 104 40 -72 0
-487 -105 -41 0
-487 -105 73 0
-487 105 41 -73 0
-487 -106 -42 0
-487 -106 74 0
-487 106 42 -74 0
-487 -107 -43 0
-487 -107 75 0
-487 107 43 -75 0
-487 -108 -44 0
-487 -108 76 0
-487 108 44 -76 0
-487 -109 -45 0
-487 -109 77 0
-487 109 45 -77 0
-487 -110 -46 0
-487 -110 78 0
-487 110 46 -78 0
-487 -111 -47 0
-487 -111 79 0
-487 111 47 -79 0
-487 -112 -48 0
-487 -112 80 0
-487 112 48 -80 0
-487 -113 -49 0
-487 -113 81 0
-487 113 49 -81 0
-487 -114 -50 0
-487 -114 82 0
-487 114 50 -82 0
-487 -115 -51 0
-487 -115 83 0
-487 115 51 -83 0
-487 -116 -52 0
-487 -116 84 0
-487 116 52 -84 0
-487 -117 -53 0
-487 -117 85 0
-487 117 53 -85 0
-487 -118 -54 0
-487 -118 86 0
-487 118 54 -86 0
-487 -119 -55 0
-487 -119 87 0
-487 119 55 -87 0
-487 -120 -56 0
-487 -120 88 0
-487 120 56 -88 0
-487 -121 -57 0
-487 -121 89 0
-487 121 57 -89 0
-487 -122 -58 0
-487 -122 90 0
-487 122 58 -90 0
-487 -123 -59 0
-487 -123 91 0
-487 123 59 -91 0
-487 -124 -60 0
-487 -124 92 0
-487 124 60 -92 0
-487 -125 -61 0
-487 -125 93 0
-487 125 61 -93 0
-487 -126 -62 0
-487 -126 94 0
-487 126 62 -94 0
-487 -127 -63 0
-487 -127 95 0
-487 127 63 -95 0
-487 -128 -64 0
-487 -128 96 0
-487 128 64 -96 0
-488 -97 -33 0
-488 -97 -65 0
-488 97 33 65 0
-488 -98 -34 0
-488 -98 -66 0
-488 98 34 66 0
-488 -99 -35 0
-488 -99 -67 0
-488 99 35 67 0
-488 -100 -36 0
-488 -100 -68 0
-488 100 36 68 0
-488 -101 -37 0
-488 -101 -69 0
-488 101 37 69 0
-488 -102 -38 0
-488 -102 -70 0
-488 102 38 70 0
-488 -103 -39 0
-488 -103 -71 0
-488 103 39 71 0
-488 -104 -40 0
-488 -104 -72 0
-488 104 40 72 0
-488 -105 -41 0
-488 -105 -73 0
-488 105 41 73 0
-488 -106 -42 0
-488 -106 -74 0
-488 106 42 74 0
-488 -107 -43 0
-488 -107 -75 0
-488 107 43 75 0
-488 -108 -44 0
-488 -108 -76 0
-488 108 44 76 0
-488 -109 -45 0
-488 -109 -77 0
-488 109 45 77 0
-488 -110 -46 0
-488 -110 -78 0
-488 110 46 78 0
-488 -111 -47 0
-488 -111 -79 0
-488 111 47 79 0
-488 -112 -48 0
-488 -112 -80 0
-488 112 48 80 0
-488 -113 -49 0
-488 -113 -81 0
-488 113 49 81 0
-488 -114 -50 0
-488 -114 -82 0
-488 114 50 82 0
-488 -115 -51 0
-488 -115 -83 0
-488 115 51 83 0
-488 -116 -52 0
-488 -116 -84 0
-488 116 52 84 0
-488 -117 -53 0
-488 -117 -85 0
-488 117 53 85 0
-488 -118 -54 0
-488 -118 -86 0
-488 118 54 86 0
-488 -119 -55 0
-488 -119 -87 0
-488 119 55 87 0
-488 -120 -56 0
-488 -120 -88 0
-488 120 56 88 0
-488 -121 -57 0
-488 -121 -89 0
-488 121 57 89 0
-488 -122 -58 0
-488 -122 -90 0
-488 122 58 90 0
-488 -123 -59 0
-488 -123 -91 0
-488 123 59 91 0
-488 -124 -60 0
-488 -124 -92 0
-488 124 60 92 0
-488 -125 -61 0
-488 -125 -93 0
-488 125 61 93 0
-488 -126 -62 0
-488 -126 -94 0
-488 126 62 94 0
-488 -127 -63 0
-488 -127 -95 0
-488 127 63 95 0
-488 -128 -64 0
-488 -128 -96 0
-488 128 64 96 0
489 490 491 492 493 494 495 496 497 498 499 500 501 502 503 504 505 506 507 508 509 510 511 512 513 514 515 516 517 518 519 520 521 522 523 524 525 526 527 528 529 530 531 532 533 534 535 536 537 538 539 540 541 542 543 544 545 546 547 548 549 550 551 552 553 554 555 556 557 558 559 560 561 562 563 564 565 566 567 568 569 570 571 572 573 574 575 576 577 578 579 580 581 582 583 584 585 586 587 588 589 590 591 592 593 594 595 596 597 598 599 600 601 602 603 604 605 606 607 608 609 610 611 612 613 614 615 616 617 618 619 620 621 622 623 624 625 626 627 628 629 630 631 632 0
-489 -490 0
-489 -491 0
-489 -492 0
-489 -493 0
-489 -494 0
-489 -495 0
-489 -496 0
-489 -497 0
-489 -498 0
-489 -499 0
-489 -500 0
-489 -501 0
-489 -502 0
-489 -503 0
-489 -504 0
-489 -505 0
-489 -506 0
-489 -507 0
-489 -508 0
-489 -509 0
-489 -510 0
-489 -511 0
-489 -512 0
-489 -513 0
-489 -514 0
-489 -515 0
-489 -516 0
-489 -517 0
-489 -518 0
-489 -519 0
-489 -520 0
-489 -521 0
-489 -522 0
-489 -523 0
-489 -524 0
-489 -525 0
-489 -526 0
-489 -527 0
-489 -528 0
-489 -529 0
-489 -530 0
-489 -531 0
-489 -532 0
-489 -533 0
-489 -534 0
-489 -535 0
-489 -536 0
-489 -537 0
-489 -538 0
-489 -539 0
-489 -540 0
-489 -541 0
-489 -542 0
-489 -543 0
-489 -544 0
-489 -545 0
-489 -546 0
-489 -547 0
-489 -548 0
-489 -549 0
-489 -550 0
-489 -551 0
-489 -552 0
-489 -553 0
-489 -554 0
-489 -555 0
-489 -556 0
-489 -557 0
-489 -558 0
-489 -559 0
-489 -560 0
-489 -561 0
-489 -562 0
-489 -563 0
-489 -564 0
-489 -565 0
-489 -566 0
-489 -567 0
-489 -568 0
-489 -569 0
-489 -570 0
-489 -571 0
-489 -572 0
-489 -573 0
-489 -574 0
-489 -575 0
-489 -576 0
-489 -577 0
-489 -578 0
-489 -579 0
-489 -580 0
-489 -581 0
-489 -582 0
-489 -583 0
-489 -584 0
-489 -585 0
-489 -586 0
-489 -587 0
-489 -588 0
-489 -589 0
-489 -590 0
-489 -591 0
-489 -592 0
-489 -593 0
-489 -594 0
-489 -595 0
-489 -596 0
-489 -597 0
-489 -598 0
-489 -599 0
-489 -600 0
-489 -601 0
-489 -602 0
-489 -603 0
-489 -604 0
-489 -605 0
-489 -606 0
-489 -607 0
-489 -608 0
-489 -609 0
-489 -610 0
-489 -611 0
-489 -612 0
-489 -613 0
-489 -614 0
-489 -615 0
-489 -616 0
-489 -617 0
-489 -618 0
-489 -619 0
-489 -620 0
-489 -621 0
-489 -622 0
-489 -623 0
-489 -624 0
-489 -625 0
-489 -626 0
-489 -627 0
-489 -628 0
-489 -629 0
-489 -630 0
-489 -631 0
-489 -632 0
-490 -491 0
-490 -492 0
-490 -493 0
-490 -494 0
-490 -495 0
-490 -496 0
-490 -497 0
-490 -498 0
-490 -499 0
-490 -500 0
-490 -501 0
-490 -502 0
-490 -503 0
-490 -504 0
-490 -505 0
-490 -506 0
-490 -507 0
-490 -508 0
-490 -509 0
-490 -510 0
-490 -511 0
-490 -512 0
-490 -513 0
-490 -514 0
-490 -515 0
-490 -516 0
-490 -517 0
-490 -518 0
-490 -519 0
-490 -520 0
-490 -521 0
-490 -522 0
-490 -523 0
-490 -524 0
-490 -525 0
-490 -526 0
-490 -527 0
-490 -528 0
-490 -529 0
-490 -530 0
-490 -531 0
-490 -532 0
-490 -533 0
-490 -534 0
-490 -535 0
-490 -536 0
-490 -537 0
-490 -538 0
-490 -539 0
-490 -540 0
-490 -541 0
-490 -542 0
-490 -543 0
-490 -544 0
-490 -545 0
-490 -546 0
-490 -547 0
-490 -548 0
-490 -549 0
-490 -550 0
-490 -551 0
-490 -552 0
-490 -553 0
-490 -554 0
-490 -555 0
-490 -556 0
-490 -557 0
-490 -558 0
-490 -559 0
-490 -560 0
-490 -561 0
-490 -562 0
-490 -563 0
-490 -564 0
-490 -565 0
-490 -566 0
-490 -567 0
-490 -568 0
-490 -569 0
-490 -570 0
-490 -571 0
-490 -572 0
-490 -573 0
-490 -574 0
-490 -575 0
-490 -576 0
-490 -577 0
-490 -578 0
-490 -579 0
-490 -580 0
-490 -581 0
-490 -582 0
-490 -583 0
-490 -584 0
-490 -585 0
-490 -586 0
-490 -587 0
-490 -588 0
-490 -589 0
-490 -590 0
-490 -591 0
-490 -592 0
-490 -593 0
-490 -594 0
-490 -595 0
-490 -596 0
-490 -597 0
-490 -598 0
-490 -599 0
-490 -600 0
-490 -601 0
-490 -602 0
-490 -603 0
-490 -604 0
-490 -605 0
-490 -606 0
-490 -607 0
-490 -608 0
-490 -609 0
-490 -610 0
-490 -611 0
-490 -612 0
-490 -613 0
-490 -614 0
-490 -615 0
-490 -616 0
-490 -617 0
-490 -618 0
-490 -619 0
-490 -620 0
-490 -621 0
-490 -622 0
-490 -623 0
-490 -624 0
-490 -625 0
-490 -626 0
-490 -627 0
-490 -628 0
-490 -629 0
-490 -630 0
-490 -631 0
-490 -632 0
-491 -492 0
-491 -493 0
-491 -494 0
-491 -495 0
-491 -496 0
-491 -497 0
-491 -498 0
-491 -499 0
-491 -500 0
-491 -501 0
-491 -502 0
-491 -503 0
-491 -504 0
-491 -505 0
-491 -506 0
-491 -507 0
-491 -508 0
-491 -509 0
-491 -510 0
-491 -511 0
-491 -512 0
-491 -513 0
-491 -514 0
-491 -515 0
-491 -516 0
-491 -517 0
-491 -518 0
-491 -519 0
-491 -520 0
-491 -521 0
-491 -522 0
-491 -523 0
-491 -524 0
-491 -525 0
-491 -526 0
-491 -527 0
-491 -528 0
-491 -529 0
-491 -530 0
-491 -531 0
-491 -532 0
-491 -533 0
-491 -534 0
-491 -535 0
-491 -536 0
-491 -537 0
-491 -538 0
-491 -539 0
-491 -540 0
-491 -541 0
-491 -542 0
-491 -543 0
-491 -544 0
-491 -545 0
-491 -546 0
-491 -547 0
-491 -548 0
-491 -549 0
-491 -550 0
-491 -551 0
-491 -552 0
-491 -553 0
-491 -554 0
-491 -555 0
-491 -556 0
-491 -557 0
-491 -558 0
-491 -559 0
-491 -560 0
-491 -561 0
-491 -562 0
-491 -563 0
-491 -564 0
-491 -565 0
-491 -566 0
-491 -567 0
-491 -568 0
-491 -569 0
-491 -570 0
-491 -571 0
-491 -572 0
-491 -573 0
-491 -574 0
-491 -575 0
-491 -576 0
-491 -577 0
-491 -578 0
-491 -579 0
-491 -580 0
-491 -581 0
-491 -582 0
-491 -583 0
-491 -584 0
-491 -585 0
-491 -586 0
-491 -587 0
-491 -588 0
-491 -589 0
-491 -590 0
-491 -591 0
-491 -592 0
-491 -593 0
-491 -594 0
-491 -595 0
-491 -596 0
-491 -597 0
-491 -598 0
-491 -599 0
-491 -600 0
-491 -601 0
-491 -602 0
-491 -603 0
-491 -604 0
-491 -605 0
-491 -606 0
-491 -607 0
-491 -608 0
-491 -609 0
-491 -610 0
-491 -611 0
-491 -612 0
-491 -613 0
-491 -614 0
-491 -615 0
-491 -616 0
-491 -617 0
-491 -618 0
-491 -619 0
-491 -620 0
-491 -621 0
-491 -622 0
-491 -623 0
-491 -624 0
-491 -625 0
-491 -626 0
-491 -627 0
-491 -628 0
-491 -629 0
-491 -630 0
-491 -631 0
-491 -632 0
-492 -493 0
-492 -494 0
-492 -495 0
-492 -496 0
-492 -497 0
-492 -498 0
-492 -499 0
-492 -500 0
-492 -501 0
-492 -502 0
-492 -503 0
-492 -504 0
-492 -505 0
-492 -506 0
-492 -507 0
-492 -508 0
-492 -509 0
-492 -510 0
-492 -511 0
-492 -512 0
-492 -513 0
-492 -514 0
-492 -515 0
-492 -516 0
-492 -517 0
-492 -518 0
-492 -519 0
-492 -520 0
-492 -521 0
-492 -522 0
-492 -523 0
-492 -524 0
-492 -525 0
-492 -526 0
-492 -527 0
-492 -528 0
-492 -529 0
-492 -530 0
-492 -531 0
-492 -532 0
-492 -533 0
-492 -534 0
-492 -535 0
-492 -536 0
-492 -537 0
-492 -538 0
-492 -539 0
-492 -540 0
-492 -541 0
-492 -542 0
-492 -543 0
-492 -544 0
-492 -545 0
-492 -546 0
-492 -547 0
-492 -548 0
-492 -549 0
-492 -550 0
-492 -551 0
-492 -552 0
-492 -553 0
-492 -554 0
-492 -555 0
-492 -556 0
-492 -557 0
-492 -558 0
-492 -559 0
-492 -560 0
-492 -561 0
-492 -562 0
-492 -563 0
-492 -564 0
-492 -565 0
-492 -566 0
-492 -567 0
-492 -568 0
-492 -569 0
-492 -570 0
-492 -571 0
-492 -572 0
-492 -573 0
-492 -574 0
-492 -575 0
-492 -576 0
-492 -577 0
-492 -578 0
-492 -579 0
-492 -580 0
-492 -581 0
-492 -582 0
-492 -583 0
-492 -584 0
-492 -585 0
-492 -586 0
-492 -587 0
-492 -588 0
-492 -589 0
-492 -590 0
-492 -591 0
-492 -592 0
-492 -593 0
-492 -594 0
-492 -595 0
-492 -596 0
-492 -597 0
-492 -598 0
-492 -599 0
-492 -600 0
-492 -601 0
-492 -602 0
-492 -603 0
-492 -604 0
-492 -605 0
-492 -606 0
-492 -607 0
-492 -608 0
-492 -609 0
-492 -610 0
-492 -611 0
-492 -612 0
-492 -613 0
-492 -614 0
-492 -615 0
-492 -616 0
-492 -617 0
-492 -618 0
-492 -619 0
-492 -620 0
-492 -621 0
-492 -622 0
-492 -623 0
-492 -624 0
-492 -625 0
-492 -626 0
-492 -627 0
-492 -628 0
-492 -629 0
-492 -630 0
-492 -631 0
-492 -632 0
-493 -494 0
-493 -495 0
-493 -496 0
-493 -497 0
-493 -498 0
-493 -499 0
-493 -500 0
-493 -501 0
-493 -502 0
-493 -503 0
-493 -504 0
-493 -505 0
-493 -506 0
-493 -507 0
-493 -508 0
-493 -509 0
-493 -510 0
-493 -511 0
-493 -512 0
-493 -513 0
-493 -514 0
-493 -515 0
-493 -516 0
-493 -517 0
-493 -518 0
-493 -519 0
-493 -520 0
-493 -521 0
-493 -522 0
-493 -523 0
-493 -524 0
-493 -525 0
-493 -526 0
-493 -527 0
-493 -528 0
-493 -529 0
-493 -530 0
-493 -531 0
-493 -532 0
-493 -533 0
-493 -534 0
-493 -535 0
-493 -536 0
-493 -537 0
-493 -538 0
-493 -539 0
-493 -540 0
-493 -541 0
-493 -542 0
-493 -543 0
-493 -544 0
-493 -545 0
-493 -546 0
-493 -547 0
-493 -548 0
-493 -549 0
-493 -550 0
-493 -551 0
-493 -552 0
-493 -553 0
-493 -554 0
-493 -555 0
-493 -556 0
-493 -557 0
-493 -558 0
-493 -559 0
-493 -560 0
-493 -561 0
-493 -562 0
-493 -563 0
-493 -564 0
-493 -565 0
-493 -566 0
-493 -567 0
-493 -568 0
-493 -569 0
-493 -570 0
-493 -571 0
-493 -572 0
-493 -573 0
-493 -574 0
-493 -575 0
-493 -576 0
-493 -577 0
-493 -578 0
-493 -579 0
-493 -580 0
-493 -581 0
-493 -582 0
-493 -583 0
-493 -584 0
-493 -585 0
-493 -586 0
-493 -587 0
-493 -588 0
-493 -589 0
-493 -590 0
-493 -591 0
-493 -592 0
-493 -593 0
-493 -594 0
-493 -595 0
-493 -596 0
-493 -597 0
-493 -598 0
-493 -599 0
-493 -600 0
-493 -601 0
-493 -602 0
-493 -603 0
-493 -604 0
-493 -605 0
-493 -606 0
-493 -607 0
-493 -608 0
-493 -609 0
-493 -610 0
-493 -611 0
-493 -612 0
-493 -613 0
-493 -614 0
-493 -615 0
-493 -616 0
-493 -617 0
-493 -618 0
-493 -619 0
-493 -620 0
-493 -621 0
-493 -622 0
-493 -623 0
-493 -624 0
-493 -625 0
-493 -626 0
-493 -627 0
-493 -628 0
-493 -629 0
-493 -630 0
-493 -631 0
-493 -632 0
-494 -495 0
-494 -496 0
-494 -497 0
-494 -498 0
-494 -499 0
-494 -500 0
-494 -501 0
-494 -502 0
-494 -503 0
-494 -504 0
-494 -505 0
-494 -506 0
-494 -507 0
-494 -508 0
-494 -509 0
-494 -510 0
-494 -511 0
-494 -512 0
-494 -513 0
-494 -514 0
-494 -515 0
-494 -516 0
-494 -517 0
-494 -518 0
-494 -519 0
-494 -520 0
-494 -521 0
-494 -522 0
-494 -523 0
-494 -524 0
-494 -525 0
-494 -526 0
-494 -527 0
-494 -528 0
-494 -529 0
-494 -530 0
-494 -531 0
-494 -532 0
-494 -533 0
-494 -534 0
-494 -535 0
-494 -536 0
-494 -537 0
-494 -538 0
-494 -539 0
-494 -540 0
-494 -541 0
-494 -542 0
-494 -543 0
-494 -544 0
-494 -545 0
-494 -546 0
-494 -547 0
-494 -548 0
-494 -549 0
-494 -550 0
-494 -551 0
-494 -552 0
-494 -553 0
-494 -554 0
-494 -555 0
-494 -556 0
-494 -557 0
-494 -558 0
-494 -559 0
-494 -560 0
-494 -561 0
-494 -562 0
-494 -563 0
-494 -564 0
-494 -565 0
-494 -566 0
-494 -567 0
-494 -568 0
-494 -569 0
-494 -570 0
-494 -571 0
-494 -572 0
-494 -573 0
-494 -574 0
-494 -575 0
-494 -576 0
-494 -577 0
-494 -578 0
-494 -579 0
-494 -580 0
-494 -581 0
-494 -582 0
-494 -583 0
-494 -584 0
-494 -585 0
-494 -586 0
-494 -587 0
-494 -588 0
-494 -589 0
-494 -590 0
-494 -591 0
-494 -592 0
-494 -593 0
-494 -594 0
-494 -595 0
-494 -596 0
-494 -597 0
-494 -598 0
-494 -599 0
-494 -600 0
-494 -601 0
-494 -602 0
-494 -603 0
-494 -604 0
-494 -605 0
-494 -606 0
-494 -607 0
-494 -608 0
-494 -609 0
-494 -610 0
-494 -611 0
-494 -612 0
-494 -613 0
-494 -614 0
-494 -615 0
-494 -616 0
-494 -617 0
-494 -618 0
-494 -619 0
-494 -620 0
-494 -621 0
-494 -622 0
-494 -623 0
-494 -624 0
-494 -625 0
-494 -626 0
-494 -627 0
-494 -628 0
-494 -629 0
-494 -630 0
-494 -631 0
-494 -632 0
-495 -496 0
-495 -497 0
-495 -498 0
-495 -499 0
-495 -500 0
-495 -501 0
-495 -502 0
-495 -503 0
-495 -504 0
-495 -505 0
-495 -506 0
-495 -507 0
-495 -508 0
-495 -509 0
-495 -510 0
-495 -511 0
-495 -512 0
-495 -513 0
-495 -514 0
-495 -515 0
-495 -516 0
-495 -517 0
-495 -518 0
-495 -519 0
-495 -520 0
-495 -521 0
-495 -522 0
-495 -523 0
-495 -524 0
-495 -525 0
-495 -526 0
-495 -527 0
-495 -528 0
-495 -529 0
-495 -530 0
-495 -531 0
-495 -532 0
-495 -533 0
-495 -534 0
-495 -535 0
-495 -536 0
-495 -537 0
-495 -538 0
-495 -539 0
-495 -540 0
-495 -541 0
-495 -542 0
-495 -543 0
-495 -544 0
-495 -545 0
-495 -546 0
-495 -547 0
-495 -548 0
-495 -549 0
-495 -550 0
-495 -551 0
-495 -552 0
-495 -553 0
-495 -554 0
-495 -555 0
-495 -556 0
-495 -557 0
-495 -558 0
-495 -559 0
-495 -560 0
-495 -561 0
-495 -562 0
-495 -563 0
-495 -564 0
-495 -565 0
-495 -566 0
-495 -567 0
-495 -568 0
-495 -569 0
-495 -570 0
-495 -571 0
-495 -572 0
-495 -573 0
-495 -574 0
-495 -575 0
-495 -576 0
-495 -577 0
-495 -578 0
-495 -579 0
-495 -580 0
-495 -581 0
-495 -582 0
-495 -583 0
-495 -584 0
-495 -585 0
-495 -586 0
-495 -587 0
-495 -588 0
-495 -589 0
-495 -590 0
-495 -591 0
-495 -592 0
-495 -593 0
-495 -594 0
-495 -595 0
-495 -596 0
-495 -597 0
-495 -598 0
-495 -599 0
-495 -600 0
-495 -601 0
-495 -602 0
-495 -603 0
-495 -604 0
-495 -605 0
-495 -606 0
-495 -607 0
-495 -608 0
-495 -609 0
-495 -610 0
-495 -611 0
-495 -612 0
-495 -613 0
-495 -614 0
-495 -615 0
-495 -616 0
-495 -617 0
-495 -618 0
-495 -619 0
-495 -620 0
-495 -621 0
-495 -622 0
-495 -623 0
-495 -624 0
-495 -625 0
-495 -626 0
-495 -627 0
-495 -628 0
-495 -629 0
-495 -630 0
-495 -631 0
-495 -632 0
-496 -497 0
-496 -498 0
-496 -499 0
-496 -500 0
-496 -501 0
-496 -502 0
-496 -503 0
-496 -504 0
-496 -505 0
-496 -506 0
-496 -507 0
-496 -508 0
-496 -509 0
-496 -510 0
-496 -511 0
-496 -512 0
-496 -513 0
-496 -514 0
-496 -515 0
-496 -516 0
-496 -517 0
-496 -518 0
-496 -519 0
-496 -520 0
-496 -521 0
-496 -522 0
-496 -523 0
-496 -524 0
-496 -525 0
-496 -526 0
-496 -527 0
-496 -528 0
-496 -529 0
-496 -530 0
-496 -531 0
-496 -532 0
-496 -533 0
-496 -534 0
-496 -535 0
-496 -536 0
-496 -537 0
-496 -538 0
-496 -539 0
-496 -540 0
-496 -541 0
-496 -542 0
-496 -543 0
-496 -544 0
-496 -545 0
-496 -546 0
-496 -547 0
-496 -548 0
-496 -549 0
-496 -550 0
-496 -551 0
-496 -552 0
-496 -553 0
-496 -554 0
-496 -555 0
-496 -556 0
-496 -557 0
-496 -558 0
-496 -559 0
-496 -560 0
-496 -561 0
-496 -562 0
-496 -563 0
-496 -564 0
-496 -565 0
-496 -566 0
-496 -567 0
-496 -568 0
-496 -569 0
-496 -570 0
-496 -571 0
-496 -572 0
-496 -573 0
-496 -574 0
-496 -575 0
-496 -576 0
-496 -577 0
-496 -578 0
-496 -579 0
-496 -580 0
-496 -581 0
-496 -582 0
-496 -583 0
-496 -584 0
-496 -585 0
-496 -586 0
-496 -587 0
-496 -588 0
-496 -589 0
-496 -590 0
-496 -591 0
-496 -592 0
-496 -593 0
-496 -594 0
-496 -595 0
-496 -596 0
-496 -597 0
-496 -598 0
-496 -599 0
-496 -600 0
-496 -601 0
-496 -602 0
-496 -603 0
-496 -604 0
-496 -605 0
-496 -606 0
-496 -607 0
-496 -608 0
-496 -609 0
-496 -610 0
-496 -611 0
-496 -612 0
-496 -613 0
-496 -614 0
-496 -615 0
-496 -616 0
-496 -617 0
-496 -618 0
-496 -619 0
-496 -620 0
-496 -621 0
-496 -622 0
-496 -623 0
-496 -624 0
-496 -625 0
-496 -626 0
-496 -627 0
-496 -628 0
-496 -629 0
-496 -630 0
-496 -631 0
-496 -632 0
-497 -498 0
-497 -499 0
-497 -500 0
-497 -501 0
-497 -502 0
-497 -503 0
-497 -504 0
-497 -505 0
-497 -506 0
-497 -507 0
-497 -508 0
-497 -509 0
-497 -510 0
-497 -511 0
-497 -512 0
-497 -513 0
-497 -514 0
-497 -515 0
-497 -516 0
-497 -517 0
-497 -518 0
-497 -519 0
-497 -520 0
-497 -521 0
-497 -522 0
-497 -523 0
-497 -524 0
-497 -525 0
-497 -526 0
-497 -527 0
-497 -528 0
-497 -529 0
-497 -530 0
-497 -531 0
-497 -532 0
-497 -533 0
-497 -534 0
-497 -535 0
-497 -536 0
-497 -537 0
-497 -538 0
-497 -539 0
-497 -540 0
-497 -541 0
-497 -542 0
-497 -543 0
-497 -544 0
-497 -545 0
-497 -546 0
-497 -547 0
-497 -548 0
-497 -549 0
-497 -550 0
-497 -551 0
-497 -552 0
-497 -553 0
-497 -554 0
-497 -555 0
-497 -556 0
-497 -557 0
-497 -558 0
-497 -559 0
-497 -560 0
-497 -561 0
-497 -562 0
-497 -563 0
-497 -564 0
-497 -565 0
-497 -566 0
-497 -567 0
-497 -568 0
-497 -569 0
-497 -570 0
-497 -571 0
-497 -572 0
-497 -573 0
-497 -574 0
-497 -575 0
-497 -576 0
-497 -577 0
-497 -578 0
-497 -579 0
-497 -580 0
-497 -581 0
-497 -582 0
-497 -583 0
-497 -584 0
-497 -585 0
-497 -586 0
-497 -587 0
-497 -588 0
-497 -589 0
-497 -590 0
-497 -591 0
-497 -592 0
-497 -593 0
-497 -594 0
-497 -595 0
-497 -596 0
-497 -597 0
-497 -598 0
-497 -599 0
-497 -600 0
-497 -601 0
-497 -602 0
-497 -603 0
-497 -604 0
-497 -605 0
-497 -606 0
-497 -607 0
-497 -608 0
-497 -609 0
-497 -610 0
-497 -611 0
-497 -612 0
-497 -613 0
-497 -614 0
-497 -615 0
-497 -616 0
-497 -617 0
-497 -618 0
-497 -619 0
-497 -620 0
-497 -621 0
-497 -622 0
-497 -623 0
-497 -624 0
-497 -625 0
-497 -626 0
-497 -627 0
-497 -628 0
-497 -629 0
-497 -630 0
-497 -631 0
-497 -632 0
-498 -499 0
-498 -500 0
-498 -501 0
-498 -502 0
-498 -503 0
-498 -504 0
-498 -505 0
-498 -506 0
-498 -507 0
-498 -508 0
-498 -509 0
-498 -510 0
-498 -511 0
-498 -512 0
-498 -513 0
-498 -514 0
-498 -515 0
-498 -516 0
-498 -517 0
-498 -518 0
-498 -519 0
-498 -520 0
-498 -521 0
-498 -522 0
-498 -523 0
-498 -524 0
-498 -525 0
-498 -526 0
-498 -527 0
-498 -528 0
-498 -529 0
-498 -530 0
-498 -531 0
-498 -532 0
-498 -533 0
-498 -534 0
-498 -535 0
-498 -536 0
-498 -537 0
-498 -538 0
-498 -539 0
-498 -540 0
-498 -541 0
-498 -542 0
-498 -543 0
-498 -544 0
-498 -545 0
-498 -546 0
-498 -547 0
-498 -548 0
-498 -549 0
-498 -550 0
-498 -551 0
-498 -552 0
-498 -553 0
-498 -554 0
-498 -555 0
-498 -556 0
-498 -557 0
-498 -558 0
-498 -559 0
-498 -560 0
-498 -561 0
-498 -562 0
-498 -563 0
-498 -564 0
-498 -565 0
-498 -566 0
-498 -567 0
-498 -568 0
-498 -569 0
-498 -570 0
-498 -571 0
-498 -572 0
-498 -573 0
-498 -574 0
-498 -575 0
-498 -576 0
-498 -577 0
-498 -578 0
-498 -579 0
-498 -580 0
-498 -581 0
-498 -582 0
-498 -583 0
-498 -584 0
-498 -585 0
-498 -586 0
-498 -587 0
-498 -588 0
-498 -589 0
-498 -590 0
-498 -591 0
-498 -592 0
-498 -593 0
-498 -594 0
-498 -595 0
-498 -596 0
-498 -597 0
-498 -598 0
-498 -599 0
-498 -600 0
-498 -601 0
-498 -602 0
-498 -603 0
-498 -604 0
-498 -605 0
-498 -606 0
-498 -607 0
-498 -608 0
-498 -609 0
-498 -610 0
-498 -611 0
-498 -612 0
-498 -613 0
-498 -614 0
-498 -615 0
-498 -616 0
-498 -617 0
-498 -618 0
-498 -619 0
-498 -620 0
-498 -621 0
-498 -622 0
-498 -623 0
-498 -624 0
-498 -625 0
-498 -626 0
-498 -627 0
-498 -628 0
-498 -629 0
-498 -630 0
-498 -631 0
-498 -632 0
-499 -500 0
-499 -501 0
-499 -502 0
-499 -503 0
-499 -504 0
-499 -505 0
-499 -506 0
-499 -507 0
-499 -508 0
-499 -509 0
-499 -510 0
-499 -511 0
-499 -512 0
-499 -513 0
-499 -514 0
-499 -515 0
-499 -516 0
-499 -517 0
-499 -518 0
-499 -519 0
-499 -520 0
-499 -521 0
-499 -522 0
-499 -523 0
-499 -524 0
-499 -525 0
-499 -526 0
-499 -527 0
-499 -528 0
-499 -529 0
-499 -530 0
-499 -531 0
-499 -532 0
-499 -533 0
-499 -534 0
-499 -535 0
-499 -536 0
-499 -537 0
-499 -538 0
-499 -539 0
-499 -540 0
-499 -541 0
-499 -542 0
-499 -543 0
-499 -544 0
-499 -545 0
-499 -546 0
-499 -547 0
-499 -548 0
-499 -549 0
-499 -550 0
-499 -551 0
-499 -552 0
-499 -553 0
-499 -554 0
-499 -555 0
-499 -556 0
-499 -557 0
-499 -558 0
-499 -559 0
-499 -560 0
-499 -561 0
-499 -562 0
-499 -563 0
-499 -564 0
-499 -565 0
-499 -566 0
-499 -567 0
-499 -568 0
-499 -569 0
-499 -570 0
-499 -571 0
-499 -572 0
-499 -573 0
-499 -574 0
-499 -575 0
-499 -576 0
-499 -577 0
-499 -578 0
-499 -579 0
-499 -580 0
-499 -581 0
-499 -582 0
-499 -583 0
-499 -584 0
-499 -585 0
-499 -586 0
-499 -587 0
-499 -588 0
-499 -589 0
-499 -590 0
-499 -591 0
-499 -592 0
-499 -593 0
-499 -594 0
-499 -595 0
-499 -596 0
-499 -597 0
-499 -598 0
-499 -599 0
-499 -600 0
-499 -601 0
-499 -602 0
-499 -603 0
-499 -604 0
-499 -605 0
-499 -606 0
-499 -607 0
-499 -608 0
-499 -609 0
-499 -610 0
-499 -611 0
-499 -612 0
-499 -613 0
-499 -614 0
-499 -615 0
-499 -616 0
-499 -617 0
-499 -618 0
-499 -619 0
-499 -620 0
-499 -621 0
-499 -622 0
-499 -623 0
-499 -624 0
-499 -625 0
-499 -626 0
-499 -627 0
-499 -628 0
-499 -629 0
-499 -630 0
-499 -631 0
-499 -632 0
-500 -501 0
-500 -502 0
-500 -503 0
-500 -504 0
-500 -505 0
-500 -506 0
-500 -507 0
-500 -508 0
-500 -509 0
-500 -510 0
-500 -511 0
-500 -512 0
-500 -513 0
-500 -514 0
-500 -515 0
-500 -516 0
-500 -517 0
-500 -518 0
-500 -519 0
-500 -520 0
-500 -521 0
-500 -522 0
-500 -523 0
-500 -524 0
-500 -525 0
-500 -526 0
-500 -527 0
-500 -528 0
-500 -529 0
-500 -530 0
-500 -531 0
-500 -532 0
-500 -533 0
-500 -534 0
-500 -535 0
-500 -536 0
-500 -537 0
-500 -538 0
-500 -539 0
-500 -540 0
-500 -541 0
-500 -542 0
-500 -543 0
-500 -544 0
-500 -545 0
-500 -546 0
-500 -547 0
-500 -548 0
-500 -549 0
-500 -550 0
-500 -551 0
-500 -552 0
-500 -553 0
-500 -554 0
-500 -555 0
-500 -556 0
-500 -557 0
-500 -558 0
-500 -559 0
-500 -560 0
-500 -561 0
-500 -562 0
-500 -563 0
-500 -564 0
-500 -565 0
-500 -566 0
-500 -567 0
-500 -568 0
-500 -569 0
-500 -570 0
-500 -571 0
-500 -572 0
-500 -573 0
-500 -574 0
-500 -575 0
-500 -576 0
-500 -577 0
-500 -578 0
-500 -579 0
-500 -580 0
-500 -581 0
-500 -582 0
-500 -583 0
-500 -584 0
-500 -585 0
-500 -586 0
-500 -587 0
-500 -588 0
-500 -589 0
-500 -590 0
-500 -591 0
-500 -592 0
-500 -593 0
-500 -594 0
-500 -595 0
-500 -596 0
-500 -597 0
-500 -598 0
-500 -599 0
-500 -600 0
-500 -601 0
-500 -602 0
-500 -603 0
-500 -604 0
-500 -605 0
-500 -606 0
-500 -607 0
-500 -608 0
-500 -609 0
-500 -610 0
-500 -611 0
-500 -612 0
-500 -613 0
-500 -614 0
-500 -615 0
-500 -616 0
-500 -617 0
-500 -618 0
-500 -619 0
-500 -620 0
-500 -621 0
-500 -622 0
-500 -623 0
-500 -624 0
-500 -625 0
-500 -626 0
-500 -627 0
-500 -628 0
-500 -629 0
-500 -630 0
-500 -631 0
-500 -632 0
-501 -502 0
-501 -503 0
-501 -504 0
-501 -505 0
-501 -506 0
-501 -507 0
-501 -508 0
-501 -509 0
-501 -510 0
-501 -511 0
-501 -512 0
-501 -513 0
-501 -514 0
-501 -515 0
-501 -516 0
-501 -517 0
-501 -518 0
-501 -519 0
-501 -520 0
-501 -521 0
-501 -522 0
-501 -523 0
-501 -524 0
-501 -525 0
-501 -526 0
-501 -527 0
-501 -528 0
-501 -529 0
-501 -530 0
-501 -531 0
-501 -532 0
-501 -533 0
-501 -534 0
-501 -535 0
-501 -536 0
-501 -537 0
-501 -538 0
-501 -539 0
-501 -540 0
-501 -541 0
-501 -542 0
-501 -543 0
-501 -544 0
-501 -545 0
-501 -546 0
-501 -547 0
-501 -548 0
-501 -549 0
-501 -550 0
-501 -551 0
-501 -552 0
-501 -553 0
-501 -554 0
-501 -555 0
-501 -556 0
-501 -557 0
-501 -558 0
-501 -559 0
-501 -560 0
-501 -561 0
-501 -562 0
-501 -563 0
-501 -564 0
-501 -565 0
-501 -566 0
-501 -567 0
-501 -568 0
-501 -569 0
-501 -570 0
-501 -571 0
-501 -572 0
-501 -573 0
-501 -574 0
-501 -575 0
-501 -576 0
-501 -577 0
-501 -578 0
-501 -579 0
-501 -580 0
-501 -581 0
-501 -582 0
-501 -583 0
-501 -584 0
-501 -585 0
-501 -586 0
-501 -587 0
-501 -588 0
-501 -589 0
-501 -590 0
-501 -591 0
-501 -592 0
-501 -593 0
-501 -594 0
-501 -595 0
-501 -596 0
-501 -597 0
-501 -598 0
-501 -599 0
-501 -600 0
-501 -601 0
-501 -602 0
-501 -603 0
-501 -604 0
-501 -605 0
-501 -606 0
-501 -607 0
-501 -608 0
-501 -609 0
-501 -610 0
-501 -611 0
-501 -612 0
-501 -613 0
-501 -614 0
-501 -615 0
-501 -616 0
-501 -617 0
-501 -618 0
-501 -619 0
-501 -620 0
-501 -621 0
-501 -622 0
-501 -623 0
-501 -624 0
-501 -625 0
-501 -626 0
-501 -627 0
-501 -628 0
-501 -629 0
-501 -630 0
-501 -631 0
-501 -632 0
-502 -503 0
-502 -504 0
-502 -505 0
-502 -506 0
-502 -507 0
-502 -508 0
-502 -509 0
-502 -510 0
-502 -511 0
-502 -512 0
-502 -513 0
-502 -514 0
-502 -515 0
-502 -516 0
-502 -517 0
-502 -518 0
-502 -519 0
-502 -520 0
-502 -521 0
-502 -522 0
-502 -523 0
-502 -524 0
-502 -525 0
-502 -526 0
-502 -527 0
-502 -528 0
-502 -529 0
-502 -530 0
-502 -531 0
-502 -532 0
-502 -533 0
-502 -534 0
-502 -535 0
-502 -536 0
-502 -537 0
-502 -538 0
-502 -539 0
-502 -540 0
-502 -541 0
-502 -542 0
-502 -543 0
-502 -544 0
-502 -545 0
-502 -546 0
-502 -547 0
-502 -548 0
-502 -549 0
-502 -550 0
-502 -551 0
-502 -552 0
-502 -553 0
-502 -554 0
-502 -555 0
-502 -556 0
-502 -557 0
-502 -558 0
-502 -559 0
-502 -560 0
-502 -561 0
-502 -562 0
-502 -563 0
-502 -564 0
-502 -565 0
-502 -566 0
-502 -567 0
-502 -568 0
-502 -569 0
-502 -570 0
-502 -571 0
-502 -572 0
-502 -573 0
-502 -574 0
-502 -575 0
-502 -576 0
-502 -577 0
-502 -578 0
-502 -579 0
-502 -580 0
-502 -581 0
-502 -582 0
-502 -583 0
-502 -584 0
-502 -585 0
-502 -586 0
-502 -587 0
-502 -588 0
-502 -589 0
-502 -590 0
-502 -591 0
-502 -592 0
-502 -593 0
-502 -594 0
-502 -595 0
-502 -596 0
-502 -597 0
-502 -598 0
-502 -599 0
-502 -600 0
-502 -601 0
-502 -602 0
-502 -603 0
-502 -604 0
-502 -605 0
-502 -606 0
-502 -607 0
-502 -608 0
-502 -609 0
-502 -610 0
-502 -611 0
-502 -612 0
-502 -613 0
-502 -614 0
-502 -615 0
-502 -616 0
-502 -617 0
-502 -618 0
-502 -619 0
-502 -620 0
-502 -621 0
-502 -622 0
-502 -623 0
-502 -624 0
-502 -625 0
-502 -626 0
-502 -627 0
-502 -628 0
-502 -629 0
-502 -630 0
-502 -631 0
-502 -632 0
-503 -504 0
-503 -505 0
-503 -506 0
-503 -507 0
-503 -508 0
-503 -509 0
-503 -510 0
-503 -511 0
-503 -512 0
-503 -513 0
-503 -514 0
-503 -515 0
-503 -516 0
-503 -517 0
-503 -518 0
-503 -519 0
-503 -520 0
-503 -521 0
-503 -522 0
-503 -523 0
-503 -524 0
-503 -525 0
-503 -526 0
-503 -527 0
-503 -528 0
-503 -529 0
-503 -530 0
-503 -531 0
-503 -532 0
-503 -533 0
-503 -534 0
-503 -535 0
-503 -536 0
-503 -537 0
-503 -538 0
-503 -539 0
-503 -540 0
-503 -541 0
-503 -542 0
-503 -543 0
-503 -544 0
-503 -545 0
-503 -546 0
-503 -547 0
-503 -548 0
-503 -549 0
-503 -550 0
-503 -551 0
-503 -552 0
-503 -553 0
-503 -554 0
-503 -555 0
-503 -556 0
-503 -557 0
-503 -558 0
-503 -559 0
-503 -560 0
-503 -561 0
-503 -562 0
-503 -563 0
-503 -564 0
-503 -565 0
-503 -566 0
-503 -567 0
-503 -568 0
-503 -569 0
-503 -570 0
-503 -571 0
-503 -572 0
-503 -573 0
-503 -574 0
-503 -575 0
-503 -576 0
-503 -577 0
-503 -578 0
-503 -579 0
-503 -580 0
-503 -581 0
-503 -582 0
-503 -583 0
-503 -584 0
-503 -585 0
-503 -586 0
-503 -587 0
-503 -588 0
-503 -589 0
-503 -590 0
-503 -591 0
-503 -592 0
-503 -593 0
-503 -594 0
-503 -595 0
-503 -596 0
-503 -597 0
-503 -598 0
-503 -599 0
-503 -600 0
-503 -601 0
-503 -602 0
-503 -603 0
-503 -604 0
-503 -605 0
-503 -606 0
-503 -607 0
-503 -608 0
-503 -609 0
-503 -610 0
-503 -611 0
-503 -612 0
-503 -613 0
-503 -614 0
-503 -615 0
-503 -616 0
-503 -617 0
-503 -618 0
-503 -619 0
-503 -620 0
-503 -621 0
-503 -622 0
-503 -623 0
-503 -624 0
-503 -625 0
-503 -626 0
-503 -627 0
-503 -628 0
-503 -629 0
-503 -630 0
-503 -631 0
-503 -632 0
-504 -505 0
-504 -506 0
-504 -507 0
-504 -508 0
-504 -509 0
-504 -510 0
-504 -511 0
-504 -512 0
-504 -513 0
-504 -514 0
-504 -515 0
-504 -516 0
-504 -517 0
-504 -518 0
-504 -519 0
-504 -520 0
-504 -521 0
-504 -522 0
-504 -523 0
-504 -524 0
-504 -525 0
-504 -526 0
-504 -527 0
-504 -528 0
-504 -529 0
-504 -530 0
-504 -531 0
-504 -532 0
-504 -533 0
-504 -534 0
-504 -535 0
-504 -536 0
-504 -537 0
-504 -538 0
-504 -539 0
-504 -540 0
-504 -541 0
-504 -542 0
-504 -543 0
-504 -544 0
-504 -545 0
-504 -546 0
-504 -547 0
-504 -548 0
-504 -549 0
-504 -550 0
-504 -551 0
-504 -552 0
-504 -553 0
-504 -554 0
-504 -555 0
-504 -556 0
-504 -557 0
-504 -558 0
-504 -559 0
-504 -560 0
-504 -561 0
-504 -562 0
-504 -563 0
-504 -564 0
-504 -565 0
-504 -566 0
-504 -567 0
-504 -568 0
-504 -569 0
-504 -570 0
-504 -571 0
-504 -572 0
-504 -573 0
-504 -574 0
-504 -575 0
-504 -576 0
-504 -577 0
-504 -578 0
-504 -579 0
-504 -580 0
-504 -581 0
-504 -582 0
-504 -583 0
-504 -584 0
-504 -585 0
-504 -586 0
-504 -587 0
-504 -588 0
-504 -589 0
-504 -590 0
-504 -591 0
-504 -592 0
-504 -593 0
-504 -594 0
-504 -595 0
-504 -596 0
-504 -597 0
-504 -598 0
-504 -599 0
-504 -600 0
-504 -601 0
-504 -602 0
-504 -603 0
-504 -604 0
-504 -605 0
-504 -606 0
-504 -607 0
-504 -608 0
-504 -609 0
-504 -610 0
-504 -611 0
-504 -612 0
-504 -613 0
-504 -614 0
-504 -615 0
-504 -616 0
-504 -617 0
-504 -618 0
-504 -619 0
-504 -620 0
-504 -621 0
-504 -622 0
-504 -623 0
-504 -624 0
-504 -625 0
-504 -626 0
-504 -627 0
-504 -628 0
-504 -629 0
-504 -630 0
-504 -631 0
-504 -632 0
-505 -506 0
-505 -507 0
-505 -508 0
-505 -509 0
-505 -510 0
-505 -511 0
-505 -512 0
-505 -513 0
-505 -514 0
-505 -515 0
-505 -516 0
-505 -517 0
-505 -518 0
-505 -519 0
-505 -520 0
-505 -521 0
-505 -522 0
-505 -523 0
-505 -524 0
-505 -525 0
-505 -526 0
-505 -527 0
-505 -528 0
-505 -529 0
-505 -530 0
-505 -531 0
-505 -532 0
-505 -533 0
-505 -534 0
-505 -535 0
-505 -536 0
-505 -537 0
-505 -538 0
-505 -539 0
-505 -540 0
-505 -541 0
-505 -542 0
-505 -543 0
-505 -544 0
-505 -545 0
-505 -546 0
-505 -547 0
-505 -548 0
-505 -549 0
-505 -550 0
-505 -551 0
-505 -552 0
-505 -553 0
-505 -554 0
-505 -555 0
-505 -556 0
-505 -557 0
-505 -558 0
-505 -559 0
-505 -560 0
-505 -561 0
-505 -562 0
-505 -563 0
-505 -564 0
-505 -565 0
-505 -566 0
-505 -567 0
-505 -568 0
-505 -569 0
-505 -570 0
-505 -571 0
-505 -572 0
-505 -573 0
-505 -574 0
-505 -575 0
-505 -576 0
-505 -577 0
-505 -578 0
-505 -579 0
-505 -580 0
-505 -581 0
-505 -582 0
-505 -583 0
-505 -584 0
-505 -585 0
-505 -586 0
-505 -587 0
-505 -588 0
-505 -589 0
-505 -590 0
-505 -591 0
-505 -592 0
-505 -593 0
-505 -594 0
-505 -595 0
-505 -596 0
-505 -597 0
-505 -598 0
-505 -599 0
-505 -600 0
-505 -601 0
-505 -602 0
-505 -603 0
-505 -604 0
-505 -605 0
-505 -606 0
-505 -607 0
-505 -608 0
-505 -609 0
-505 -610 0
-505 -611 0
-505 -612 0
-505 -613 0
-505 -614 0
-505 -615 0
-505 -616 0
-505 -617 0
-505 -618 0
-505 -619 0
-505 -620 0
-505 -621 0
-505 -622 0
-505 -623 0
-505 -624 0
-505 -625 0
-505 -626 0
-505 -627 0
-505 -628 0
-505 -629 0
-505 -630 0
-505 -631 0
-505 -632 0
-506 -507 0
-506 -508 0
-506 -509 0
-506 -510 0
-506 -511 0
-506 -512 0
-506 -513 0
-506 -514 0
-506 -515 0
-506 -516 0
-506 -517 0
-506 -518 0
-506 -519 0
-506 -520 0
-506 -521 0
-506 -522 0
-506 -523 0
-506 -524 0
-506 -525 0
-506 -526 0
-506 -527 0
-506 -528 0
-506 -529 0
-506 -530 0
-506 -531 0
-506 -532 0
-506 -533 0
-506 -534 0
-506 -535 0
-506 -536 0
-506 -537 0
-506 -538 0
-506 -539 0
-506 -540 0
-506 -541 0
-506 -542 0
-506 -543 0
-506 -544 0
-506 -545 0
-506 -546 0
-506 -547 0
-506 -548 0
-506 -549 0
-506 -550 0
-506 -551 0
-506 -552 0
-506 -553 0
-506 -554 0
-506 -555 0
-506 -556 0
-506 -557 0
-506 -558 0
-506 -559 0
-506 -560 0
-506 -561 0
-506 -562 0
-506 -563 0
-506 -564 0
-506 -565 0
-506 -566 0
-506 -567 0
-506 -568 0
-506 -569 0
-506 -570 0
-506 -571 0
-506 -572 0
-506 -573 0
-506 -574 0
-506 -575 0
-506 -576 0
-506 -577 0
-506 -578 0
-506 -579 0
-506 -580 0
-506 -581 0
-506 -582 0
-506 -583 0
-506 -584 0
-506 -585 0
-506 -586 0
-506 -587 0
-506 -588 0
-506 -589 0
-506 -590 0
-506 -591 0
-506 -592 0
-506 -593 0
-506 -594 0
-506 -595 0
-506 -596 0
-506 -597 0
-506 -598 0
-506 -599 0
-506 -600 0
-506 -601 0
-506 -602 0
-506 -603 0
-506 -604 0
-506 -605 0
-506 -606 0
-506 -607 0
-506 -608 0
-506 -609 0
-506 -610 0
-506 -611 0
-506 -612 0
-506 -613 0
-506 -614 0
-506 -615 0
-506 -616 0
-506 -617 0
-506 -618 0
-506 -619 0
-506 -620 0
-506 -621 0
-506 -622 0
-506 -623 0
-506 -624 0
-506 -625 0
-506 -626 0
-506 -627 0
-506 -628 0
-506 -629 0
-506 -630 0
-506 -631 0
-506 -632 0
-507 -508 0
-507 -509 0
-507 -510 0
-507 -511 0
-507 -512 0
-507 -513 0
-507 -514 0
-507 -515 0
-507 -516 0
-507 -517 0
-507 -518 0
-507 -519 0
-507 -520 0
-507 -521 0
-507 -522 0
-507 -523 0
-507 -524 0
-507 -525 0
-507 -526 0
-507 -527 0
-507 -528 0
-507 -529 0
-507 -530 0
-507 -531 0
-507 -532 0
-507 -533 0
-507 -534 0
-507 -535 0
-507 -536 0
-507 -537 0
-507 -538 0
-507 -539 0
-507 -540 0
-507 -541 0
-507 -542 0
-507 -543 0
-507 -544 0
-507 -545 0
-507 -546 0
-507 -547 0
-507 -548 0
-507 -549 0
-507 -550 0
-507 -551 0
-507 -552 0
-507 -553 0
-507 -554 0
-507 -555 0
-507 -556 0
-507 -557 0
-507 -558 0
-507 -559 0
-507 -560 0
-507 -561 0
-507 -562 0
-507 -563 0
-507 -564 0
-507 -565 0
-507 -566 0
-507 -567 0
-507 -568 0
-507 -569 0
-507 -570 0
-507 -571 0
-507 -572 0
-507 -573 0
-507 -574 0
-507 -575 0
-507 -576 0
-507 -577 0
-507 -578 0
-507 -579 0
-507 -580 0
-507 -581 0
-507 -582 0
-507 -583 0
-507 -584 0
-507 -585 0
-507 -586 0
-507 -587 0
-507 -588 0
-507 -589 0
-507 -590 0
-507 -591 0
-507 -592 0
-507 -593 0
-507 -594 0
-507 -595 0
-507 -596 0
-507 -597 0
-507 -598 0
-507 -599 0
-507 -600 0
-507 -601 0
-507 -602 0
-507 -603 0
-507 -604 0
-507 -605 0
-507 -606 0
-507 -607 0
-507 -608 0
-507 -609 0
-507 -610 0
-507 -611 0
-507 -612 0
-507 -613 0
-507 -614 0
-507 -615 0
-507 -616 0
-507 -617 0
-507 -618 0
-507 -619 0
-507 -620 0
-507 -621 0
-507 -622 0
-507 -623 0
-507 -624 0
-507 -625 0
-507 -626 0
-507 -627 0
-507 -628 0
-507 -629 0
-507 -630 0
-507 -631 0
-507 -632 0
-508 -509 0
-508 -510 0
-508 -511 0
-508 -512 0
-508 -513 0
-508 -514 0
-508 -515 0
-508 -516 0
-508 -517 0
-508 -518 0
-508 -519 0
-508 -520 0
-508 -521 0
-508 -522 0
-508 -523 0
-508 -524 0
-508 -525 0
-508 -526 0
-508 -527 0
-508 -528 0
-508 -529 0
-508 -530 0
-508 -531 0
-508 -532 0
-508 -533 0
-508 -534 0
-508 -535 0
-508 -536 0
-508 -537 0
-508 -538 0
-508 -539 0
-508 -540 0
-508 -541 0
-508 -542 0
-508 -543 0
-508 -544 0
-508 -545 0
-508 -546 0
-508 -547 0
-508 -548 0
-508 -549 0
-508 -550 0
-508 -551 0
-508 -552 0
-508 -553 0
-508 -554 0
-508 -555 0
-508 -556 0
-508 -557 0
-508 -558 0
-508 -559 0
-508 -560 0
-508 -561 0
-508 -562 0
-508 -563 0
-508 -564 0
-508 -565 0
-508 -566 0
-508 -567 0
-508 -568 0
-508 -569 0
-508 -570 0
-508 -571 0
-508 -572 0
-508 -573 0
-508 -574 0
-508 -575 0
-508 -576 0
-508 -577 0
-508 -578 0
-508 -579 0
-508 -580 0
-508 -581 0
-508 -582 0
-508 -583 0
-508 -584 0
-508 -585 0
-508 -586 0
-508 -587 0
-508 -588 0
-508 -589 0
-508 -590 0
-508 -591 0
-508 -592 0
-508 -593 0
-508 -594 0
-508 -595 0
-508 -596 0
-508 -597 0
-508 -598 0
-508 -599 0
-508 -600 0
-508 -601 0
-508 -602 0
-508 -603 0
-508 -604 0
-508 -605 0
-508 -606 0
-508 -607 0
-508 -608 0
-508 -609 0
-508 -610 0
-508 -611 0
-508 -612 0
-508 -613 0
-508 -614 0
-508 -615 0
-508 -616 0
-508 -617 0
-508 -618 0
-508 -619 0
-508 -620 0
-508 -621 0
-508 -622 0
-508 -623 0
-508 -624 0
-508 -625 0
-508 -626 0
-508 -627 0
-508 -628 0
-508 -629 0
-508 -630 0
-508 -631 0
-508 -632 0
-509 -510 0
-509 -511 0
-509 -512 0
-509 -513 0
-509 -514 0
-509 -515 0
-509 -516 0
-509 -517 0
-509 -518 0
-509 -519 0
-509 -520 0
-509 -521 0
-509 -522 0
-509 -523 0
-509 -524 0
-509 -525 0
-509 -526 0
-509 -527 0
-509 -528 0
-509 -529 0
-509 -530 0
-509 -531 0
-509 -532 0
-509 -533 0
-509 -534 0
-509 -535 0
-509 -536 0
-509 -537 0
-509 -538 0
-509 -539 0
-509 -540 0
-509 -541 0
-509 -542 0
-509 -543 0
-509 -544 0
-509 -545 0
-509 -546 0
-509 -547 0
-509 -548 0
-509 -549 0
-509 -550 0
-509 -551 0
-509 -552 0
-509 -553 0
-509 -554 0
-509 -555 0
-509 -556 0
-509 -557 0
-509 -558 0
-509 -559 0
-509 -560 0
-509 -561 0
-509 -562 0
-509 -563 0
-509 -564 0
-509 -565 0
-509 -566 0
-509 -567 0
-509 -568 0
-509 -569 0
-509 -570 0
-509 -571 0
-509 -572 0
-509 -573 0
-509 -574 0
-509 -575 0
-509 -576 0
-509 -577 0
-509 -578 0
-509 -579 0
-509 -580 0
-509 -581 0
-509 -582 0
-509 -583 0
-509 -584 0
-509 -585 0
-509 -586 0
-509 -587 0
-509 -588 0
-509 -589 0
-509 -590 0
-509 -591 0
-509 -592 0
-509 -593 0
-509 -594 0
-509 -595 0
-509 -596 0
-509 -597 0
-509 -598 0
-509 -599 0
-509 -600 0
-509 -601 0
-509 -602 0
-509 -603 0
-509 -604 0
-509 -605 0
-509 -606 0
-509 -607 0
-509 -608 0
-509 -609 0
-509 -610 0
-509 -611 0
-509 -612 0
-509 -613 0
-509 -614 0
-509 -615 0
-509 -616 0
-509 -617 0
-509 -618 0
-509 -619 0
-509 -620 0
-509 -621 0
-509 -622 0
-509 -623 0
-509 -624 0
-509 -625 0
-509 -626 0
-509 -627 0
-509 -628 0
-509 -629 0
-509 -630 0
-509 -631 0
-509 -632 0
-510 -511 0
-510 -512 0
-510 -513 0
-510 -514 0
-510 -515 0
-510 -516 0
-510 -517 0
-510 -518 0
-510 -519 0
-510 -520 0
-510 -521 0
-510 -522 0
-510 -523 0
-510 -524 0
-510 -525 0
-510 -526 0
-510 -527 0
-510 -528 0
-510 -529 0
-510 -530 0
-510 -531 0
-510 -532 0
-510 -533 0
-510 -534 0
-510 -535 0
-510 -536 0
-510 -537 0
-510 -538 0
-510 -539 0
-510 -540 0
-510 -541 0
-510 -542 0
-510 -543 0
-510 -544 0
-510 -545 0
-510 -546 0
-510 -547 0
-510 -548 0
-510 -549 0
-510 -550 0
-510 -551 0
-510 -552 0
-510 -553 0
-510 -554 0
-510 -555 0
-510 -556 0
-510 -557 0
-510 -558 0
-510 -559 0
-510 -560 0
-510 -561 0
-510 -562 0
-510 -563 0
-510 -564 0
-510 -565 0
-510 -566 0
-510 -567 0
-510 -568 0
-510 -569 0
-510 -570 0
-510 -571 0
-510 -572 0
-510 -573 0
-510 -574 0
-510 -575 0
-510 -576 0
-510 -577 0
-510 -578 0
-510 -579 0
-510 -580 0
-510 -581 0
-510 -582 0
-510 -583 0
-510 -584 0
-510 -585 0
-510 -586 0
-510 -587 0
-510 -588 0
-510 -589 0
-510 -590 0
-510 -591 0
-510 -592 0
-510 -593 0
-510 -594 0
-510 -595 0
-510 -596 0
-510 -597 0
-510 -598 0
-510 -599 0
-510 -600 0
-510 -601 0
-510 -602 0
-510 -603 0
-510 -604 0
-510 -605 0
-510 -606 0
-510 -607 0
-510 -608 0
-510 -609 0
-510 -610 0
-510 -611 0
-510 -612 0
-510 -613 0
-510 -614 0
-510 -615 0
-510 -616 0
-510 -617 0
-510 -618 0
-510 -619 0
-510 -620 0
-510 -621 0
-510 -622 0
-510 -623 0
-510 -624 0
-510 -625 0
-510 -626 0
-510 -627 0
-510 -628 0
-510 -629 0
-510 -630 0
-510 -631 0
-510 -632 0
-511 -512 0
-511 -513 0
-511 -514 0
-511 -515 0
-511 -516 0
-511 -517 0
-511 -518 0
-511 -519 0
-511 -520 0
-511 -521 0
-511 -522 0
-511 -523 0
-511 -524 0
-511 -525 0
-511 -526 0
-511 -527 0
-511 -528 0
-511 -529 0
-511 -530 0
-511 -531 0
-511 -532 0
-511 -533 0
-511 -534 0
-511 -535 0
-511 -536 0
-511 -537 0
-511 -538 0
-511 -539 0
-511 -540 0
-511 -541 0
-511 -542 0
-511 -543 0
-511 -544 0
-511 -545 0
-511 -546 0
-511 -547 0
-511 -548 0
-511 -549 0
-511 -550 0
-511 -551 0
-511 -552 0
-511 -553 0
-511 -554 0
-511 -555 0
-511 -556 0
-511 -557 0
-511 -558 0
-511 -559 0
-511 -560 0
-511 -561 0
-511 -562 0
-511 -563 0
-511 -564 0
-511 -565 0
-511 -566 0
-511 -567 0
-511 -568 0
-511 -569 0
-511 -570 0
-511 -571 0
-511 -572 0
-511 -573 0
-511 -574 0
-511 -575 0
-511 -576 0
-511 -577 0
-511 -578 0
-511 -579 0
-511 -580 0
-511 -581 0
-511 -582 0
-511 -583 0
-511 -584 0
-511 -585 0
-511 -586 0
-511 -587 0
-511 -588 0
-511 -589 0
-511 -590 0
-511 -591 0
-511 -592 0
-511 -593 0
-511 -594 0
-511 -595 0
-511 -596 0
-511 -597 0
-511 -598 0
-511 -599 0
-511 -600 0
-511 -601 0
-511 -602 0
-511 -603 0
-511 -604 0
-511 -605 0
-511 -606 0
-511 -607 0
-511 -608 0
-511 -609 0
-511 -610 0
-511 -611 0
-511 -612 0
-511 -613 0
-511 -614 0
-511 -615 0
-511 -616 0
-511 -617 0
-511 -618 0
-511 -619 0
-511 -620 0
-511 -621 0
-511 -622 0
-511 -623 0
-511 -624 0
-511 -625 0
-511 -626 0
-511 -627 0
-511 -628 0
-511 -629 0
-511 -630 0
-511 -631 0
-511 -632 0
-512 -513 0
-512 -514 0
-512 -515 0
-512 -516 0
-512 -517 0
-512 -518 0
-512 -519 0
-512 -520 0
-512 -521 0
-512 -522 0
-512 -523 0
-512 -524 0
-512 -525 0
-512 -526 0
-512 -527 0
-512 -528 0
-512 -529 0
-512 -530 0
-512 -531 0
-512 -532 0
-512 -533 0
-512 -534 0
-512 -535 0
-512 -536 0
-512 -537 0
-512 -538 0
-512 -539 0
-512 -540 0
-512 -541 0
-512 -542 0
-512 -543 0
-512 -544 0
-512 -545 0
-512 -546 0
-512 -547 0
-512 -548 0
-512 -549 0
-512 -550 0
-512 -551 0
-512 -552 0
-512 -553 0
-512 -554 0
-512 -555 0
-512 -556 0
-512 -557 0
-512 -558 0
-512 -559 0
-512 -560 0
-512 -561 0
-512 -562 0
-512 -563 0
-512 -564 0
-512 -565 0
-512 -566 0
-512 -567 0
-512 -568 0
-512 -569 0
-512 -570 0
-512 -571 0
-512 -572 0
-512 -573 0
-512 -574 0
-512 -575 0
-512 -576 0
-512 -577 0
-512 -578 0
-512 -579 0
-512 -580 0
-512 -581 0
-512 -582 0
-512 -583 0
-512 -584 0
-512 -585 0
-512 -586 0
-512 -587 0
-512 -588 0
-512 -589 0
-512 -590 0
-512 -591 0
-512 -592 0
-512 -593 0
-512 -594 0
-512 -595 0
-512 -596 0
-512 -597 0
-512 -598 0
-512 -599 0
-512 -600 0
-512 -601 0
-512 -602 0
-512 -603 0
-512 -604 0
-512 -605 0
-512 -606 0
-512 -607 0
-512 -608 0
-512 -609 0
-512 -610 0
-512 -611 0
-512 -612 0
-512 -613 0
-512 -614 0
-512 -615 0
-512 -616 0
-512 -617 0
-512 -618 0
-512 -619 0
-512 -620 0
-512 -621 0
-512 -622 0
-512 -623 0
-512 -624 0
-512 -625 0
-512 -626 0
-512 -627 0
-512 -628 0
-512 -629 0
-512 -630 0
-512 -631 0
-512 -632 0
-513 -514 0
-513 -515 0
-513 -516 0
-513 -517 0
-513 -518 0
-513 -519 0
-513 -520 0
-513 -521 0
-513 -522 0
-513 -523 0
-513 -524 0
-513 -525 0
-513 -526 0
-513 -527 0
-513 -528 0
-513 -529 0
-513 -530 0
-513 -531 0
-513 -532 0
-513 -533 0
-513 -534 0
-513 -535 0
-513 -536 0
-513 -537 0
-513 -538 0
-513 -539 0
-513 -540 0
-513 -541 0
-513 -542 0
-513 -543 0
-513 -544 0
-513 -545 0
-513 -546 0
-513 -547 0
-513 -548 0
-513 -549 0
-513 -550 0
-513 -551 0
-513 -552 0
-513 -553 0
-513 -554 0
-513 -555 0
-513 -556 0
-513 -557 0
-513 -558 0
-513 -559 0
-513 -560 0
-513 -561 0
-513 -562 0
-513 -563 0
-513 -564 0
-513 -565 0
-513 -566 0
-513 -567 0
-513 -568 0
-513 -569 0
-513 -570 0
-513 -571 0
-513 -572 0
-513 -573 0
-513 -574 0
-513 -575 0
-513 -576 0
-513 -577 0
-513 -578 0
-513 -579 0
-513 -580 0
-513 -581 0
-513 -582 0
-513 -583 0
-513 -584 0
-513 -585 0
-513 -586 0
-513 -587 0
-513 -588 0
-513 -589 0
-513 -590 0
-513 -591 0
-513 -592 0
-513 -593 0
-513 -594 0
-513 -595 0
-513 -596 0
-513 -597 0
-513 -598 0
-513 -599 0
-513 -600 0
-513 -601 0
-513 -602 0
-513 -603 0
-513 -604 0
-513 -605 0
-513 -606 0
-513 -607 0
-513 -608 0
-513 -609 0
-513 -610 0
-513 -611 0
-513 -612 0
-513 -613 0
-513 -614 0
-513 -615 0
-513 -616 0
-513 -617 0
-513 -618 0
-513 -619 0
-513 -620 0
-513 -621 0
-513 -622 0
-513 -623 0
-513 -624 0
-513 -625 0
-513 -626 0
-513 -627 0
-513 -628 0
-513 -629 0
-513 -630 0
-513 -631 0
-513 -632 0
-514 -515 0
-514 -516 0
-514 -517 0
-514 -518 0
-514 -519 0
-514 -520 0
-514 -521 0
-514 -522 0
-514 -523 0
-514 -524 0
-514 -525 0
-514 -526 0
-514 -527 0
-514 -528 0
-514 -529 0
-514 -530 0
-514 -531 0
-514 -532 0
-514 -533 0
-514 -534 0
-514 -535 0
-514 -536 0
-514 -537 0
-514 -538 0
-514 -539 0
-514 -540 0
-514 -541 0
-514 -542 0
-514 -543 0
-514 -544 0
-514 -545 0
-514 -546 0
-514 -547 0
-514 -548 0
-514 -549 0
-514 -550 0
-514 -551 0
-514 -552 0
-514 -553 0
-514 -554 0
-514 -555 0
-514 -556 0
-514 -557 0
-514 -558 0
-514 -559 0
-514 -560 0
-514 -561 0
-514 -562 0
-514 -563 0
-514 -564 0
-514 -565 0
-514 -566 0
-514 -567 0
-514 -568 0
-514 -569 0
-514 -570 0
-514 -571 0
-514 -572 0
-514 -573 0
-514 -574 0
-514 -575 0
-514 -576 0
-514 -577 0
-514 -578 0
-514 -579 0
-514 -580 0
-514 -581 0
-514 -582 0
-514 -583 0
-514 -584 0
-514 -585 0
-514 -586 0
-514 -587 0
-514 -588 0
-514 -589 0
-514 -590 0
-514 -591 0
-514 -592 0
-514 -593 0
-514 -594 0
-514 -595 0
-514 -596 0
-514 -597 0
-514 -598 0
-514 -599 0
-514 -600 0
-514 -601 0
-514 -602 0
-514 -603 0
-514 -604 0
-514 -605 0
-514 -606 0
-514 -607 0
-514 -608 0
-514 -609 0
-514 -610 0
-514 -611 0
-514 -612 0
-514 -613 0
-514 -614 0
-514 -615 0
-514 -616 0
-514 -617 0
-514 -618 0
-514 -619 0
-514 -620 0
-514 -621 0
-514 -622 0
-514 -623 0
-514 -624 0
-514 -625 0
-514 -626 0
-514 -627 0
-514 -628 0
-514 -629 0
-514 -630 0
-514 -631 0
-514 -632 0
-515 -516 0
-515 -517 0
-515 -518 0
-515 -519 0
-515 -520 0
-515 -521 0
-515 -522 0
-515 -523 0
-515 -524 0
-515 -525 0
-515 -526 0
-515 -527 0
-515 -528 0
-515 -529 0
-515 -530 0
-515 -531 0
-515 -532 0
-515 -533 0
-515 -534 0
-515 -535 0
-515 -536 0
-515 -537 0
-515 -538 0
-515 -539 0
-515 -540 0
-515 -541 0
-515 -542 0
-515 -543 0
-515 -544 0
-515 -545 0
-515 -546 0
-515 -547 0
-515 -548 0
-515 -549 0
-515 -550 0
-515 -551 0
-515 -552 0
-515 -553 0
-515 -554 0
-515 -555 0
-515 -556 0
-515 -557 0
-515 -558 0
-515 -559 0
-515 -560 0
-515 -561 0
-515 -562 0
-515 -563 0
-515 -564 0
-515 -565 0
-515 -566 0
-515 -567 0
-515 -568 0
-515 -569 0
-515 -570 0
-515 -571 0
-515 -572 0
-515 -573 0
-515 -574 0
-515 -575 0
-515 -576 0
-515 -577 0
-515 -578 0
-515 -579 0
-515 -580 0
-515 -581 0
-515 -582 0
-515 -583 0
-515 -584 0
-515 -585 0
-515 -586 0
-515 -587 0
-515 -588 0
-515 -589 0
-515 -590 0
-515 -591 0
-515 -592 0
-515 -593 0
-515 -594 0
-515 -595 0
-515 -596 0
-515 -597 0
-515 -598 0
-515 -599 0
-515 -600 0
-515 -601 0
-515 -602 0
-515 -603 0
-515 -604 0
-515 -605 0
-515 -606 0
-515 -607 0
-515 -608 0
-515 -609 0
-515 -610 0
-515 -611 0
-515 -612 0
-515 -613 0
-515 -614 0
-515 -615 0
-515 -616 0
-515 -617 0
-515 -618 0
-515 -619 0
-515 -620 0
-515 -621 0
-515 -622 0
-515 -623 0
-515 -624 0
-515 -625 0
-515 -626 0
-515 -627 0
-515 -628 0
-515 -629 0
-515 -630 0
-515 -631 0
-515 -632 0
-516 -517 0
-516 -518 0
-516 -519 0
-516 -520 0
-516 -521 0
-516 -522 0
-516 -523 0
-516 -524 0
-516 -525 0
-516 -526 0
-516 -527 0
-516 -528 0
-516 -529 0
-516 -530 0
-516 -531 0
-516 -532 0
-516 -533 0
-516 -534 0
-516 -535 0
-516 -536 0
-516 -537 0
-516 -538 0
-516 -539 0
-516 -540 0
-516 -541 0
-516 -542 0
-516 -543 0
-516 -544 0
-516 -545 0
-516 -546 0
-516 -547 0
-516 -548 0
-516 -549 0
-516 -550 0
-516 -551 0
-516 -552 0
-516 -553 0
-516 -554 0
-516 -555 0
-516 -556 0
-516 -557 0
-516 -558 0
-516 -559 0
-516 -560 0
-516 -561 0
-516 -562 0
-516 -563 0
-516 -564 0
-516 -565 0
-516 -566 0
-516 -567 0
-516 -568 0
-516 -569 0
-516 -570 0
-516 -571 0
-516 -572 0
-516 -573 0
-516 -574 0
-516 -575 0
-516 -576 0
-516 -577 0
-516 -578 0
-516 -579 0
-516 -580 0
-516 -581 0
-516 -582 0
-516 -583 0
-516 -584 0
-516 -585 0
-516 -586 0
-516 -587 0
-516 -588 0
-516 -589 0
-516 -590 0
-516 -591 0
-516 -592 0
-516 -593 0
-516 -594 0
-516 -595 0
-516 -596 0
-516 -597 0
-516 -598 0
-516 -599 0
-516 -600 0
-516 -601 0
-516 -602 0
-516 -603 0
-516 -604 0
-516 -605 0
-516 -606 0
-516 -607 0
-516 -608 0
-516 -609 0
-516 -610 0
-516 -611 0
-516 -612 0
-516 -613 0
-516 -614 0
-516 -615 0
-516 -616 0
-516 -617 0
-516 -618 0
-516 -619 0
-516 -620 0
-516 -621 0
-516 -622 0
-516 -623 0
-516 -624 0
-516 -625 0
-516 -626 0
-516 -627 0
-516 -628 0
-516 -629 0
-516 -630 0
-516 -631 0
-516 -632 0
-517 -518 0
-517 -519 0
-517 -520 0
-517 -521 0
-517 -522 0
-517 -523 0
-517 -524 0
-517 -525 0
-517 -526 0
-517 -527 0
-517 -528 0
-517 -529 0
-517 -530 0
-517 -531 0
-517 -532 0
-517 -533 0
-517 -534 0
-517 -535 0
-517 -536 0
-517 -537 0
-517 -538 0
-517 -539 0
-517 -540 0
-517 -541 0
-517 -542 0
-517 -543 0
-517 -544 0
-517 -545 0
-517 -546 0
-517 -547 0
-517 -548 0
-517 -549 0
-517 -550 0
-517 -551 0
-517 -552 0
-517 -553 0
-517 -554 0
-517 -555 0
-517 -556 0
-517 -557 0
-517 -558 0
-517 -559 0
-517 -560 0
-517 -561 0
-517 -562 0
-517 -563 0
-517 -564 0
-517 -565 0
-517 -566 0
-517 -567 0
-517 -568 0
-517 -569 0
-517 -570 0
-517 -571 0
-517 -572 0
-517 -573 0
-517 -574 0
-517 -575 0
-517 -576 0
-517 -577 0
-517 -578 0
-517 -579 0
-517 -580 0
-517 -581 0
-517 -582 0
-517 -583 0
-517 -584 0
-517 -585 0
-517 -586 0
-517 -587 0
-517 -588 0
-517 -589 0
-517 -590 0
-517 -591 0
-517 -592 0
-517 -593 0
-517 -594 0
-517 -595 0
-517 -596 0
-517 -597 0
-517 -598 0
-517 -599 0
-517 -600 0
-517 -601 0
-517 -602 0
-517 -603 0
-517 -604 0
-517 -605 0
-517 -606 0
-517 -607 0
-517 -608 0
-517 -609 0
-517 -610 0
-517 -611 0
-517 -612 0
-517 -613 0
-517 -614 0
-517 -615 0
-517 -616 0
-517 -617 0
-517 -618 0
-517 -619 0
-517 -620 0
-517 -621 0
-517 -622 0
-517 -623 0
-517 -624 0
-517 -625 0
-517 -626 0
-517 -627 0
-517 -628 0
-517 -629 0
-517 -630 0
-517 -631 0
-517 -632 0
-518 -519 0
-518 -520 0
-518 -521 0
-518 -522 0
-518 -523 0
-518 -524 0
-518 -525 0
-518 -526 0
-518 -527 0
-518 -528 0
-518 -529 0
-518 -530 0
-518 -531 0
-518 -532 0
-518 -533 0
-518 -534 0
-518 -535 0
-518 -536 0
-518 -537 0
-518 -538 0
-518 -539 0
-518 -540 0
-518 -541 0
-518 -542 0
-518 -543 0
-518 -544 0
-518 -545 0
-518 -546 0
-518 -547 0
-518 -548 0
-518 -549 0
-518 -550 0
-518 -551 0
-518 -552 0
-518 -553 0
-518 -554 0
-518 -555 0
-518 -556 0
-518 -557 0
-518 -558 0
-518 -559 0
-518 -560 0
-518 -561 0
-518 -562 0
-518 -563 0
-518 -564 0
-518 -565 0
-518 -566 0
-518 -567 0
-518 -568 0
-518 -569 0
-518 -570 0
-518 -571 0
-518 -572 0
-518 -573 0
-518 -574 0
-518 -575 0
-518 -576 0
-518 -577 0
-518 -578 0
-518 -579 0
-518 -580 0
-518 -581 0
-518 -582 0
-518 -583 0
-518 -584 0
-518 -585 0
-518 -586 0
-518 -587 0
-518 -588 0
-518 -589 0
-518 -590 0
-518 -591 0
-518 -592 0
-518 -593 0
-518 -594 0
-518 -595 0
-518 -596 0
-518 -597 0
-518 -598 0
-518 -599 0
-518 -600 0
-518 -601 0
-518 -602 0
-518 -603 0
-518 -604 0
-518 -605 0
-518 -606 0
-518 -607 0
-518 -608 0
-518 -609 0
-518 -610 0
-518 -611 0
-518 -612 0
-518 -613 0
-518 -614 0
-518 -615 0
-518 -616 0
-518 -617 0
-518 -618 0
-518 -619 0
-518 -620 0
-518 -621 0
-518 -622 0
-518 -623 0
-518 -624 0
-518 -625 0
-518 -626 0
-518 -627 0
-518 -628 0
-518 -629 0
-518 -630 0
-518 -631 0
-518 -632 0
-519 -520 0
-519 -521 0
-519 -522 0
-519 -523 0
-519 -524 0
-519 -525 0
-519 -526 0
-519 -527 0
-519 -528 0
-519 -529 0
-519 -530 0
-519 -531 0
-519 -532 0
-519 -533 0
-519 -534 0
-519 -535 0
-519 -536 0
-519 -537 0
-519 -538 0
-519 -539 0
-519 -540 0
-519 -541 0
-519 -542 0
-519 -543 0
-519 -544 0
-519 -545 0
-519 -546 0
-519 -547 0
-519 -548 0
-519 -549 0
-519 -550 0
-519 -551 0
-519 -552 0
-519 -553 0
-519 -554 0
-519 -555 0
-519 -556 0
-519 -557 0
-519 -558 0
-519 -559 0
-519 -560 0
-519 -561 0
-519 -562 0
-519 -563 0
-519 -564 0
-519 -565 0
-519 -566 0
-519 -567 0
-519 -568 0
-519 -569 0
-519 -570 0
-519 -571 0
-519 -572 0
-519 -573 0
-519 -574 0
-519 -575 0
-519 -576 0
-519 -577 0
-519 -578 0
-519 -579 0
-519 -580 0
-519 -581 0
-519 -582 0
-519 -583 0
-519 -584 0
-519 -585 0
-519 -586 0
-519 -587 0
-519 -588 0
-519 -589 0
-519 -590 0
-519 -591 0
-519 -592 0
-519 -593 0
-519 -594 0
-519 -595 0
-519 -596 0
-519 -597 0
-519 -598 0
-519 -599 0
-519 -600 0
-519 -601 0
-519 -602 0
-519 -603 0
-519 -604 0
-519 -605 0
-519 -606 0
-519 -607 0
-519 -608 0
-519 -609 0
-519 -610 0
-519 -611 0
-519 -612 0
-519 -613 0
-519 -614 0
-519 -615 0
-519 -616 0
-519 -617 0
-519 -618 0
-519 -619 0
-519 -620 0
-519 -621 0
-519 -622 0
-519 -623 0
-519 -624 0
-519 -625 0
-519 -626 0
-519 -627 0
-519 -628 0
-519 -629 0
-519 -630 0
-519 -631 0
-519 -632 0
-520 -521 0
-520 -522 0
-520 -523 0
-520 -524 0
-520 -525 0
-520 -526 0
-520 -527 0
-520 -528 0
-520 -529 0
-520 -530 0
-520 -531 0
-520 -532 0
-520 -533 0
-520 -534 0
-520 -535 0
-520 -536 0
-520 -537 0
-520 -538 0
-520 -539 0
-520 -540 0
-520 -541 0
-520 -542 0
-520 -543 0
-520 -544 0
-520 -545 0
-520 -546 0
-520 -547 0
-520 -548 0
-520 -549 0
-520 -550 0
-520 -551 0
-520 -552 0
-520 -553 0
-520 -554 0
-520 -555 0
-520 -556 0
-520 -557 0
-520 -558 0
-520 -559 0
-520 -560 0
-520 -561 0
-520 -562 0
-520 -563 0
-520 -564 0
-520 -565 0
-520 -566 0
-520 -567 0
-520 -568 0
-520 -569 0
-520 -570 0
-520 -571 0
-520 -572 0
-520 -573 0
-520 -574 0
-520 -575 0
-520 -576 0
-520 -577 0
-520 -578 0
-520 -579 0
-520 -580 0
-520 -581 0
-520 -582 0
-520 -583 0
-520 -584 0
-520 -585 0
-520 -586 0
-520 -587 0
-520 -588 0
-520 -589 0
-520 -590 0
-520 -591 0
-520 -592 0
-520 -593 0
-520 -594 0
-520 -595 0
-520 -596 0
-520 -597 0
-520 -598 0
-520 -599 0
-520 -600 0
-520 -601 0
-520 -602 0
-520 -603 0
-520 -604 0
-520 -605 0
-520 -606 0
-520 -607 0
-520 -608 0
-520 -609 0
-520 -610 0
-520 -611 0
-520 -612 0
-520 -613 0
-520 -614 0
-520 -615 0
-520 -616 0
-520 -617 0
-520 -618 0
-520 -619 0
-520 -620 0
-520 -621 0
-520 -622 0
-520 -623 0
-520 -624 0
-520 -625 0
-520 -626 0
-520 -627 0
-520 -628 0
-520 -629 0
-520 -630 0
-520 -631 0
-520 -632 0
-521 -522 0
-521 -523 0
-521 -524 0
-521 -525 0
-521 -526 0
-521 -527 0
-521 -528 0
-521 -529 0
-521 -530 0
-521 -531 0
-521 -532 0
-521 -533 0
-521 -534 0
-521 -535 0
-521 -536 0
-521 -537 0
-521 -538 0
-521 -539 0
-521 -540 0
-521 -541 0
-521 -542 0
-521 -543 0
-521 -544 0
-521 -545 0
-521 -546 0
-521 -547 0
-521 -548 0
-521 -549 0
-521 -550 0
-521 -551 0
-521 -552 0
-521 -553 0
-521 -554 0
-521 -555 0
-521 -556 0
-521 -557 0
-521 -558 0
-521 -559 0
-521 -560 0
-521 -561 0
-521 -562 0
-521 -563 0
-521 -564 0
-521 -565 0
-521 -566 0
-521 -567 0
-521 -568 0
-521 -569 0
-521 -570 0
-521 -571 0
-521 -572 0
-521 -573 0
-521 -574 0
-521 -575 0
-521 -576 0
-521 -577 0
-521 -578 0
-521 -579 0
-521 -580 0
-521 -581 0
-521 -582 0
-521 -583 0
-521 -584 0
-521 -585 0
-521 -586 0
-521 -587 0
-521 -588 0
-521 -589 0
-521 -590 0
-521 -591 0
-521 -592 0
-521 -593 0
-521 -594 0
-521 -595 0
-521 -596 0
-521 -597 0
-521 -598 0
-521 -599 0
-521 -600 0
-521 -601 0
-521 -602 0
-521 -603 0
-521 -604 0
-521 -605 0
-521 -606 0
-521 -607 0
-521 -608 0
-521 -609 0
-521 -610 0
-521 -611 0
-521 -612 0
-521 -613 0
-521 -614 0
-521 -615 0
-521 -616 0
-521 -617 0
-521 -618 0
-521 -619 0
-521 -620 0
-521 -621 0
-521 -622 0
-521 -623 0
-521 -624 0
-521 -625 0
-521 -626 0
-521 -627 0
-521 -628 0
-521 -629 0
-521 -630 0
-521 -631 0
-521 -632 0
-522 -523 0
-522 -524 0
-522 -525 0
-522 -526 0
-522 -527 0
-522 -528 0
-522 -529 0
-522 -530 0
-522 -531 0
-522 -532 0
-522 -533 0
-522 -534 0
-522 -535 0
-522 -536 0
-522 -537 0
-522 -538 0
-522 -539 0
-522 -540 0
-522 -541 0
-522 -542 0
-522 -543 0
-522 -544 0
-522 -545 0
-522 -546 0
-522 -547 0
-522 -548 0
-522 -549 0
-522 -550 0
-522 -551 0
-522 -552 0
-522 -553 0
-522 -554 0
-522 -555 0
-522 -556 0
-522 -557 0
-522 -558 0
-522 -559 0
-522 -560 0
-522 -561 0
-522 -562 0
-522 -563 0
-522 -564 0
-522 -565 0
-522 -566 0
-522 -567 0
-522 -568 0
-522 -569 0
-522 -570 0
-522 -571 0
-522 -572 0
-522 -573 0
-522 -574 0
-522 -575 0
-522 -576 0
-522 -577 0
-522 -578 0
-522 -579 0
-522 -580 0
-522 -581 0
-522 -582 0
-522 -583 0
-522 -584 0
-522 -585 0
-522 -586 0
-522 -587 0
-522 -588 0
-522 -589 0
-522 -590 0
-522 -591 0
-522 -592 0
-522 -593 0
-522 -594 0
-522 -595 0
-522 -596 0
-522 -597 0
-522 -598 0
-522 -599 0
-522 -600 0
-522 -601 0
-522 -602 0
-522 -603 0
-522 -604 0
-522 -605 0
-522 -606 0
-522 -607 0
-522 -608 0
-522 -609 0
-522 -610 0
-522 -611 0
-522 -612 0
-522 -613 0
-522 -614 0
-522 -615 0
-522 -616 0
-522 -617 0
-522 -618 0
-522 -619 0
-522 -620 0
-522 -621 0
-522 -622 0
-522 -623 0
-522 -624 0
-522 -625 0
-522 -626 0
-522 -627 0
-522 -628 0
-522 -629 0
-522 -630 0
-522 -631 0
-522 -632 0
-523 -524 0
-523 -525 0
-523 -526 0
-523 -527 0
-523 -528 0
-523 -529 0
-523 -530 0
-523 -531 0
-523 -532 0
-523 -533 0
-523 -534 0
-523 -535 0
-523 -536 0
-523 -537 0
-523 -538 0
-523 -539 0
-523 -540 0
-523 -541 0
-523 -542 0
-523 -543 0
-523 -544 0
-523 -545 0
-523 -546 0
-523 -547 0
-523 -548 0
-523 -549 0
-523 -550 0
-523 -551 0
-523 -552 0
-523 -553 0
-523 -554 0
-523 -555 0
-523 -556 0
-523 -557 0
-523 -558 0
-523 -559 0
-523 -560 0
-523 -561 0
-523 -562 0
-523 -563 0
-523 -564 0
-523 -565 0
-523 -566 0
-523 -567 0
-523 -568 0
-523 -569 0
-523 -570 0
-523 -571 0
-523 -572 0
-523 -573 0
-523 -574 0
-523 -575 0
-523 -576 0
-523 -577 0
-523 -578 0
-523 -579 0
-523 -580 0
-523 -581 0
-523 -582 0
-523 -583 0
-523 -584 0
-523 -585 0
-523 -586 0
-523 -587 0
-523 -588 0
-523 -589 0
-523 -590 0
-523 -591 0
-523 -592 0
-523 -593 0
-523 -594 0
-523 -595 0
-523 -596 0
-523 -597 0
-523 -598 0
-523 -599 0
-523 -600 0
-523 -601 0
-523 -602 0
-523 -603 0
-523 -604 0
-523 -605 0
-523 -606 0
-523 -607 0
-523 -608 0
-523 -609 0
-523 -610 0
-523 -611 0
-523 -612 0
-523 -613 0
-523 -614 0
-523 -615 0
-523 -616 0
-523 -617 0
-523 -618 0
-523 -619 0
-523 -620 0
-523 -621 0
-523 -622 0
-523 -623 0
-523 -624 0
-523 -625 0
-523 -626 0
-523 -627 0
-523 -628 0
-523 -629 0
-523 -630 0
-523 -631 0
-523 -632 0
-524 -525 0
-524 -526 0
-524 -527 0
-524 -528 0
-524 -529 0
-524 -530 0
-524 -531 0
-524 -532 0
-524 -533 0
-524 -534 0
-524 -535 0
-524 -536 0
-524 -537 0
-524 -538 0
-524 -539 0
-524 -540 0
-524 -541 0
-524 -542 0
-524 -543 0
-524 -544 0
-524 -545 0
-524 -546 0
-524 -547 0
-524 -548 0
-524 -549 0
-524 -550 0
-524 -551 0
-524 -552 0
-524 -553 0
-524 -554 0
-524 -555 0
-524 -556 0
-524 -557 0
-524 -558 0
-524 -559 0
-524 -560 0
-524 -561 0
-524 -562 0
-524 -563 0
-524 -564 0
-524 -565 0
-524 -566 0
-524 -567 0
-524 -568 0
-524 -569 0
-524 -570 0
-524 -571 0
-524 -572 0
-524 -573 0
-524 -574 0
-524 -575 0
-524 -576 0
-524 -577 0
-524 -578 0
-524 -579 0
-524 -580 0
-524 -581 0
-524 -582 0
-524 -583 0
-524 -584 0
-524 -585 0
-524 -586 0
-524 -587 0
-524 -588 0
-524 -589 0
-524 -590 0
-524 -591 0
-524 -592 0
-524 -593 0
-524 -594 0
-524 -595 0
-524 -596 0
-524 -597 0
-524 -598 0
-524 -599 0
-524 -600 0
-524 -601 0
-524 -602 0
-524 -603 0
-524 -604 0
-524 -605 0
-524 -606 0
-524 -607 0
-524 -608 0
-524 -609 0
-524 -610 0
-524 -611 0
-524 -612 0
-524 -613 0
-524 -614 0
-524 -615 0
-524 -616 0
-524 -617 0
-524 -618 0
-524 -619 0
-524 -620 0
-524 -621 0
-524 -622 0
-524 -623 0
-524 -624 0
-524 -625 0
-524 -626 0
-524 -627 0
-524 -628 0
-524 -629 0
-524 -630 0
-524 -631 0
-524 -632 0
-525 -526 0
-525 -527 0
-525 -528 0
-525 -529 0
-525 -530 0
-525 -531 0
-525 -532 0
-525 -533 0
-525 -534 0
-525 -535 0
-525 -536 0
-525 -537 0
-525 -538 0
-525 -539 0
-525 -540 0
-525 -541 0
-525 -542 0
-525 -543 0
-525 -544 0
-525 -545 0
-525 -546 0
-525 -547 0
-525 -548 0
-525 -549 0
-525 -550 0
-525 -551 0
-525 -552 0
-525 -553 0
-525 -554 0
-525 -555 0
-525 -556 0
-525 -557 0
-525 -558 0
-525 -559 0
-525 -560 0
-525 -561 0
-525 -562 0
-525 -563 0
-525 -564 0
-525 -565 0
-525 -566 0
-525 -567 0
-525 -568 0
-525 -569 0
-525 -570 0
-525 -571 0
-525 -572 0
-525 -573 0
-525 -574 0
-525 -575 0
-525 -576 0
-525 -577 0
-525 -578 0
-525 -579 0
-525 -580 0
-525 -581 0
-525 -582 0
-525 -583 0
-525 -584 0
-525 -585 0
-525 -586 0
-525 -587 0
-525 -588 0
-525 -589 0
-525 -590 0
-525 -591 0
-525 -592 0
-525 -593 0
-525 -594 0
-525 -595 0
-525 -596 0
-525 -597 0
-525 -598 0
-525 -599 0
-525 -600 0
-525 -601 0
-525 -602 0
-525 -603 0
-525 -604 0
-525 -605 0
-525 -606 0
-525 -607 0
-525 -608 0
-525 -609 0
-525 -610 0
-525 -611 0
-525 -612 0
-525 -613 0
-525 -614 0
-525 -615 0
-525 -616 0
-525 -617 0
-525 -618 0
-525 -619 0
-525 -620 0
-525 -621 0
-525 -622 0
-525 -623 0
-525 -624 0
-525 -625 0
-525 -626 0
-525 -627 0
-525 -628 0
-525 -629 0
-525 -630 0
-525 -631 0
-525 -632 0
-526 -527 0
-526 -528 0
-526 -529 0
-526 -530 0
-526 -531 0
-526 -532 0
-526 -533 0
-526 -534 0
-526 -535 0
-526 -536 0
-526 -537 0
-526 -538 0
-526 -539 0
-526 -540 0
-526 -541 0
-526 -542 0
-526 -543 0
-526 -544 0
-526 -545 0
-526 -546 0
-526 -547 0
-526 -548 0
-526 -549 0
-526 -550 0
-526 -551 0
-526 -552 0
-526 -553 0
-526 -554 0
-526 -555 0
-526 -556 0
-526 -557 0
-526 -558 0
-526 -559 0
-526 -560 0
-526 -561 0
-526 -562 0
-526 -563 0
-526 -564 0
-526 -565 0
-526 -566 0
-526 -567 0
-526 -568 0
-526 -569 0
-526 -570 0
-526 -571 0
-526 -572 0
-526 -573 0
-526 -574 0
-526 -575 0
-526 -576 0
-526 -577 0
-526 -578 0
-526 -579 0
-526 -580 0
-526 -581 0
-526 -582 0
-526 -583 0
-526 -584 0
-526 -585 0
-526 -586 0
-526 -587 0
-526 -588 0
-526 -589 0
-526 -590 0
-526 -591 0
-526 -592 0
-526 -593 0
-526 -594 0
-526 -595 0
-526 -596 0
-526 -597 0
-526 -598 0
-526 -599 0
-526 -600 0
-526 -601 0
-526 -602 0
-526 -603 0
-526 -604 0
-526 -605 0
-526 -606 0
-526 -607 0
-526 -608 0
-526 -609 0
-526 -610 0
-526 -611 0
-526 -612 0
-526 -613 0
-526 -614 0
-526 -615 0
-526 -616 0
-526 -617 0
-526 -618 0
-526 -619 0
-526 -620 0
-526 -621 0
-526 -622 0
-526 -623 0
-526 -624 0
-526 -625 0
-526 -626 0
-526 -627 0
-526 -628 0
-526 -629 0
-526 -630 0
-526 -631 0
-526 -632 0
-527 -528 0
-527 -529 0
-527 -530 0
-527 -531 0
-527 -532 0
-527 -533 0
-527 -534 0
-527 -535 0
-527 -536 0
-527 -537 0
-527 -538 0
-527 -539 0
-527 -540 0
-527 -541 0
-527 -542 0
-527 -543 0
-527 -544 0
-527 -545 0
-527 -546 0
-527 -547 0
-527 -548 0
-527 -549 0
-527 -550 0
-527 -551 0
-527 -552 0
-527 -553 0
-527 -554 0
-527 -555 0
-527 -556 0
-527 -557 0
-527 -558 0
-527 -559 0
-527 -560 0
-527 -561 0
-527 -562 0
-527 -563 0
-527 -564 0
-527 -565 0
-527 -566 0
-527 -567 0
-527 -568 0
-527 -569 0
-527 -570 0
-527 -571 0
-527 -572 0
-527 -573 0
-527 -574 0
-527 -575 0
-527 -576 0
-527 -577 0
-527 -578 0
-527 -579 0
-527 -580 0
-527 -581 0
-527 -582 0
-527 -583 0
-527 -584 0
-527 -585 0
-527 -586 0
-527 -587 0
-527 -588 0
-527 -589 0
-527 -590 0
-527 -591 0
-527 -592 0
-527 -593 0
-527 -594 0
-527 -595 0
-527 -596 0
-527 -597 0
-527 -598 0
-527 -599 0
-527 -600 0
-527 -601 0
-527 -602 0
-527 -603 0
-527 -604 0
-527 -605 0
-527 -606 0
-527 -607 0
-527 -608 0
-527 -609 0
-527 -610 0
-527 -611 0
-527 -612 0
-527 -613 0
-527 -614 0
-527 -615 0
-527 -616 0
-527 -617 0
-527 -618 0
-527 -619 0
-527 -620 0
-527 -621 0
-527 -622 0
-527 -623 0
-527 -624 0
-527 -625 0
-527 -626 0
-527 -627 0
-527 -628 0
-527 -629 0
-527 -630 0
-527 -631 0
-527 -632 0
-528 -529 0
-528 -530 0
-528 -531 0
-528 -532 0
-528 -533 0
-528 -534 0
-528 -535 0
-528 -536 0
-528 -537 0
-528 -538 0
-528 -539 0
-528 -540 0
-528 -541 0
-528 -542 0
-528 -543 0
-528 -544 0
-528 -545 0
-528 -546 0
-528 -547 0
-528 -548 0
-528 -549 0
-528 -550 0
-528 -551 0
-528 -552 0
-528 -553 0
-528 -554 0
-528 -555 0
-528 -556 0
-528 -557 0
-528 -558 0
-528 -559 0
-528 -560 0
-528 -561 0
-528 -562 0
-528 -563 0
-528 -564 0
-528 -565 0
-528 -566 0
-528 -567 0
-528 -568 0
-528 -569 0
-528 -570 0
-528 -571 0
-528 -572 0
-528 -573 0
-528 -574 0
-528 -575 0
-528 -576 0
-528 -577 0
-528 -578 0
-528 -579 0
-528 -580 0
-528 -581 0
-528 -582 0
-528 -583 0
-528 -584 0
-528 -585 0
-528 -586 0
-528 -587 0
-528 -588 0
-528 -589 0
-528 -590 0
-528 -591 0
-528 -592 0
-528 -593 0
-528 -594 0
-528 -595 0
-528 -596 0
-528 -597 0
-528 -598 0
-528 -599 0
-528 -600 0
-528 -601 0
-528 -602 0
-528 -603 0
-528 -604 0
-528 -605 0
-528 -606 0
-528 -607 0
-528 -608 0
-528 -609 0
-528 -610 0
-528 -611 0
-528 -612 0
-528 -613 0
-528 -614 0
-528 -615 0
-528 -616 0
-528 -617 0
-528 -618 0
-528 -619 0
-528 -620 0
-528 -621 0
-528 -622 0
-528 -623 0
-528 -624 0
-528 -625 0
-528 -626 0
-528 -627 0
-528 -628 0
-528 -629 0
-528 -630 0
-528 -631 0
-528 -632 0
-529 -530 0
-529 -531 0
-529 -532 0
-529 -533 0
-529 -534 0
-529 -535 0
-529 -536 0
-529 -537 0
-529 -538 0
-529 -539 0
-529 -540 0
-529 -541 0
-529 -542 0
-529 -543 0
-529 -544 0
-529 -545 0
-529 -546 0
-529 -547 0
-529 -548 0
-529 -549 0
-529 -550 0
-529 -551 0
-529 -552 0
-529 -553 0
-529 -554 0
-529 -555 0
-529 -556 0
-529 -557 0
-529 -558 0
-529 -559 0
-529 -560 0
-529 -561 0
-529 -562 0
-529 -563 0
-529 -564 0
-529 -565 0
-529 -566 0
-529 -567 0
-529 -568 0
-529 -569 0
-529 -570 0
-529 -571 0
-529 -572 0
-529 -573 0
-529 -574 0
-529 -575 0
-529 -576 0
-529 -577 0
-529 -578 0
-529 -579 0
-529 -580 0
-529 -581 0
-529 -582 0
-529 -583 0
-529 -584 0
-529 -585 0
-529 -586 0
-529 -587 0
-529 -588 0
-529 -589 0
-529 -590 0
-529 -591 0
-529 -592 0
-529 -593 0
-529 -594 0
-529 -595 0
-529 -596 0
-529 -597 0
-529 -598 0
-529 -599 0
-529 -600 0
-529 -601 0
-529 -602 0
-529 -603 0
-529 -604 0
-529 -605 0
-529 -606 0
-529 -607 0
-529 -608 0
-529 -609 0
-529 -610 0
-529 -611 0
-529 -612 0
-529 -613 0
-529 -614 0
-529 -615 0
-529 -616 0
-529 -617 0
-529 -618 0
-529 -619 0
-529 -620 0
-529 -621 0
-529 -622 0
-529 -623 0
-529 -624 0
-529 -625 0
-529 -626 0
-529 -627 0
-529 -628 0
-529 -629 0
-529 -630 0
-529 -631 0
-529 -632 0
-530 -531 0
-530 -532 0
-530 -533 0
-530 -534 0
-530 -535 0
-530 -536 0
-530 -537 0
-530 -538 0
-530 -539 0
-530 -540 0
-530 -541 0
-530 -542 0
-530 -543 0
-530 -544 0
-530 -545 0
-530 -546 0
-530 -547 0
-530 -548 0
-530 -549 0
-530 -550 0
-530 -551 0
-530 -552 0
-530 -553 0
-530 -554 0
-530 -555 0
-530 -556 0
-530 -557 0
-530 -558 0
-530 -559 0
-530 -560 0
-530 -561 0
-530 -562 0
-530 -563 0
-530 -564 0
-530 -565 0
-530 -566 0
-530 -567 0
-530 -568 0
-530 -569 0
-530 -570 0
-530 -571 0
-530 -572 0
-530 -573 0
-530 -574 0
-530 -575 0
-530 -576 0
-530 -577 0
-530 -578 0
-530 -579 0
-530 -580 0
-530 -581 0
-530 -582 0
-530 -583 0
-530 -584 0
-530 -585 0
-530 -586 0
-530 -587 0
-530 -588 0
-530 -589 0
-530 -590 0
-530 -591 0
-530 -592 0
-530 -593 0
-530 -594 0
-530 -595 0
-530 -596 0
-530 -597 0
-530 -598 0
-530 -599 0
-530 -600 0
-530 -601 0
-530 -602 0
-530 -603 0
-530 -604 0
-530 -605 0
-530 -606 0
-530 -607 0
-530 -608 0
-530 -609 0
-530 -610 0
-530 -611 0
-530 -612 0
-530 -613 0
-530 -614 0
-530 -615 0
-530 -616 0
-530 -617 0
-530 -618 0
-530 -619 0
-530 -620 0
-530 -621 0
-530 -622 0
-530 -623 0
-530 -624 0
-530 -625 0
-530 -626 0
-530 -627 0
-530 -628 0
-530 -629 0
-530 -630 0
-530 -631 0
-530 -632 0
-531 -532 0
-531 -533 0
-531 -534 0
-531 -535 0
-531 -536 0
-531 -537 0
-531 -538 0
-531 -539 0
-531 -540 0
-531 -541 0
-531 -542 0
-531 -543 0
-531 -544 0
-531 -545 0
-531 -546 0
-531 -547 0
-531 -548 0
-531 -549 0
-531 -550 0
-531 -551 0
-531 -552 0
-531 -553 0
-531 -554 0
-531 -555 0
-531 -556 0
-531 -557 0
-531 -558 0
-531 -559 0
-531 -560 0
-531 -561 0
-531 -562 0
-531 -563 0
-531 -564 0
-531 -565 0
-531 -566 0
-531 -567 0
-531 -568 0
-531 -569 0
-531 -570 0
-531 -571 0
-531 -572 0
-531 -573 0
-531 -574 0
-531 -575 0
-531 -576 0
-531 -577 0
-531 -578 0
-531 -579 0
-531 -580 0
-531 -581 0
-531 -582 0
-531 -583 0
-531 -584 0
-531 -585 0
-531 -586 0
-531 -587 0
-531 -588 0
-531 -589 0
-531 -590 0
-531 -591 0
-531 -592 0
-531 -593 0
-531 -594 0
-531 -595 0
-531 -596 0
-531 -597 0
-531 -598 0
-531 -599 0
-531 -600 0
-531 -601 0
-531 -602 0
-531 -603 0
-531 -604 0
-531 -605 0
-531 -606 0
-531 -607 0
-531 -608 0
-531 -609 0
-531 -610 0
-531 -611 0
-531 -612 0
-531 -613 0
-531 -614 0
-531 -615 0
-531 -616 0
-531 -617 0
-531 -618 0
-531 -619 0
-531 -620 0
-531 -621 0
-531 -622 0
-531 -623 0
-531 -624 0
-531 -625 0
-531 -626 0
-531 -627 0
-531 -628 0
-531 -629 0
-531 -630 0
-531 -631 0
-531 -632 0
-532 -533 0
-532 -534 0
-532 -535 0
-532 -536 0
-532 -537 0
-532 -538 0
-532 -539 0
-532 -540 0
-532 -541 0
-532 -542 0
-532 -543 0
-532 -544 0
-532 -545 0
-532 -546 0
-532 -547 0
-532 -548 0
-532 -549 0
-532 -550 0
-532 -551 0
-532 -552 0
-532 -553 0
-532 -554 0
-532 -555 0
-532 -556 0
-532 -557 0
-532 -558 0
-532 -559 0
-532 -560 0
-532 -561 0
-532 -562 0
-532 -563 0
-532 -564 0
-532 -565 0
-532 -566 0
-532 -567 0
-532 -568 0
-532 -569 0
-532 -570 0
-532 -571 0
-532 -572 0
-532 -573 0
-532 -574 0
-532 -575 0
-532 -576 0
-532 -577 0
-532 -578 0
-532 -579 0
-532 -580 0
-532 -581 0
-532 -582 0
-532 -583 0
-532 -584 0
-532 -585 0
-532 -586 0
-532 -587 0
-532 -588 0
-532 -589 0
-532 -590 0
-532 -591 0
-532 -592 0
-532 -593 0
-532 -594 0
-532 -595 0
-532 -596 0
-532 -597 0
-532 -598 0
-532 -599 0
-532 -600 0
-532 -601 0
-532 -602 0
-532 -603 0
-532 -604 0
-532 -605 0
-532 -606 0
-532 -607 0
-532 -608 0
-532 -609 0
-532 -610 0
-532 -611 0
-532 -612 0
-532 -613 0
-532 -614 0
-532 -615 0
-532 -616 0
-532 -617 0
-532 -618 0
-532 -619 0
-532 -620 0
-532 -621 0
-532 -622 0
-532 -623 0
-532 -624 0
-532 -625 0
-532 -626 0
-532 -627 0
-532 -628 0
-532 -629 0
-532 -630 0
-532 -631 0
-532 -632 0
-533 -534 0
-533 -535 0
-533 -536 0
-533 -537 0
-533 -538 0
-533 -539 0
-533 -540 0
-533 -541 0
-533 -542 0
-533 -543 0
-533 -544 0
-533 -545 0
-533 -546 0
-533 -547 0
-533 -548 0
-533 -549 0
-533 -550 0
-533 -551 0
-533 -552 0
-533 -553 0
-533 -554 0
-533 -555 0
-533 -556 0
-533 -557 0
-533 -558 0
-533 -559 0
-533 -560 0
-533 -561 0
-533 -562 0
-533 -563 0
-533 -564 0
-533 -565 0
-533 -566 0
-533 -567 0
-533 -568 0
-533 -569 0
-533 -570 0
-533 -571 0
-533 -572 0
-533 -573 0
-533 -574 0
-533 -575 0
-533 -576 0
-533 -577 0
-533 -578 0
-533 -579 0
-533 -580 0
-533 -581 0
-533 -582 0
-533 -583 0
-533 -584 0
-533 -585 0
-533 -586 0
-533 -587 0
-533 -588 0
-533 -589 0
-533 -590 0
-533 -591 0
-533 -592 0
-533 -593 0
-533 -594 0
-533 -595 0
-533 -596 0
-533 -597 0
-533 -598 0
-533 -599 0
-533 -600 0
-533 -601 0
-533 -602 0
-533 -603 0
-533 -604 0
-533 -605 0
-533 -606 0
-533 -607 0
-533 -608 0
-533 -609 0
-533 -610 0
-533 -611 0
-533 -612 0
-533 -613 0
-533 -614 0
-533 -615 0
-533 -616 0
-533 -617 0
-533 -618 0
-533 -619 0
-533 -620 0
-533 -621 0
-533 -622 0
-533 -623 0
-533 -624 0
-533 -625 0
-533 -626 0
-533 -627 0
-533 -628 0
-533 -629 0
-533 -630 0
-533 -631 0
-533 -632 0
-534 -535 0
-534 -536 0
-534 -537 0
-534 -538 0
-534 -539 0
-534 -540 0
-534 -541 0
-534 -542 0
-534 -543 0
-534 -544 0
-534 -545 0
-534 -546 0
-534 -547 0
-534 -548 0
-534 -549 0
-534 -550 0
-534 -551 0
-534 -552 0
-534 -553 0
-534 -554 0
-534 -555 0
-534 -556 0
-534 -557 0
-534 -558 0
-534 -559 0
-534 -560 0
-534 -561 0
-534 -562 0
-534 -563 0
-534 -564 0
-534 -565 0
-534 -566 0
-534 -567 0
-534 -568 0
-534 -569 0
-534 -570 0
-534 -571 0
-534 -572 0
-534 -573 0
-534 -574 0
-534 -575 0
-534 -576 0
-534 -577 0
-534 -578 0
-534 -579 0
-534 -580 0
-534 -581 0
-534 -582 0
-534 -583 0
-534 -584 0
-534 -585 0
-534 -586 0
-534 -587 0
-534 -588 0
-534 -589 0
-534 -590 0
-534 -591 0
-534 -592 0
-534 -593 0
-534 -594 0
-534 -595 0
-534 -596 0
-534 -597 0
-534 -598 0
-534 -599 0
-534 -600 0
-534 -601 0
-534 -602 0
-534 -603 0
-534 -604 0
-534 -605 0
-534 -606 0
-534 -607 0
-534 -608 0
-534 -609 0
-534 -610 0
-534 -611 0
-534 -612 0
-534 -613 0
-534 -614 0
-534 -615 0
-534 -616 0
-534 -617 0
-534 -618 0
-534 -619 0
-534 -620 0
-534 -621 0
-534 -622 0
-534 -623 0
-534 -624 0
-534 -625 0
-534 -626 0
-534 -627 0
-534 -628 0
-534 -629 0
-534 -630 0
-534 -631 0
-534 -632 0
-535 -536 0
-535 -537 0
-535 -538 0
-535 -539 0
-535 -540 0
-535 -541 0
-535 -542 0
-535 -543 0
-535 -544 0
-535 -545 0
-535 -546 0
-535 -547 0
-535 -548 0
-535 -549 0
-535 -550 0
-535 -551 0
-535 -552 0
-535 -553 0
-535 -554 0
-535 -555 0
-535 -556 0
-535 -557 0
-535 -558 0
-535 -559 0
-535 -560 0
-535 -561 0
-535 -562 0
-535 -563 0
-535 -564 0
-535 -565 0
-535 -566 0
-535 -567 0
-535 -568 0
-535 -569 0
-535 -570 0
-535 -571 0
-535 -572 0
-535 -573 0
-535 -574 0
-535 -575 0
-535 -576 0
-535 -577 0
-535 -578 0
-535 -579 0
-535 -580 0
-535 -581 0
-535 -582 0
-535 -583 0
-535 -584 0
-535 -585 0
-535 -586 0
-535 -587 0
-535 -588 0
-535 -589 0
-535 -590 0
-535 -591 0
-535 -592 0
-535 -593 0
-535 -594 0
-535 -595 0
-535 -596 0
-535 -597 0
-535 -598 0
-535 -599 0
-535 -600 0
-535 -601 0
-535 -602 0
-535 -603 0
-535 -604 0
-535 -605 0
-535 -606 0
-535 -607 0
-535 -608 0
-535 -609 0
-535 -610 0
-535 -611 0
-535 -612 0
-535 -613 0
-535 -614 0
-535 -615 0
-535 -616 0
-535 -617 0
-535 -618 0
-535 -619 0
-535 -620 0
-535 -621 0
-535 -622 0
-535 -623 0
-535 -624 0
-535 -625 0
-535 -626 0
-535 -627 0
-535 -628 0
-535 -629 0
-535 -630 0
-535 -631 0
-535 -632 0
-536 -537 0
-536 -538 0
-536 -539 0
-536 -540 0
-536 -541 0
-536 -542 0
-536 -543 0
-536 -544 0
-536 -545 0
-536 -546 0
-536 -547 0
-536 -548 0
-536 -549 0
-536 -550 0
-536 -551 0
-536 -552 0
-536 -553 0
-536 -554 0
-536 -555 0
-536 -556 0
-536 -557 0
-536 -558 0
-536 -559 0
-536 -560 0
-536 -561 0
-536 -562 0
-536 -563 0
-536 -564 0
-536 -565 0
-536 -566 0
-536 -567 0
-536 -568 0
-536 -569 0
-536 -570 0
-536 -571 0
-536 -572 0
-536 -573 0
-536 -574 0
-536 -575 0
-536 -576 0
-536 -577 0
-536 -578 0
-536 -579 0
-536 -580 0
-536 -581 0
-536 -582 0
-536 -583 0
-536 -584 0
-536 -585 0
-536 -586 0
-536 -587 0
-536 -588 0
-536 -589 0
-536 -590 0
-536 -591 0
-536 -592 0
-536 -593 0
-536 -594 0
-536 -595 0
-536 -596 0
-536 -597 0
-536 -598 0
-536 -599 0
-536 -600 0
-536 -601 0
-536 -602 0
-536 -603 0
-536 -604 0
-536 -605 0
-536 -606 0
-536 -607 0
-536 -608 0
-536 -609 0
-536 -610 0
-536 -611 0
-536 -612 0
-536 -613 0
-536 -614 0
-536 -615 0
-536 -616 0
-536 -617 0
-536 -618 0
-536 -619 0
-536 -620 0
-536 -621 0
-536 -622 0
-536 -623 0
-536 -624 0
-536 -625 0
-536 -626 0
-536 -627 0
-536 -628 0
-536 -629 0
-536 -630 0
-536 -631 0
-536 -632 0
-537 -538 0
-537 -539 0
-537 -540 0
-537 -541 0
-537 -542 0
-537 -543 0
-537 -544 0
-537 -545 0
-537 -546 0
-537 -547 0
-537 -548 0
-537 -549 0
-537 -550 0
-537 -551 0
-537 -552 0
-537 -553 0
-537 -554 0
-537 -555 0
-537 -556 0
-537 -557 0
-537 -558 0
-537 -559 0
-537 -560 0
-537 -561 0
-537 -562 0
-537 -563 0
-537 -564 0
-537 -565 0
-537 -566 0
-537 -567 0
-537 -568 0
-537 -569 0
-537 -570 0
-537 -571 0
-537 -572 0
-537 -573 0
-537 -574 0
-537 -575 0
-537 -576 0
-537 -577 0
-537 -578 0
-537 -579 0
-537 -580 0
-537 -581 0
-537 -582 0
-537 -583 0
-537 -584 0
-537 -585 0
-537 -586 0
-537 -587 0
-537 -588 0
-537 -589 0
-537 -590 0
-537 -591 0
-537 -592 0
-537 -593 0
-537 -594 0
-537 -595 0
-537 -596 0
-537 -597 0
-537 -598 0
-537 -599 0
-537 -600 0
-537 -601 0
-537 -602 0
-537 -603 0
-537 -604 0
-537 -605 0
-537 -606 0
-537 -607 0
-537 -608 0
-537 -609 0
-537 -610 0
-537 -611 0
-537 -612 0
-537 -613 0
-537 -614 0
-537 -615 0
-537 -616 0
-537 -617 0
-537 -618 0
-537 -619 0
-537 -620 0
-537 -621 0
-537 -622 0
-537 -623 0
-537 -624 0
-537 -625 0
-537 -626 0
-537 -627 0
-537 -628 0
-537 -629 0
-537 -630 0
-537 -631 0
-537 -632 0
-538 -539 0
-538 -540 0
-538 -541 0
-538 -542 0
-538 -543 0
-538 -544 0
-538 -545 0
-538 -546 0
-538 -547 0
-538 -548 0
-538 -549 0
-538 -550 0
-538 -551 0
-538 -552 0
-538 -553 0
-538 -554 0
-538 -555 0
-538 -556 0
-538 -557 0
-538 -558 0
-538 -559 0
-538 -560 0
-538 -561 0
-538 -562 0
-538 -563 0
-538 -564 0
-538 -565 0
-538 -566 0
-538 -567 0
-538 -568 0
-538 -569 0
-538 -570 0
-538 -571 0
-538 -572 0
-538 -573 0
-538 -574 0
-538 -575 0
-538 -576 0
-538 -577 0
-538 -578 0
-538 -579 0
-538 -580 0
-538 -581 0
-538 -582 0
-538 -583 0
-538 -584 0
-538 -585 0
-538 -586 0
-538 -587 0
-538 -588 0
-538 -589 0
-538 -590 0
-538 -591 0
-538 -592 0
-538 -593 0
-538 -594 0
-538 -595 0
-538 -596 0
-538 -597 0
-538 -598 0
-538 -599 0
-538 -600 0
-538 -601 0
-538 -602 0
-538 -603 0
-538 -604 0
-538 -605 0
-538 -606 0
-538 -607 0
-538 -608 0
-538 -609 0
-538 -610 0
-538 -611 0
-538 -612 0
-538 -613 0
-538 -614 0
-538 -615 0
-538 -616 0
-538 -617 0
-538 -618 0
-538 -619 0
-538 -620 0
-538 -621 0
-538 -622 0
-538 -623 0
-538 -624 0
-538 -625 0
-538 -626 0
-538 -627 0
-538 -628 0
-538 -629 0
-538 -630 0
-538 -631 0
-538 -632 0
-539 -540 0
-539 -541 0
-539 -542 0
-539 -543 0
-539 -544 0
-539 -545 0
-539 -546 0
-539 -547 0
-539 -548 0
-539 -549 0
-539 -550 0
-539 -551 0
-539 -552 0
-539 -553 0
-539 -554 0
-539 -555 0
-539 -556 0
-539 -557 0
-539 -558 0
-539 -559 0
-539 -560 0
-539 -561 0
-539 -562 0
-539 -563 0
-539 -564 0
-539 -565 0
-539 -566 0
-539 -567 0
-539 -568 0
-539 -569 0
-539 -570 0
-539 -571 0
-539 -572 0
-539 -573 0
-539 -574 0
-539 -575 0
-539 -576 0
-539 -577 0
-539 -578 0
-539 -579 0
-539 -580 0
-539 -581 0
-539 -582 0
-539 -583 0
-539 -584 0
-539 -585 0
-539 -586 0
-539 -587 0
-539 -588 0
-539 -589 0
-539 -590 0
-539 -591 0
-539 -592 0
-539 -593 0
-539 -594 0
-539 -595 0
-539 -596 0
-539 -597 0
-539 -598 0
-539 -599 0
-539 -600 0
-539 -601 0
-539 -602 0
-539 -603 0
-539 -604 0
-539 -605 0
-539 -606 0
-539 -607 0
-539 -608 0
-539 -609 0
-539 -610 0
-539 -611 0
-539 -612 0
-539 -613 0
-539 -614 0
-539 -615 0
-539 -616 0
-539 -617 0
-539 -618 0
-539 -619 0
-539 -620 0
-539 -621 0
-539 -622 0
-539 -623 0
-539 -624 0
-539 -625 0
-539 -626 0
-539 -627 0
-539 -628 0
-539 -629 0
-539 -630 0
-539 -631 0
-539 -632 0
-540 -541 0
-540 -542 0
-540 -543 0
-540 -544 0
-540 -545 0
-540 -546 0
-540 -547 0
-540 -548 0
-540 -549 0
-540 -550 0
-540 -551 0
-540 -552 0
-540 -553 0
-540 -554 0
-540 -555 0
-540 -556 0
-540 -557 0
-540 -558 0
-540 -559 0
-540 -560 0
-540 -561 0
-540 -562 0
-540 -563 0
-540 -564 0
-540 -565 0
-540 -566 0
-540 -567 0
-540 -568 0
-540 -569 0
-540 -570 0
-540 -571 0
-540 -572 0
-540 -573 0
-540 -574 0
-540 -575 0
-540 -576 0
-540 -577 0
-540 -578 0
-540 -579 0
-540 -580 0
-540 -581 0
-540 -582 0
-540 -583 0
-540 -584 0
-540 -585 0
-540 -586 0
-540 -587 0
-540 -588 0
-540 -589 0
-540 -590 0
-540 -591 0
-540 -592 0
-540 -593 0
-540 -594 0
-540 -595 0
-540 -596 0
-540 -597 0
-540 -598 0
-540 -599 0
-540 -600 0
-540 -601 0
-540 -602 0
-540 -603 0
-540 -604 0
-540 -605 0
-540 -606 0
-540 -607 0
-540 -608 0
-540 -609 0
-540 -610 0
-540 -611 0
-540 -612 0
-540 -613 0
-540 -614 0
-540 -615 0
-540 -616 0
-540 -617 0
-540 -618 0
-540 -619 0
-540 -620 0
-540 -621 0
-540 -622 0
-540 -623 0
-540 -624 0
-540 -625 0
-540 -626 0
-540 -627 0
-540 -628 0
-540 -629 0
-540 -630 0
-540 -631 0
-540 -632 0
-541 -542 0
-541 -543 0
-541 -544 0
-541 -545 0
-541 -546 0
-541 -547 0
-541 -548 0
-541 -549 0
-541 -550 0
-541 -551 0
-541 -552 0
-541 -553 0
-541 -554 0
-541 -555 0
-541 -556 0
-541 -557 0
-541 -558 0
-541 -559 0
-541 -560 0
-541 -561 0
-541 -562 0
-541 -563 0
-541 -564 0
-541 -565 0
-541 -566 0
-541 -567 0
-541 -568 0
-541 -569 0
-541 -570 0
-541 -571 0
-541 -572 0
-541 -573 0
-541 -574 0
-541 -575 0
-541 -576 0
-541 -577 0
-541 -578 0
-541 -579 0
-541 -580 0
-541 -581 0
-541 -582 0
-541 -583 0
-541 -584 0
-541 -585 0
-541 -586 0
-541 -587 0
-541 -588 0
-541 -589 0
-541 -590 0
-541 -591 0
-541 -592 0
-541 -593 0
-541 -594 0
-541 -595 0
-541 -596 0
-541 -597 0
-541 -598 0
-541 -599 0
-541 -600 0
-541 -601 0
-541 -602 0
-541 -603 0
-541 -604 0
-541 -605 0
-541 -606 0
-541 -607 0
-541 -608 0
-541 -609 0
-541 -610 0
-541 -611 0
-541 -612 0
-541 -613 0
-541 -614 0
-541 -615 0
-541 -616 0
-541 -617 0
-541 -618 0
-541 -619 0
-541 -620 0
-541 -621 0
-541 -622 0
-541 -623 0
-541 -624 0
-541 -625 0
-541 -626 0
-541 -627 0
-541 -628 0
-541 -629 0
-541 -630 0
-541 -631 0
-541 -632 0
-542 -543 0
-542 -544 0
-542 -545 0
-542 -546 0
-542 -547 0
-542 -548 0
-542 -549 0
-542 -550 0
-542 -551 0
-542 -552 0
-542 -553 0
-542 -554 0
-542 -555 0
-542 -556 0
-542 -557 0
-542 -558 0
-542 -559 0
-542 -560 0
-542 -561 0
-542 -562 0
-542 -563 0
-542 -564 0
-542 -565 0
-542 -566 0
-542 -567 0
-542 -568 0
-542 -569 0
-542 -570 0
-542 -571 0
-542 -572 0
-542 -573 0
-542 -574 0
-542 -575 0
-542 -576 0
-542 -577 0
-542 -578 0
-542 -579 0
-542 -580 0
-542 -581 0
-542 -582 0
-542 -583 0
-542 -584 0
-542 -585 0
-542 -586 0
-542 -587 0
-542 -588 0
-542 -589 0
-542 -590 0
-542 -591 0
-542 -592 0
-542 -593 0
-542 -594 0
-542 -595 0
-542 -596 0
-542 -597 0
-542 -598 0
-542 -599 0
-542 -600 0
-542 -601 0
-542 -602 0
-542 -603 0
-542 -604 0
-542 -605 0
-542 -606 0
-542 -607 0
-542 -608 0
-542 -609 0
-542 -610 0
-542 -611 0
-542 -612 0
-542 -613 0
-542 -614 0
-542 -615 0
-542 -616 0
-542 -617 0
-542 -618 0
-542 -619 0
-542 -620 0
-542 -621 0
-542 -622 0
-542 -623 0
-542 -624 0
-542 -625 0
-542 -626 0
-542 -627 0
-542 -628 0
-542 -629 0
-542 -630 0
-542 -631 0
-542 -632 0
-543 -544 0
-543 -545 0
-543 -546 0
-543 -547 0
-543 -548 0
-543 -549 0
-543 -550 0
-543 -551 0
-543 -552 0
-543 -553 0
-543 -554 0
-543 -555 0
-543 -556 0
-543 -557 0
-543 -558 0
-543 -559 0
-543 -560 0
-543 -561 0
-543 -562 0
-543 -563 0
-543 -564 0
-543 -565 0
-543 -566 0
-543 -567 0
-543 -568 0
-543 -569 0
-543 -570 0
-543 -571 0
-543 -572 0
-543 -573 0
-543 -574 0
-543 -575 0
-543 -576 0
-543 -577 0
-543 -578 0
-543 -579 0
-543 -580 0
-543 -581 0
-543 -582 0
-543 -583 0
-543 -584 0
-543 -585 0
-543 -586 0
-543 -587 0
-543 -588 0
-543 -589 0
-543 -590 0
-543 -591 0
-543 -592 0
-543 -593 0
-543 -594 0
-543 -595 0
-543 -596 0
-543 -597 0
-543 -598 0
-543 -599 0
-543 -600 0
-543 -601 0
-543 -602 0
-543 -603 0
-543 -604 0
-543 -605 0
-543 -606 0
-543 -607 0
-543 -608 0
-543 -609 0
-543 -610 0
-543 -611 0
-543 -612 0
-543 -613 0
-543 -614 0
-543 -615 0
-543 -616 0
-543 -617 0
-543 -618 0
-543 -619 0
-543 -620 0
-543 -621 0
-543 -622 0
-543 -623 0
-543 -624 0
-543 -625 0
-543 -626 0
-543 -627 0
-543 -628 0
-543 -629 0
-543 -630 0
-543 -631 0
-543 -632 0
-544 -545 0
-544 -546 0
-544 -547 0
-544 -548 0
-544 -549 0
-544 -550 0
-544 -551 0
-544 -552 0
-544 -553 0
-544 -554 0
-544 -555 0
-544 -556 0
-544 -557 0
-544 -558 0
-544 -559 0
-544 -560 0
-544 -561 0
-544 -562 0
-544 -563 0
-544 -564 0
-544 -565 0
-544 -566 0
-544 -567 0
-544 -568 0
-544 -569 0
-544 -570 0
-544 -571 0
-544 -572 0
-544 -573 0
-544 -574 0
-544 -575 0
-544 -576 0
-544 -577 0
-544 -578 0
-544 -579 0
-544 -580 0
-544 -581 0
-544 -582 0
-544 -583 0
-544 -584 0
-544 -585 0
-544 -586 0
-544 -587 0
-544 -588 0
-544 -589 0
-544 -590 0
-544 -591 0
-544 -592 0
-544 -593 0
-544 -594 0
-544 -595 0
-544 -596 0
-544 -597 0
-544 -598 0
-544 -599 0
-544 -600 0
-544 -601 0
-544 -602 0
-544 -603 0
-544 -604 0
-544 -605 0
-544 -606 0
-544 -607 0
-544 -608 0
-544 -609 0
-544 -610 0
-544 -611 0
-544 -612 0
-544 -613 0
-544 -614 0
-544 -615 0
-544 -616 0
-544 -617 0
-544 -618 0
-544 -619 0
-544 -620 0
-544 -621 0
-544 -622 0
-544 -623 0
-544 -624 0
-544 -625 0
-544 -626 0
-544 -627 0
-544 -628 0
-544 -629 0
-544 -630 0
-544 -631 0
-544 -632 0
-545 -546 0
-545 -547 0
-545 -548 0
-545 -549 0
-545 -550 0
-545 -551 0
-545 -552 0
-545 -553 0
-545 -554 0
-545 -555 0
-545 -556 0
-545 -557 0
-545 -558 0
-545 -559 0
-545 -560 0
-545 -561 0
-545 -562 0
-545 -563 0
-545 -564 0
-545 -565 0
-545 -566 0
-545 -567 0
-545 -568 0
-545 -569 0
-545 -570 0
-545 -571 0
-545 -572 0
-545 -573 0
-545 -574 0
-545 -575 0
-545 -576 0
-545 -577 0
-545 -578 0
-545 -579 0
-545 -580 0
-545 -581 0
-545 -582 0
-545 -583 0
-545 -584 0
-545 -585 0
-545 -586 0
-545 -587 0
-545 -588 0
-545 -589 0
-545 -590 0
-545 -591 0
-545 -592 0
-545 -593 0
-545 -594 0
-545 -595 0
-545 -596 0
-545 -597 0
-545 -598 0
-545 -599 0
-545 -600 0
-545 -601 0
-545 -602 0
-545 -603 0
-545 -604 0
-545 -605 0
-545 -606 0
-545 -607 0
-545 -608 0
-545 -609 0
-545 -610 0
-545 -611 0
-545 -612 0
-545 -613 0
-545 -614 0
-545 -615 0
-545 -616 0
-545 -617 0
-545 -618 0
-545 -619 0
-545 -620 0
-545 -621 0
-545 -622 0
-545 -623 0
-545 -624 0
-545 -625 0
-545 -626 0
-545 -627 0
-545 -628 0
-545 -629 0
-545 -630 0
-545 -631 0
-545 -632 0
-546 -547 0
-546 -548 0
-546 -549 0
-546 -550 0
-546 -551 0
-546 -552 0
-546 -553 0
-546 -554 0
-546 -555 0
-546 -556 0
-546 -557 0
-546 -558 0
-546 -559 0
-546 -560 0
-546 -561 0
-546 -562 0
-546 -563 0
-546 -564 0
-546 -565 0
-546 -566 0
-546 -567 0
-546 -568 0
-546 -569 0
-546 -570 0
-546 -571 0
-546 -572 0
-546 -573 0
-546 -574 0
-546 -575 0
-546 -576 0
-546 -577 0
-546 -578 0
-546 -579 0
-546 -580 0
-546 -581 0
-546 -582 0
-546 -583 0
-546 -584 0
-546 -585 0
-546 -586 0
-546 -587 0
-546 -588 0
-546 -589 0
-546 -590 0
-546 -591 0
-546 -592 0
-546 -593 0
-546 -594 0
-546 -595 0
-546 -596 0
-546 -597 0
-546 -598 0
-546 -599 0
-546 -600 0
-546 -601 0
-546 -602 0
-546 -603 0
-546 -604 0
-546 -605 0
-546 -606 0
-546 -607 0
-546 -608 0
-546 -609 0
-546 -610 0
-546 -611 0
-546 -612 0
-546 -613 0
-546 -614 0
-546 -615 0
-546 -616 0
-546 -617 0
-546 -618 0
-546 -619 0
-546 -620 0
-546 -621 0
-546 -622 0
-546 -623 0
-546 -624 0
-546 -625 0
-546 -626 0
-546 -627 0
-546 -628 0
-546 -629 0
-546 -630 0
-546 -631 0
-546 -632 0
-547 -548 0
-547 -549 0
-547 -550 0
-547 -551 0
-547 -552 0
-547 -553 0
-547 -554 0
-547 -555 0
-547 -556 0
-547 -557 0
-547 -558 0
-547 -559 0
-547 -560 0
-547 -561 0
-547 -562 0
-547 -563 0
-547 -564 0
-547 -565 0
-547 -566 0
-547 -567 0
-547 -568 0
-547 -569 0
-547 -570 0
-547 -571 0
-547 -572 0
-547 -573 0
-547 -574 0
-547 -575 0
-547 -576 0
-547 -577 0
-547 -578 0
-547 -579 0
-547 -580 0
-547 -581 0
-547 -582 0
-547 -583 0
-547 -584 0
-547 -585 0
-547 -586 0
-547 -587 0
-547 -588 0
-547 -589 0
-547 -590 0
-547 -591 0
-547 -592 0
-547 -593 0
-547 -594 0
-547 -595 0
-547 -596 0
-547 -597 0
-547 -598 0
-547 -599 0
-547 -600 0
-547 -601 0
-547 -602 0
-547 -603 0
-547 -604 0
-547 -605 0
-547 -606 0
-547 -607 0
-547 -608 0
-547 -609 0
-547 -610 0
-547 -611 0
-547 -612 0
-547 -613 0
-547 -614 0
-547 -615 0
-547 -616 0
-547 -617 0
-547 -618 0
-547 -619 0
-547 -620 0
-547 -621 0
-547 -622 0
-547 -623 0
-547 -624 0
-547 -625 0
-547 -626 0
-547 -627 0
-547 -628 0
-547 -629 0
-547 -630 0
-547 -631 0
-547 -632 0
-548 -549 0
-548 -550 0
-548 -551 0
-548 -552 0
-548 -553 0
-548 -554 0
-548 -555 0
-548 -556 0
-548 -557 0
-548 -558 0
-548 -559 0
-548 -560 0
-548 -561 0
-548 -562 0
-548 -563 0
-548 -564 0
-548 -565 0
-548 -566 0
-548 -567 0
-548 -568 0
-548 -569 0
-548 -570 0
-548 -571 0
-548 -572 0
-548 -573 0
-548 -574 0
-548 -575 0
-548 -576 0
-548 -577 0
-548 -578 0
-548 -579 0
-548 -580 0
-548 -581 0
-548 -582 0
-548 -583 0
-548 -584 0
-548 -585 0
-548 -586 0
-548 -587 0
-548 -588 0
-548 -589 0
-548 -590 0
-548 -591 0
-548 -592 0
-548 -593 0
-548 -594 0
-548 -595 0
-548 -596 0
-548 -597 0
-548 -598 0
-548 -599 0
-548 -600 0
-548 -601 0
-548 -602 0
-548 -603 0
-548 -604 0
-548 -605 0
-548 -606 0
-548 -607 0
-548 -608 0
-548 -609 0
-548 -610 0
-548 -611 0
-548 -612 0
-548 -613 0
-548 -614 0
-548 -615 0
-548 -616 0
-548 -617 0
-548 -618 0
-548 -619 0
-548 -620 0
-548 -621 0
-548 -622 0
-548 -623 0
-548 -624 0
-548 -625 0
-548 -626 0
-548 -627 0
-548 -628 0
-548 -629 0
-548 -630 0
-548 -631 0
-548 -632 0
-549 -550 0
-549 -551 0
-549 -552 0
-549 -553 0
-549 -554 0
-549 -555 0
-549 -556 0
-549 -557 0
-549 -558 0
-549 -559 0
-549 -560 0
-549 -561 0
-549 -562 0
-549 -563 0
-549 -564 0
-549 -565 0
-549 -566 0
-549 -567 0
-549 -568 0
-549 -569 0
-549 -570 0
-549 -571 0
-549 -572 0
-549 -573 0
-549 -574 0
-549 -575 0
-549 -576 0
-549 -577 0
-549 -578 0
-549 -579 0
-549 -580 0
-549 -581 0
-549 -582 0
-549 -583 0
-549 -584 0
-549 -585 0
-549 -586 0
-549 -587 0
-549 -588 0
-549 -589 0
-549 -590 0
-549 -591 0
-549 -592 0
-549 -593 0
-549 -594 0
-549 -595 0
-549 -596 0
-549 -597 0
-549 -598 0
-549 -599 0
-549 -600 0
-549 -601 0
-549 -602 0
-549 -603 0
-549 -604 0
-549 -605 0
-549 -606 0
-549 -607 0
-549 -608 0
-549 -609 0
-549 -610 0
-549 -611 0
-549 -612 0
-549 -613 0
-549 -614 0
-549 -615 0
-549 -616 0
-549 -617 0
-549 -618 0
-549 -619 0
-549 -620 0
-549 -621 0
-549 -622 0
-549 -623 0
-549 -624 0
-549 -625 0
-549 -626 0
-549 -627 0
-549 -628 0
-549 -629 0
-549 -630 0
-549 -631 0
-549 -632 0
-550 -551 0
-550 -552 0
-550 -553 0
-550 -554 0
-550 -555 0
-550 -556 0
-550 -557 0
-550 -558 0
-550 -559 0
-550 -560 0
-550 -561 0
-550 -562 0
-550 -563 0
-550 -564 0
-550 -565 0
-550 -566 0
-550 -567 0
-550 -568 0
-550 -569 0
-550 -570 0
-550 -571 0
-550 -572 0
-550 -573 0
-550 -574 0
-550 -575 0
-550 -576 0
-550 -577 0
-550 -578 0
-550 -579 0
-550 -580 0
-550 -581 0
-550 -582 0
-550 -583 0
-550 -584 0
-550 -585 0
-550 -586 0
-550 -587 0
-550 -588 0
-550 -589 0
-550 -590 0
-550 -591 0
-550 -592 0
-550 -593 0
-550 -594 0
-550 -595 0
-550 -596 0
-550 -597 0
-550 -598 0
-550 -599 0
-550 -600 0
-550 -601 0
-550 -602 0
-550 -603 0
-550 -604 0
-550 -605 0
-550 -606 0
-550 -607 0
-550 -608 0
-550 -609 0
-550 -610 0
-550 -611 0
-550 -612 0
-550 -613 0
-550 -614 0
-550 -615 0
-550 -616 0
-550 -617 0
-550 -618 0
-550 -619 0
-550 -620 0
-550 -621 0
-550 -622 0
-550 -623 0
-550 -624 0
-550 -625 0
-550 -626 0
-550 -627 0
-550 -628 0
-550 -629 0
-550 -630 0
-550 -631 0
-550 -632 0
-551 -552 0
-551 -553 0
-551 -554 0
-551 -555 0
-551 -556 0
-551 -557 0
-551 -558 0
-551 -559 0
-551 -560 0
-551 -561 0
-551 -562 0
-551 -563 0
-551 -564 0
-551 -565 0
-551 -566 0
-551 -567 0
-551 -568 0
-551 -569 0
-551 -570 0
-551 -571 0
-551 -572 0
-551 -573 0
-551 -574 0
-551 -575 0
-551 -576 0
-551 -577 0
-551 -578 0
-551 -579 0
-551 -580 0
-551 -581 0
-551 -582 0
-551 -583 0
-551 -584 0
-551 -585 0
-551 -586 0
-551 -587 0
-551 -588 0
-551 -589 0
-551 -590 0
-551 -591 0
-551 -592 0
-551 -593 0
-551 -594 0
-551 -595 0
-551 -596 0
-551 -597 0
-551 -598 0
-551 -599 0
-551 -600 0
-551 -601 0
-551 -602 0
-551 -603 0
-551 -604 0
-551 -605 0
-551 -606 0
-551 -607 0
-551 -608 0
-551 -609 0
-551 -610 0
-551 -611 0
-551 -612 0
-551 -613 0
-551 -614 0
-551 -615 0
-551 -616 0
-551 -617 0
-551 -618 0
-551 -619 0
-551 -620 0
-551 -621 0
-551 -622 0
-551 -623 0
-551 -624 0
-551 -625 0
-551 -626 0
-551 -627 0
-551 -628 0
-551 -629 0
-551 -630 0
-551 -631 0
-551 -632 0
-552 -553 0
-552 -554 0
-552 -555 0
-552 -556 0
-552 -557 0
-552 -558 0
-552 -559 0
-552 -560 0
-552 -561 0
-552 -562 0
-552 -563 0
-552 -564 0
-552 -565 0
-552 -566 0
-552 -567 0
-552 -568 0
-552 -569 0
-552 -570 0
-552 -571 0
-552 -572 0
-552 -573 0
-552 -574 0
-552 -575 0
-552 -576 0
-552 -577 0
-552 -578 0
-552 -579 0
-552 -580 0
-552 -581 0
-552 -582 0
-552 -583 0
-552 -584 0
-552 -585 0
-552 -586 0
-552 -587 0
-552 -588 0
-552 -589 0
-552 -590 0
-552 -591 0
-552 -592 0
-552 -593 0
-552 -594 0
-552 -595 0
-552 -596 0
-552 -597 0
-552 -598 0
-552 -599 0
-552 -600 0
-552 -601 0
-552 -602 0
-552 -603 0
-552 -604 0
-552 -605 0
-552 -606 0
-552 -607 0
-552 -608 0
-552 -609 0
-552 -610 0
-552 -611 0
-552 -612 0
-552 -613 0
-552 -614 0
-552 -615 0
-552 -616 0
-552 -617 0
-552 -618 0
-552 -619 0
-552 -620 0
-552 -621 0
-552 -622 0
-552 -623 0
-552 -624 0
-552 -625 0
-552 -626 0
-552 -627 0
-552 -628 0
-552 -629 0
-552 -630 0
-552 -631 0
-552 -632 0
-553 -554 0
-553 -555 0
-553 -556 0
-553 -557 0
-553 -558 0
-553 -559 0
-553 -560 0
-553 -561 0
-553 -562 0
-553 -563 0
-553 -564 0
-553 -565 0
-553 -566 0
-553 -567 0
-553 -568 0
-553 -569 0
-553 -570 0
-553 -571 0
-553 -572 0
-553 -573 0
-553 -574 0
-553 -575 0
-553 -576 0
-553 -577 0
-553 -578 0
-553 -579 0
-553 -580 0
-553 -581 0
-553 -582 0
-553 -583 0
-553 -584 0
-553 -585 0
-553 -586 0
-553 -587 0
-553 -588 0
-553 -589 0
-553 -590 0
-553 -591 0
-553 -592 0
-553 -593 0
-553 -594 0
-553 -595 0
-553 -596 0
-553 -597 0
-553 -598 0
-553 -599 0
-553 -600 0
-553 -601 0
-553 -602 0
-553 -603 0
-553 -604 0
-553 -605 0
-553 -606 0
-553 -607 0
-553 -608 0
-553 -609 0
-553 -610 0
-553 -611 0
-553 -612 0
-553 -613 0
-553 -614 0
-553 -615 0
-553 -616 0
-553 -617 0
-553 -618 0
-553 -619 0
-553 -620 0
-553 -621 0
-553 -622 0
-553 -623 0
-553 -624 0
-553 -625 0
-553 -626 0
-553 -627 0
-553 -628 0
-553 -629 0
-553 -630 0
-553 -631 0
-553 -632 0
-554 -555 0
-554 -556 0
-554 -557 0
-554 -558 0
-554 -559 0
-554 -560 0
-554 -561 0
-554 -562 0
-554 -563 0
-554 -564 0
-554 -565 0
-554 -566 0
-554 -567 0
-554 -568 0
-554 -569 0
-554 -570 0
-554 -571 0
-554 -572 0
-554 -573 0
-554 -574 0
-554 -575 0
-554 -576 0
-554 -577 0
-554 -578 0
-554 -579 0
-554 -580 0
-554 -581 0
-554 -582 0
-554 -583 0
-554 -584 0
-554 -585 0
-554 -586 0
-554 -587 0
-554 -588 0
-554 -589 0
-554 -590 0
-554 -591 0
-554 -592 0
-554 -593 0
-554 -594 0
-554 -595 0
-554 -596 0
-554 -597 0
-554 -598 0
-554 -599 0
-554 -600 0
-554 -601 0
-554 -602 0
-554 -603 0
-554 -604 0
-554 -605 0
-554 -606 0
-554 -607 0
-554 -608 0
-554 -609 0
-554 -610 0
-554 -611 0
-554 -612 0
-554 -613 0
-554 -614 0
-554 -615 0
-554 -616 0
-554 -617 0
-554 -618 0
-554 -619 0
-554 -620 0
-554 -621 0
-554 -622 0
-554 -623 0
-554 -624 0
-554 -625 0
-554 -626 0
-554 -627 0
-554 -628 0
-554 -629 0
-554 -630 0
-554 -631 0
-554 -632 0
-555 -556 0
-555 -557 0
-555 -558 0
-555 -559 0
-555 -560 0
-555 -561 0
-555 -562 0
-555 -563 0
-555 -564 0
-555 -565 0
-555 -566 0
-555 -567 0
-555 -568 0
-555 -569 0
-555 -570 0
-555 -571 0
-555 -572 0
-555 -573 0
-555 -574 0
-555 -575 0
-555 -576 0
-555 -577 0
-555 -578 0
-555 -579 0
-555 -580 0
-555 -581 0
-555 -582 0
-555 -583 0
-555 -584 0
-555 -585 0
-555 -586 0
-555 -587 0
-555 -588 0
-555 -589 0
-555 -590 0
-555 -591 0
-555 -592 0
-555 -593 0
-555 -594 0
-555 -595 0
-555 -596 0
-555 -597 0
-555 -598 0
-555 -599 0
-555 -600 0
-555 -601 0
-555 -602 0
-555 -603 0
-555 -604 0
-555 -605 0
-555 -606 0
-555 -607 0
-555 -608 0
-555 -609 0
-555 -610 0
-555 -611 0
-555 -612 0
-555 -613 0
-555 -614 0
-555 -615 0
-555 -616 0
-555 -617 0
-555 -618 0
-555 -619 0
-555 -620 0
-555 -621 0
-555 -622 0
-555 -623 0
-555 -624 0
-555 -625 0
-555 -626 0
-555 -627 0
-555 -628 0
-555 -629 0
-555 -630 0
-555 -631 0
-555 -632 0
-556 -557 0
-556 -558 0
-556 -559 0
-556 -560 0
-556 -561 0
-556 -562 0
-556 -563 0
-556 -564 0
-556 -565 0
-556 -566 0
-556 -567 0
-556 -568 0
-556 -569 0
-556 -570 0
-556 -571 0
-556 -572 0
-556 -573 0
-556 -574 0
-556 -575 0
-556 -576 0
-556 -577 0
-556 -578 0
-556 -579 0
-556 -580 0
-556 -581 0
-556 -582 0
-556 -583 0
-556 -584 0
-556 -585 0
-556 -586 0
-556 -587 0
-556 -588 0
-556 -589 0
-556 -590 0
-556 -591 0
-556 -592 0
-556 -593 0
-556 -594 0
-556 -595 0
-556 -596 0
-556 -597 0
-556 -598 0
-556 -599 0
-556 -600 0
-556 -601 0
-556 -602 0
-556 -603 0
-556 -604 0
-556 -605 0
-556 -606 0
-556 -607 0
-556 -608 0
-556 -609 0
-556 -610 0
-556 -611 0
-556 -612 0
-556 -613 0
-556 -614 0
-556 -615 0
-556 -616 0
-556 -617 0
-556 -618 0
-556 -619 0
-556 -620 0
-556 -621 0
-556 -622 0
-556 -623 0
-556 -624 0
-556 -625 0
-556 -626 0
-556 -627 0
-556 -628 0
-556 -629 0
-556 -630 0
-556 -631 0
-556 -632 0
-557 -558 0
-557 -559 0
-557 -560 0
-557 -561 0
-557 -562 0
-557 -563 0
-557 -564 0
-557 -565 0
-557 -566 0
-557 -567 0
-557 -568 0
-557 -569 0
-557 -570 0
-557 -571 0
-557 -572 0
-557 -573 0
-557 -574 0
-557 -575 0
-557 -576 0
-557 -577 0
-557 -578 0
-557 -579 0
-557 -580 0
-557 -581 0
-557 -582 0
-557 -583 0
-557 -584 0
-557 -585 0
-557 -586 0
-557 -587 0
-557 -588 0
-557 -589 0
-557 -590 0
-557 -591 0
-557 -592 0
-557 -593 0
-557 -594 0
-557 -595 0
-557 -596 0
-557 -597 0
-557 -598 0
-557 -599 0
-557 -600 0
-557 -601 0
-557 -602 0
-557 -603 0
-557 -604 0
-557 -605 0
-557 -606 0
-557 -607 0
-557 -608 0
-557 -609 0
-557 -610 0
-557 -611 0
-557 -612 0
-557 -613 0
-557 -614 0
-557 -615 0
-557 -616 0
-557 -617 0
-557 -618 0
-557 -619 0
-557 -620 0
-557 -621 0
-557 -622 0
-557 -623 0
-557 -624 0
-557 -625 0
-557 -626 0
-557 -627 0
-557 -628 0
-557 -629 0
-557 -630 0
-557 -631 0
-557 -632 0
-558 -559 0
-558 -560 0
-558 -561 0
-558 -562 0
-558 -563 0
-558 -564 0
-558 -565 0
-558 -566 0
-558 -567 0
-558 -568 0
-558 -569 0
-558 -570 0
-558 -571 0
-558 -572 0
-558 -573 0
-558 -574 0
-558 -575 0
-558 -576 0
-558 -577 0
-558 -578 0
-558 -579 0
-558 -580 0
-558 -581 0
-558 -582 0
-558 -583 0
-558 -584 0
-558 -585 0
-558 -586 0
-558 -587 0
-558 -588 0
-558 -589 0
-558 -590 0
-558 -591 0
-558 -592 0
-558 -593 0
-558 -594 0
-558 -595 0
-558 -596 0
-558 -597 0
-558 -598 0
-558 -599 0
-558 -600 0
-558 -601 0
-558 -602 0
-558 -603 0
-558 -604 0
-558 -605 0
-558 -606 0
-558 -607 0
-558 -608 0
-558 -609 0
-558 -610 0
-558 -611 0
-558 -612 0
-558 -613 0
-558 -614 0
-558 -615 0
-558 -616 0
-558 -617 0
-558 -618 0
-558 -619 0
-558 -620 0
-558 -621 0
-558 -622 0
-558 -623 0
-558 -624 0
-558 -625 0
-558 -626 0
-558 -627 0
-558 -628 0
-558 -629 0
-558 -630 0
-558 -631 0
-558 -632 0
-559 -560 0
-559 -561 0
-559 -562 0
-559 -563 0
-559 -564 0
-559 -565 0
-559 -566 0
-559 -567 0
-559 -568 0
-559 -569 0
-559 -570 0
-559 -571 0
-559 -572 0
-559 -573 0
-559 -574 0
-559 -575 0
-559 -576 0
-559 -577 0
-559 -578 0
-559 -579 0
-559 -580 0
-559 -581 0
-559 -582 0
-559 -583 0
-559 -584 0
-559 -585 0
-559 -586 0
-559 -587 0
-559 -588 0
-559 -589 0
-559 -590 0
-559 -591 0
-559 -592 0
-559 -593 0
-559 -594 0
-559 -595 0
-559 -596 0
-559 -597 0
-559 -598 0
-559 -599 0
-559 -600 0
-559 -601 0
-559 -602 0
-559 -603 0
-559 -604 0
-559 -605 0
-559 -606 0
-559 -607 0
-559 -608 0
-559 -609 0
-559 -610 0
-559 -611 0
-559 -612 0
-559 -613 0
-559 -614 0
-559 -615 0
-559 -616 0
-559 -617 0
-559 -618 0
-559 -619 0
-559 -620 0
-559 -621 0
-559 -622 0
-559 -623 0
-559 -624 0
-559 -625 0
-559 -626 0
-559 -627 0
-559 -628 0
-559 -629 0
-559 -630 0
-559 -631 0
-559 -632 0
-560 -561 0
-560 -562 0
-560 -563 0
-560 -564 0
-560 -565 0
-560 -566 0
-560 -567 0
-560 -568 0
-560 -569 0
-560 -570 0
-560 -571 0
-560 -572 0
-560 -573 0
-560 -574 0
-560 -575 0
-560 -576 0
-560 -577 0
-560 -578 0
-560 -579 0
-560 -580 0
-560 -581 0
-560 -582 0
-560 -583 0
-560 -584 0
-560 -585 0
-560 -586 0
-560 -587 0
-560 -588 0
-560 -589 0
-560 -590 0
-560 -591 0
-560 -592 0
-560 -593 0
-560 -594 0
-560 -595 0
-560 -596 0
-560 -597 0
-560 -598 0
-560 -599 0
-560 -600 0
-560 -601 0
-560 -602 0
-560 -603 0
-560 -604 0
-560 -605 0
-560 -606 0
-560 -607 0
-560 -608 0
-560 -609 0
-560 -610 0
-560 -611 0
-560 -612 0
-560 -613 0
-560 -614 0
-560 -615 0
-560 -616 0
-560 -617 0
-560 -618 0
-560 -619 0
-560 -620 0
-560 -621 0
-560 -622 0
-560 -623 0
-560 -624 0
-560 -625 0
-560 -626 0
-560 -627 0
-560 -628 0
-560 -629 0
-560 -630 0
-560 -631 0
-560 -632 0
-561 -562 0
-561 -563 0
-561 -564 0
-561 -565 0
-561 -566 0
-561 -567 0
-561 -568 0
-561 -569 0
-561 -570 0
-561 -571 0
-561 -572 0
-561 -573 0
-561 -574 0
-561 -575 0
-561 -576 0
-561 -577 0
-561 -578 0
-561 -579 0
-561 -580 0
-561 -581 0
-561 -582 0
-561 -583 0
-561 -584 0
-561 -585 0
-561 -586 0
-561 -587 0
-561 -588 0
-561 -589 0
-561 -590 0
-561 -591 0
-561 -592 0
-561 -593 0
-561 -594 0
-561 -595 0
-561 -596 0
-561 -597 0
-561 -598 0
-561 -599 0
-561 -600 0
-561 -601 0
-561 -602 0
-561 -603 0
-561 -604 0
-561 -605 0
-561 -606 0
-561 -607 0
-561 -608 0
-561 -609 0
-561 -610 0
-561 -611 0
-561 -612 0
-561 -613 0
-561 -614 0
-561 -615 0
-561 -616 0
-561 -617 0
-561 -618 0
-561 -619 0
-561 -620 0
-561 -621 0
-561 -622 0
-561 -623 0
-561 -624 0
-561 -625 0
-561 -626 0
-561 -627 0
-561 -628 0
-561 -629 0
-561 -630 0
-561 -631 0
-561 -632 0
-562 -563 0
-562 -564 0
-562 -565 0
-562 -566 0
-562 -567 0
-562 -568 0
-562 -569 0
-562 -570 0
-562 -571 0
-562 -572 0
-562 -573 0
-562 -574 0
-562 -575 0
-562 -576 0
-562 -577 0
-562 -578 0
-562 -579 0
-562 -580 0
-562 -581 0
-562 -582 0
-562 -583 0
-562 -584 0
-562 -585 0
-562 -586 0
-562 -587 0
-562 -588 0
-562 -589 0
-562 -590 0
-562 -591 0
-562 -592 0
-562 -593 0
-562 -594 0
-562 -595 0
-562 -596 0
-562 -597 0
-562 -598 0
-562 -599 0
-562 -600 0
-562 -601 0
-562 -602 0
-562 -603 0
-562 -604 0
-562 -605 0
-562 -606 0
-562 -607 0
-562 -608 0
-562 -609 0
-562 -610 0
-562 -611 0
-562 -612 0
-562 -613 0
-562 -614 0
-562 -615 0
-562 -616 0
-562 -617 0
-562 -618 0
-562 -619 0
-562 -620 0
-562 -621 0
-562 -622 0
-562 -623 0
-562 -624 0
-562 -625 0
-562 -626 0
-562 -627 0
-562 -628 0
-562 -629 0
-562 -630 0
-562 -631 0
-562 -632 0
-563 -564 0
-563 -565 0
-563 -566 0
-563 -567 0
-563 -568 0
-563 -569 0
-563 -570 0
-563 -571 0
-563 -572 0
-563 -573 0
-563 -574 0
-563 -575 0
-563 -576 0
-563 -577 0
-563 -578 0
-563 -579 0
-563 -580 0
-563 -581 0
-563 -582 0
-563 -583 0
-563 -584 0
-563 -585 0
-563 -586 0
-563 -587 0
-563 -588 0
-563 -589 0
-563 -590 0
-563 -591 0
-563 -592 0
-563 -593 0
-563 -594 0
-563 -595 0
-563 -596 0
-563 -597 0
-563 -598 0
-563 -599 0
-563 -600 0
-563 -601 0
-563 -602 0
-563 -603 0
-563 -604 0
-563 -605 0
-563 -606 0
-563 -607 0
-563 -608 0
-563 -609 0
-563 -610 0
-563 -611 0
-563 -612 0
-563 -613 0
-563 -614 0
-563 -615 0
-563 -616 0
-563 -617 0
-563 -618 0
-563 -619 0
-563 -620 0
-563 -621 0
-563 -622 0
-563 -623 0
-563 -624 0
-563 -625 0
-563 -626 0
-563 -627 0
-563 -628 0
-563 -629 0
-563 -630 0
-563 -631 0
-563 -632 0
-564 -565 0
-564 -566 0
-564 -567 0
-564 -568 0
-564 -569 0
-564 -570 0
-564 -571 0
-564 -572 0
-564 -573 0
-564 -574 0
-564 -575 0
-564 -576 0
-564 -577 0
-564 -578 0
-564 -579 0
-564 -580 0
-564 -581 0
-564 -582 0
-564 -583 0
-564 -584 0
-564 -585 0
-564 -586 0
-564 -587 0
-564 -588 0
-564 -589 0
-564 -590 0
-564 -591 0
-564 -592 0
-564 -593 0
-564 -594 0
-564 -595 0
-564 -596 0
-564 -597 0
-564 -598 0
-564 -599 0
-564 -600 0
-564 -601 0
-564 -602 0
-564 -603 0
-564 -604 0
-564 -605 0
-564 -606 0
-564 -607 0
-564 -608 0
-564 -609 0
-564 -610 0
-564 -611 0
-564 -612 0
-564 -613 0
-564 -614 0
-564 -615 0
-564 -616 0
-564 -617 0
-564 -618 0
-564 -619 0
-564 -620 0
-564 -621 0
-564 -622 0
-564 -623 0
-564 -624 0
-564 -625 0
-564 -626 0
-564 -627 0
-564 -628 0
-564 -629 0
-564 -630 0
-564 -631 0
-564 -632 0
-565 -566 0
-565 -567 0
-565 -568 0
-565 -569 0
-565 -570 0
-565 -571 0
-565 -572 0
-565 -573 0
-565 -574 0
-565 -575 0
-565 -576 0
-565 -577 0
-565 -578 0
-565 -579 0
-565 -580 0
-565 -581 0
-565 -582 0
-565 -583 0
-565 -584 0
-565 -585 0
-565 -586 0
-565 -587 0
-565 -588 0
-565 -589 0
-565 -590 0
-565 -591 0
-565 -592 0
-565 -593 0
-565 -594 0
-565 -595 0
-565 -596 0
-565 -597 0
-565 -598 0
-565 -599 0
-565 -600 0
-565 -601 0
-565 -602 0
-565 -603 0
-565 -604 0
-565 -605 0
-565 -606 0
-565 -607 0
-565 -608 0
-565 -609 0
-565 -610 0
-565 -611 0
-565 -612 0
-565 -613 0
-565 -614 0
-565 -615 0
-565 -616 0
-565 -617 0
-565 -618 0
-565 -619 0
-565 -620 0
-565 -621 0
-565 -622 0
-565 -623 0
-565 -624 0
-565 -625 0
-565 -626 0
-565 -627 0
-565 -628 0
-565 -629 0
-565 -630 0
-565 -631 0
-565 -632 0
-566 -567 0
-566 -568 0
-566 -569 0
-566 -570 0
-566 -571 0
-566 -572 0
-566 -573 0
-566 -574 0
-566 -575 0
-566 -576 0
-566 -577 0
-566 -578 0
-566 -579 0
-566 -580 0
-566 -581 0
-566 -582 0
-566 -583 0
-566 -584 0
-566 -585 0
-566 -586 0
-566 -587 0
-566 -588 0
-566 -589 0
-566 -590 0
-566 -591 0
-566 -592 0
-566 -593 0
-566 -594 0
-566 -595 0
-566 -596 0
-566 -597 0
-566 -598 0
-566 -599 0
-566 -600 0
-566 -601 0
-566 -602 0
-566 -603 0
-566 -604 0
-566 -605 0
-566 -606 0
-566 -607 0
-566 -608 0
-566 -609 0
-566 -610 0
-566 -611 0
-566 -612 0
-566 -613 0
-566 -614 0
-566 -615 0
-566 -616 0
-566 -617 0
-566 -618 0
-566 -619 0
-566 -620 0
-566 -621 0
-566 -622 0
-566 -623 0
-566 -624 0
-566 -625 0
-566 -626 0
-566 -627 0
-566 -628 0
-566 -629 0
-566 -630 0
-566 -631 0
-566 -632 0
-567 -568 0
-567 -569 0
-567 -570 0
-567 -571 0
-567 -572 0
-567 -573 0
-567 -574 0
-567 -575 0
-567 -576 0
-567 -577 0
-567 -578 0
-567 -579 0
-567 -580 0
-567 -581 0
-567 -582 0
-567 -583 0
-567 -584 0
-567 -585 0
-567 -586 0
-567 -587 0
-567 -588 0
-567 -589 0
-567 -590 0
-567 -591 0
-567 -592 0
-567 -593 0
-567 -594 0
-567 -595 0
-567 -596 0
-567 -597 0
-567 -598 0
-567 -599 0
-567 -600 0
-567 -601 0
-567 -602 0
-567 -603 0
-567 -604 0
-567 -605 0
-567 -606 0
-567 -607 0
-567 -608 0
-567 -609 0
-567 -610 0
-567 -611 0
-567 -612 0
-567 -613 0
-567 -614 0
-567 -615 0
-567 -616 0
-567 -617 0
-567 -618 0
-567 -619 0
-567 -620 0
-567 -621 0
-567 -622 0
-567 -623 0
-567 -624 0
-567 -625 0
-567 -626 0
-567 -627 0
-567 -628 0
-567 -629 0
-567 -630 0
-567 -631 0
-567 -632 0
-568 -569 0
-568 -570 0
-568 -571 0
-568 -572 0
-568 -573 0
-568 -574 0
-568 -575 0
-568 -576 0
-568 -577 0
-568 -578 0
-568 -579 0
-568 -580 0
-568 -581 0
-568 -582 0
-568 -583 0
-568 -584 0
-568 -585 0
-568 -586 0
-568 -587 0
-568 -588 0
-568 -589 0
-568 -590 0
-568 -591 0
-568 -592 0
-568 -593 0
-568 -594 0
-568 -595 0
-568 -596 0
-568 -597 0
-568 -598 0
-568 -599 0
-568 -600 0
-568 -601 0
-568 -602 0
-568 -603 0
-568 -604 0
-568 -605 0
-568 -606 0
-568 -607 0
-568 -608 0
-568 -609 0
-568 -610 0
-568 -611 0
-568 -612 0
-568 -613 0
-568 -614 0
-568 -615 0
-568 -616 0
-568 -617 0
-568 -618 0
-568 -619 0
-568 -620 0
-568 -621 0
-568 -622 0
-568 -623 0
-568 -624 0
-568 -625 0
-568 -626 0
-568 -627 0
-568 -628 0
-568 -629 0
-568 -630 0
-568 -631 0
-568 -632 0
-569 -570 0
-569 -571 0
-569 -572 0
-569 -573 0
-569 -574 0
-569 -575 0
-569 -576 0
-569 -577 0
-569 -578 0
-569 -579 0
-569 -580 0
-569 -581 0
-569 -582 0
-569 -583 0
-569 -584 0
-569 -585 0
-569 -586 0
-569 -587 0
-569 -588 0
-569 -589 0
-569 -590 0
-569 -591 0
-569 -592 0
-569 -593 0
-569 -594 0
-569 -595 0
-569 -596 0
-569 -597 0
-569 -598 0
-569 -599 0
-569 -600 0
-569 -601 0
-569 -602 0
-569 -603 0
-569 -604 0
-569 -605 0
-569 -606 0
-569 -607 0
-569 -608 0
-569 -609 0
-569 -610 0
-569 -611 0
-569 -612 0
-569 -613 0
-569 -614 0
-569 -615 0
-569 -616 0
-569 -617 0
-569 -618 0
-569 -619 0
-569 -620 0
-569 -621 0
-569 -622 0
-569 -623 0
-569 -624 0
-569 -625 0
-569 -626 0
-569 -627 0
-569 -628 0
-569 -629 0
-569 -630 0
-569 -631 0
-569 -632 0
-570 -571 0
-570 -572 0
-570 -573 0
-570 -574 0
-570 -575 0
-570 -576 0
-570 -577 0
-570 -578 0
-570 -579 0
-570 -580 0
-570 -581 0
-570 -582 0
-570 -583 0
-570 -584 0
-570 -585 0
-570 -586 0
-570 -587 0
-570 -588 0
-570 -589 0
-570 -590 0
-570 -591 0
-570 -592 0
-570 -593 0
-570 -594 0
-570 -595 0
-570 -596 0
-570 -597 0
-570 -598 0
-570 -599 0
-570 -600 0
-570 -601 0
-570 -602 0
-570 -603 0
-570 -604 0
-570 -605 0
-570 -606 0
-570 -607 0
-570 -608 0
-570 -609 0
-570 -610 0
-570 -611 0
-570 -612 0
-570 -613 0
-570 -614 0
-570 -615 0
-570 -616 0
-570 -617 0
-570 -618 0
-570 -619 0
-570 -620 0
-570 -621 0
-570 -622 0
-570 -623 0
-570 -624 0
-570 -625 0
-570 -626 0
-570 -627 0
-570 -628 0
-570 -629 0
-570 -630 0
-570 -631 0
-570 -632 0
-571 -572 0
-571 -573 0
-571 -574 0
-571 -575 0
-571 -576 0
-571 -577 0
-571 -578 0
-571 -579 0
-571 -580 0
-571 -581 0
-571 -582 0
-571 -583 0
-571 -584 0
-571 -585 0
-571 -586 0
-571 -587 0
-571 -588 0
-571 -589 0
-571 -590 0
-571 -591 0
-571 -592 0
-571 -593 0
-571 -594 0
-571 -595 0
-571 -596 0
-571 -597 0
-571 -598 0
-571 -599 0
-571 -600 0
-571 -601 0
-571 -602 0
-571 -603 0
-571 -604 0
-571 -605 0
-571 -606 0
-571 -607 0
-571 -608 0
-571 -609 0
-571 -610 0
-571 -611 0
-571 -612 0
-571 -613 0
-571 -614 0
-571 -615 0
-571 -616 0
-571 -617 0
-571 -618 0
-571 -619 0
-571 -620 0
-571 -621 0
-571 -622 0
-571 -623 0
-571 -624 0
-571 -625 0
-571 -626 0
-571 -627 0
-571 -628 0
-571 -629 0
-571 -630 0
-571 -631 0
-571 -632 0
-572 -573 0
-572 -574 0
-572 -575 0
-572 -576 0
-572 -577 0
-572 -578 0
-572 -579 0
-572 -580 0
-572 -581 0
-572 -582 0
-572 -583 0
-572 -584 0
-572 -585 0
-572 -586 0
-572 -587 0
-572 -588 0
-572 -589 0
-572 -590 0
-572 -591 0
-572 -592 0
-572 -593 0
-572 -594 0
-572 -595 0
-572 -596 0
-572 -597 0
-572 -598 0
-572 -599 0
-572 -600 0
-572 -601 0
-572 -602 0
-572 -603 0
-572 -604 0
-572 -605 0
-572 -606 0
-572 -607 0
-572 -608 0
-572 -609 0
-572 -610 0
-572 -611 0
-572 -612 0
-572 -613 0
-572 -614 0
-572 -615 0
-572 -616 0
-572 -617 0
-572 -618 0
-572 -619 0
-572 -620 0
-572 -621 0
-572 -622 0
-572 -623 0
-572 -624 0
-572 -625 0
-572 -626 0
-572 -627 0
-572 -628 0
-572 -629 0
-572 -630 0
-572 -631 0
-572 -632 0
-573 -574 0
-573 -575 0
-573 -576 0
-573 -577 0
-573 -578 0
-573 -579 0
-573 -580 0
-573 -581 0
-573 -582 0
-573 -583 0
-573 -584 0
-573 -585 0
-573 -586 0
-573 -587 0
-573 -588 0
-573 -589 0
-573 -590 0
-573 -591 0
-573 -592 0
-573 -593 0
-573 -594 0
-573 -595 0
-573 -596 0
-573 -597 0
-573 -598 0
-573 -599 0
-573 -600 0
-573 -601 0
-573 -602 0
-573 -603 0
-573 -604 0
-573 -605 0
-573 -606 0
-573 -607 0
-573 -608 0
-573 -609 0
-573 -610 0
-573 -611 0
-573 -612 0
-573 -613 0
-573 -614 0
-573 -615 0
-573 -616 0
-573 -617 0
-573 -618 0
-573 -619 0
-573 -620 0
-573 -621 0
-573 -622 0
-573 -623 0
-573 -624 0
-573 -625 0
-573 -626 0
-573 -627 0
-573 -628 0
-573 -629 0
-573 -630 0
-573 -631 0
-573 -632 0
-574 -575 0
-574 -576 0
-574 -577 0
-574 -578 0
-574 -579 0
-574 -580 0
-574 -581 0
-574 -582 0
-574 -583 0
-574 -584 0
-574 -585 0
-574 -586 0
-574 -587 0
-574 -588 0
-574 -589 0
-574 -590 0
-574 -591 0
-574 -592 0
-574 -593 0
-574 -594 0
-574 -595 0
-574 -596 0
-574 -597 0
-574 -598 0
-574 -599 0
-574 -600 0
-574 -601 0
-574 -602 0
-574 -603 0
-574 -604 0
-574 -605 0
-574 -606 0
-574 -607 0
-574 -608 0
-574 -609 0
-574 -610 0
-574 -611 0
-574 -612 0
-574 -613 0
-574 -614 0
-574 -615 0
-574 -616 0
-574 -617 0
-574 -618 0
-574 -619 0
-574 -620 0
-574 -621 0
-574 -622 0
-574 -623 0
-574 -624 0
-574 -625 0
-574 -626 0
-574 -627 0
-574 -628 0
-574 -629 0
-574 -630 0
-574 -631 0
-574 -632 0
-575 -576 0
-575 -577 0
-575 -578 0
-575 -579 0
-575 -580 0
-575 -581 0
-575 -582 0
-575 -583 0
-575 -584 0
-575 -585 0
-575 -586 0
-575 -587 0
-575 -588 0
-575 -589 0
-575 -590 0
-575 -591 0
-575 -592 0
-575 -593 0
-575 -594 0
-575 -595 0
-575 -596 0
-575 -597 0
-575 -598 0
-575 -599 0
-575 -600 0
-575 -601 0
-575 -602 0
-575 -603 0
-575 -604 0
-575 -605 0
-575 -606 0
-575 -607 0
-575 -608 0
-575 -609 0
-575 -610 0
-575 -611 0
-575 -612 0
-575 -613 0
-575 -614 0
-575 -615 0
-575 -616 0
-575 -617 0
-575 -618 0
-575 -619 0
-575 -620 0
-575 -621 0
-575 -622 0
-575 -623 0
-575 -624 0
-575 -625 0
-575 -626 0
-575 -627 0
-575 -628 0
-575 -629 0
-575 -630 0
-575 -631 0
-575 -632 0
-576 -577 0
-576 -578 0
-576 -579 0
-576 -580 0
-576 -581 0
-576 -582 0
-576 -583 0
-576 -584 0
-576 -585 0
-576 -586 0
-576 -587 0
-576 -588 0
-576 -589 0
-576 -590 0
-576 -591 0
-576 -592 0
-576 -593 0
-576 -594 0
-576 -595 0
-576 -596 0
-576 -597 0
-576 -598 0
-576 -599 0
-576 -600 0
-576 -601 0
-576 -602 0
-576 -603 0
-576 -604 0
-576 -605 0
-576 -606 0
-576 -607 0
-576 -608 0
-576 -609 0
-576 -610 0
-576 -611 0
-576 -612 0
-576 -613 0
-576 -614 0
-576 -615 0
-576 -616 0
-576 -617 0
-576 -618 0
-576 -619 0
-576 -620 0
-576 -621 0
-576 -622 0
-576 -623 0
-576 -624 0
-576 -625 0
-576 -626 0
-576 -627 0
-576 -628 0
-576 -629 0
-576 -630 0
-576 -631 0
-576 -632 0
-577 -578 0
-577 -579 0
-577 -580 0
-577 -581 0
-577 -582 0
-577 -583 0
-577 -584 0
-577 -585 0
-577 -586 0
-577 -587 0
-577 -588 0
-577 -589 0
-577 -590 0
-577 -591 0
-577 -592 0
-577 -593 0
-577 -594 0
-577 -595 0
-577 -596 0
-577 -597 0
-577 -598 0
-577 -599 0
-577 -600 0
-577 -601 0
-577 -602 0
-577 -603 0
-577 -604 0
-577 -605 0
-577 -606 0
-577 -607 0
-577 -608 0
-577 -609 0
-577 -610 0
-577 -611 0
-577 -612 0
-577 -613 0
-577 -614 0
-577 -615 0
-577 -616 0
-577 -617 0
-577 -618 0
-577 -619 0
-577 -620 0
-577 -621 0
-577 -622 0
-577 -623 0
-577 -624 0
-577 -625 0
-577 -626 0
-577 -627 0
-577 -628 0
-577 -629 0
-577 -630 0
-577 -631 0
-577 -632 0
-578 -579 0
-578 -580 0
-578 -581 0
-578 -582 0
-578 -583 0
-578 -584 0
-578 -585 0
-578 -586 0
-578 -587 0
-578 -588 0
-578 -589 0
-578 -590 0
-578 -591 0
-578 -592 0
-578 -593 0
-578 -594 0
-578 -595 0
-578 -596 0
-578 -597 0
-578 -598 0
-578 -599 0
-578 -600 0
-578 -601 0
-578 -602 0
-578 -603 0
-578 -604 0
-578 -605 0
-578 -606 0
-578 -607 0
-578 -608 0
-578 -609 0
-578 -610 0
-578 -611 0
-578 -612 0
-578 -613 0
-578 -614 0
-578 -615 0
-578 -616 0
-578 -617 0
-578 -618 0
-578 -619 0
-578 -620 0
-578 -621 0
-578 -622 0
-578 -623 0
-578 -624 0
-578 -625 0
-578 -626 0
-578 -627 0
-578 -628 0
-578 -629 0
-578 -630 0
-578 -631 0
-578 -632 0
-579 -580 0
-579 -581 0
-579 -582 0
-579 -583 0
-579 -584 0
-579 -585 0
-579 -586 0
-579 -587 0
-579 -588 0
-579 -589 0
-579 -590 0
-579 -591 0
-579 -592 0
-579 -593 0
-579 -594 0
-579 -595 0
-579 -596 0
-579 -597 0
-579 -598 0
-579 -599 0
-579 -600 0
-579 -601 0
-579 -602 0
-579 -603 0
-579 -604 0
-579 -605 0
-579 -606 0
-579 -607 0
-579 -608 0
-579 -609 0
-579 -610 0
-579 -611 0
-579 -612 0
-579 -613 0
-579 -614 0
-579 -615 0
-579 -616 0
-579 -617 0
-579 -618 0
-579 -619 0
-579 -620 0
-579 -621 0
-579 -622 0
-579 -623 0
-579 -624 0
-579 -625 0
-579 -626 0
-579 -627 0
-579 -628 0
-579 -629 0
-579 -630 0
-579 -631 0
-579 -632 0
-580 -581 0
-580 -582 0
-580 -583 0
-580 -584 0
-580 -585 0
-580 -586 0
-580 -587 0
-580 -588 0
-580 -589 0
-580 -590 0
-580 -591 0
-580 -592 0
-580 -593 0
-580 -594 0
-580 -595 0
-580 -596 0
-580 -597 0
-580 -598 0
-580 -599 0
-580 -600 0
-580 -601 0
-580 -602 0
-580 -603 0
-580 -604 0
-580 -605 0
-580 -606 0
-580 -607 0
-580 -608 0
-580 -609 0
-580 -610 0
-580 -611 0
-580 -612 0
-580 -613 0
-580 -614 0
-580 -615 0
-580 -616 0
-580 -617 0
-580 -618 0
-580 -619 0
-580 -620 0
-580 -621 0
-580 -622 0
-580 -623 0
-580 -624 0
-580 -625 0
-580 -626 0
-580 -627 0
-580 -628 0
-580 -629 0
-580 -630 0
-580 -631 0
-580 -632 0
-581 -582 0
-581 -583 0
-581 -584 0
-581 -585 0
-581 -586 0
-581 -587 0
-581 -588 0
-581 -589 0
-581 -590 0
-581 -591 0
-581 -592 0
-581 -593 0
-581 -594 0
-581 -595 0
-581 -596 0
-581 -597 0
-581 -598 0
-581 -599 0
-581 -600 0
-581 -601 0
-581 -602 0
-581 -603 0
-581 -604 0
-581 -605 0
-581 -606 0
-581 -607 0
-581 -608 0
-581 -609 0
-581 -610 0
-581 -611 0
-581 -612 0
-581 -613 0
-581 -614 0
-581 -615 0
-581 -616 0
-581 -617 0
-581 -618 0
-581 -619 0
-581 -620 0
-581 -621 0
-581 -622 0
-581 -623 0
-581 -624 0
-581 -625 0
-581 -626 0
-581 -627 0
-581 -628 0
-581 -629 0
-581 -630 0
-581 -631 0
-581 -632 0
-582 -583 0
-582 -584 0
-582 -585 0
-582 -586 0
-582 -587 0
-582 -588 0
-582 -589 0
-582 -590 0
-582 -591 0
-582 -592 0
-582 -593 0
-582 -594 0
-582 -595 0
-582 -596 0
-582 -597 0
-582 -598 0
-582 -599 0
-582 -600 0
-582 -601 0
-582 -602 0
-582 -603 0
-582 -604 0
-582 -605 0
-582 -606 0
-582 -607 0
-582 -608 0
-582 -609 0
-582 -610 0
-582 -611 0
-582 -612 0
-582 -613 0
-582 -614 0
-582 -615 0
-582 -616 0
-582 -617 0
-582 -618 0
-582 -619 0
-582 -620 0
-582 -621 0
-582 -622 0
-582 -623 0
-582 -624 0
-582 -625 0
-582 -626 0
-582 -627 0
-582 -628 0
-582 -629 0
-582 -630 0
-582 -631 0
-582 -632 0
-583 -584 0
-583 -585 0
-583 -586 0
-583 -587 0
-583 -588 0
-583 -589 0
-583 -590 0
-583 -591 0
-583 -592 0
-583 -593 0
-583 -594 0
-583 -595 0
-583 -596 0
-583 -597 0
-583 -598 0
-583 -599 0
-583 -600 0
-583 -601 0
-583 -602 0
-583 -603 0
-583 -604 0
-583 -605 0
-583 -606 0
-583 -607 0
-583 -608 0
-583 -609 0
-583 -610 0
-583 -611 0
-583 -612 0
-583 -613 0
-583 -614 0
-583 -615 0
-583 -616 0
-583 -617 0
-583 -618 0
-583 -619 0
-583 -620 0
-583 -621 0
-583 -622 0
-583 -623 0
-583 -624 0
-583 -625 0
-583 -626 0
-583 -627 0
-583 -628 0
-583 -629 0
-583 -630 0
-583 -631 0
-583 -632 0
-584 -585 0
-584 -586 0
-584 -587 0
-584 -588 0
-584 -589 0
-584 -590 0
-584 -591 0
-584 -592 0
-584 -593 0
-584 -594 0
-584 -595 0
-584 -596 0
-584 -597 0
-584 -598 0
-584 -599 0
-584 -600 0
-584 -601 0
-584 -602 0
-584 -603 0
-584 -604 0
-584 -605 0
-584 -606 0
-584 -607 0
-584 -608 0
-584 -609 0
-584 -610 0
-584 -611 0
-584 -612 0
-584 -613 0
-584 -614 0
-584 -615 0
-584 -616 0
-584 -617 0
-584 -618 0
-584 -619 0
-584 -620 0
-584 -621 0
-584 -622 0
-584 -623 0
-584 -624 0
-584 -625 0
-584 -626 0
-584 -627 0
-584 -628 0
-584 -629 0
-584 -630 0
-584 -631 0
-584 -632 0
-585 -586 0
-585 -587 0
-585 -588 0
-585 -589 0
-585 -590 0
-585 -591 0
-585 -592 0
-585 -593 0
-585 -594 0
-585 -595 0
-585 -596 0
-585 -597 0
-585 -598 0
-585 -599 0
-585 -600 0
-585 -601 0
-585 -602 0
-585 -603 0
-585 -604 0
-585 -605 0
-585 -606 0
-585 -607 0
-585 -608 0
-585 -609 0
-585 -610 0
-585 -611 0
-585 -612 0
-585 -613 0
-585 -614 0
-585 -615 0
-585 -616 0
-585 -617 0
-585 -618 0
-585 -619 0
-585 -620 0
-585 -621 0
-585 -622 0
-585 -623 0
-585 -624 0
-585 -625 0
-585 -626 0
-585 -627 0
-585 -628 0
-585 -629 0
-585 -630 0
-585 -631 0
-585 -632 0
-586 -587 0
-586 -588 0
-586 -589 0
-586 -590 0
-586 -591 0
-586 -592 0
-586 -593 0
-586 -594 0
-586 -595 0
-586 -596 0
-586 -597 0
-586 -598 0
-586 -599 0
-586 -600 0
-586 -601 0
-586 -602 0
-586 -603 0
-586 -604 0
-586 -605 0
-586 -606 0
-586 -607 0
-586 -608 0
-586 -609 0
-586 -610 0
-586 -611 0
-586 -612 0
-586 -613 0
-586 -614 0
-586 -615 0
-586 -616 0
-586 -617 0
-586 -618 0
-586 -619 0
-586 -620 0
-586 -621 0
-586 -622 0
-586 -623 0
-586 -624 0
-586 -625 0
-586 -626 0
-586 -627 0
-586 -628 0
-586 -629 0
-586 -630 0
-586 -631 0
-586 -632 0
-587 -588 0
-587 -589 0
-587 -590 0
-587 -591 0
-587 -592 0
-587 -593 0
-587 -594 0
-587 -595 0
-587 -596 0
-587 -597 0
-587 -598 0
-587 -599 0
-587 -600 0
-587 -601 0
-587 -602 0
-587 -603 0
-587 -604 0
-587 -605 0
-587 -606 0
-587 -607 0
-587 -608 0
-587 -609 0
-587 -610 0
-587 -611 0
-587 -612 0
-587 -613 0
-587 -614 0
-587 -615 0
-587 -616 0
-587 -617 0
-587 -618 0
-587 -619 0
-587 -620 0
-587 -621 0
-587 -622 0
-587 -623 0
-587 -624 0
-587 -625 0
-587 -626 0
-587 -627 0
-587 -628 0
-587 -629 0
-587 -630 0
-587 -631 0
-587 -632 0
-588 -589 0
-588 -590 0
-588 -591 0
-588 -592 0
-588 -593 0
-588 -594 0
-588 -595 0
-588 -596 0
-588 -597 0
-588 -598 0
-588 -599 0
-588 -600 0
-588 -601 0
-588 -602 0
-588 -603 0
-588 -604 0
-588 -605 0
-588 -606 0
-588 -607 0
-588 -608 0
-588 -609 0
-588 -610 0
-588 -611 0
-588 -612 0
-588 -613 0
-588 -614 0
-588 -615 0
-588 -616 0
-588 -617 0
-588 -618 0
-588 -619 0
-588 -620 0
-588 -621 0
-588 -622 0
-588 -623 0
-588 -624 0
-588 -625 0
-588 -626 0
-588 -627 0
-588 -628 0
-588 -629 0
-588 -630 0
-588 -631 0
-588 -632 0
-589 -590 0
-589 -591 0
-589 -592 0
-589 -593 0
-589 -594 0
-589 -595 0
-589 -596 0
-589 -597 0
-589 -598 0
-589 -599 0
-589 -600 0
-589 -601 0
-589 -602 0
-589 -603 0
-589 -604 0
-589 -605 0
-589 -606 0
-589 -607 0
-589 -608 0
-589 -609 0
-589 -610 0
-589 -611 0
-589 -612 0
-589 -613 0
-589 -614 0
-589 -615 0
-589 -616 0
-589 -617 0
-589 -618 0
-589 -619 0
-589 -620 0
-589 -621 0
-589 -622 0
-589 -623 0
-589 -624 0
-589 -625 0
-589 -626 0
-589 -627 0
-589 -628 0
-589 -629 0
-589 -630 0
-589 -631 0
-589 -632 0
-590 -591 0
-590 -592 0
-590 -593 0
-590 -594 0
-590 -595 0
-590 -596 0
-590 -597 0
-590 -598 0
-590 -599 0
-590 -600 0
-590 -601 0
-590 -602 0
-590 -603 0
-590 -604 0
-590 -605 0
-590 -606 0
-590 -607 0
-590 -608 0
-590 -609 0
-590 -610 0
-590 -611 0
-590 -612 0
-590 -613 0
-590 -614 0
-590 -615 0
-590 -616 0
-590 -617 0
-590 -618 0
-590 -619 0
-590 -620 0
-590 -621 0
-590 -622 0
-590 -623 0
-590 -624 0
-590 -625 0
-590 -626 0
-590 -627 0
-590 -628 0
-590 -629 0
-590 -630 0
-590 -631 0
-590 -632 0
-591 -592 0
-591 -593 0
-591 -594 0
-591 -595 0
-591 -596 0
-591 -597 0
-591 -598 0
-591 -599 0
-591 -600 0
-591 -601 0
-591 -602 0
-591 -603 0
-591 -604 0
-591 -605 0
-591 -606 0
-591 -607 0
-591 -608 0
-591 -609 0
-591 -610 0
-591 -611 0
-591 -612 0
-591 -613 0
-591 -614 0
-591 -615 0
-591 -616 0
-591 -617 0
-591 -618 0
-591 -619 0
-591 -620 0
-591 -621 0
-591 -622 0
-591 -623 0
-591 -624 0
-591 -625 0
-591 -626 0
-591 -627 0
-591 -628 0
-591 -629 0
-591 -630 0
-591 -631 0
-591 -632 0
-592 -593 0
-592 -594 0
-592 -595 0
-592 -596 0
-592 -597 0
-592 -598 0
-592 -599 0
-592 -600 0
-592 -601 0
-592 -602 0
-592 -603 0
-592 -604 0
-592 -605 0
-592 -606 0
-592 -607 0
-592 -608 0
-592 -609 0
-592 -610 0
-592 -611 0
-592 -612 0
-592 -613 0
-592 -614 0
-592 -615 0
-592 -616 0
-592 -617 0
-592 -618 0
-592 -619 0
-592 -620 0
-592 -621 0
-592 -622 0
-592 -623 0
-592 -624 0
-592 -625 0
-592 -626 0
-592 -627 0
-592 -628 0
-592 -629 0
-592 -630 0
-592 -631 0
-592 -632 0
-593 -594 0
-593 -595 0
-593 -596 0
-593 -597 0
-593 -598 0
-593 -599 0
-593 -600 0
-593 -601 0
-593 -602 0
-593 -603 0
-593 -604 0
-593 -605 0
-593 -606 0
-593 -607 0
-593 -608 0
-593 -609 0
-593 -610 0
-593 -611 0
-593 -612 0
-593 -613 0
-593 -614 0
-593 -615 0
-593 -616 0
-593 -617 0
-593 -618 0
-593 -619 0
-593 -620 0
-593 -621 0
-593 -622 0
-593 -623 0
-593 -624 0
-593 -625 0
-593 -626 0
-593 -627 0
-593 -628 0
-593 -629 0
-593 -630 0
-593 -631 0
-593 -632 0
-594 -595 0
-594 -596 0
-594 -597 0
-594 -598 0
-594 -599 0
-594 -600 0
-594 -601 0
-594 -602 0
-594 -603 0
-594 -604 0
-594 -605 0
-594 -606 0
-594 -607 0
-594 -608 0
-594 -609 0
-594 -610 0
-594 -611 0
-594 -612 0
-594 -613 0
-594 -614 0
-594 -615 0
-594 -616 0
-594 -617 0
-594 -618 0
-594 -619 0
-594 -620 0
-594 -621 0
-594 -622 0
-594 -623 0
-594 -624 0
-594 -625 0
-594 -626 0
-594 -627 0
-594 -628 0
-594 -629 0
-594 -630 0
-594 -631 0
-594 -632 0
-595 -596 0
-595 -597 0
-595 -598 0
-595 -599 0
-595 -600 0
-595 -601 0
-595 -602 0
-595 -603 0
-595 -604 0
-595 -605 0
-595 -606 0
-595 -607 0
-595 -608 0
-595 -609 0
-595 -610 0
-595 -611 0
-595 -612 0
-595 -613 0
-595 -614 0
-595 -615 0
-595 -616 0
-595 -617 0
-595 -618 0
-595 -619 0
-595 -620 0
-595 -621 0
-595 -622 0
-595 -623 0
-595 -624 0
-595 -625 0
-595 -626 0
-595 -627 0
-595 -628 0
-595 -629 0
-595 -630 0
-595 -631 0
-595 -632 0
-596 -597 0
-596 -598 0
-596 -599 0
-596 -600 0
-596 -601 0
-596 -602 0
-596 -603 0
-596 -604 0
-596 -605 0
-596 -606 0
-596 -607 0
-596 -608 0
-596 -609 0
-596 -610 0
-596 -611 0
-596 -612 0
-596 -613 0
-596 -614 0
-596 -615 0
-596 -616 0
-596 -617 0
-596 -618 0
-596 -619 0
-596 -620 0
-596 -621 0
-596 -622 0
-596 -623 0
-596 -624 0
-596 -625 0
-596 -626 0
-596 -627 0
-596 -628 0
-596 -629 0
-596 -630 0
-596 -631 0
-596 -632 0
-597 -598 0
-597 -599 0
-597 -600 0
-597 -601 0
-597 -602 0
-597 -603 0
-597 -604 0
-597 -605 0
-597 -606 0
-597 -607 0
-597 -608 0
-597 -609 0
-597 -610 0
-597 -611 0
-597 -612 0
-597 -613 0
-597 -614 0
-597 -615 0
-597 -616 0
-597 -617 0
-597 -618 0
-597 -619 0
-597 -620 0
-597 -621 0
-597 -622 0
-597 -623 0
-597 -624 0
-597 -625 0
-597 -626 0
-597 -627 0
-597 -628 0
-597 -629 0
-597 -630 0
-597 -631 0
-597 -632 0
-598 -599 0
-598 -600 0
-598 -601 0
-598 -602 0
-598 -603 0
-598 -604 0
-598 -605 0
-598 -606 0
-598 -607 0
-598 -608 0
-598 -609 0
-598 -610 0
-598 -611 0
-598 -612 0
-598 -613 0
-598 -614 0
-598 -615 0
-598 -616 0
-598 -617 0
-598 -618 0
-598 -619 0
-598 -620 0
-598 -621 0
-598 -622 0
-598 -623 0
-598 -624 0
-598 -625 0
-598 -626 0
-598 -627 0
-598 -628 0
-598 -629 0
-598 -630 0
-598 -631 0
-598 -632 0
-599 -600 0
-599 -601 0
-599 -602 0
-599 -603 0
-599 -604 0
-599 -605 0
-599 -606 0
-599 -607 0
-599 -608 0
-599 -609 0
-599 -610 0
-599 -611 0
-599 -612 0
-599 -613 0
-599 -614 0
-599 -615 0
-599 -616 0
-599 -617 0
-599 -618 0
-599 -619 0
-599 -620 0
-599 -621 0
-599 -622 0
-599 -623 0
-599 -624 0
-599 -625 0
-599 -626 0
-599 -627 0
-599 -628 0
-599 -629 0
-599 -630 0
-599 -631 0
-599 -632 0
-600 -601 0
-600 -602 0
-600 -603 0
-600 -604 0
-600 -605 0
-600 -606 0
-600 -607 0
-600 -608 0
-600 -609 0
-600 -610 0
-600 -611 0
-600 -612 0
-600 -613 0
-600 -614 0
-600 -615 0
-600 -616 0
-600 -617 0
-600 -618 0
-600 -619 0
-600 -620 0
-600 -621 0
-600 -622 0
-600 -623 0
-600 -624 0
-600 -625 0
-600 -626 0
-600 -627 0
-600 -628 0
-600 -629 0
-600 -630 0
-600 -631 0
-600 -632 0
-601 -602 0
-601 -603 0
-601 -604 0
-601 -605 0
-601 -606 0
-601 -607 0
-601 -608 0
-601 -609 0
-601 -610 0
-601 -611 0
-601 -612 0
-601 -613 0
-601 -614 0
-601 -615 0
-601 -616 0
-601 -617 0
-601 -618 0
-601 -619 0
-601 -620 0
-601 -621 0
-601 -622 0
-601 -623 0
-601 -624 0
-601 -625 0
-601 -626 0
-601 -627 0
-601 -628 0
-601 -629 0
-601 -630 0
-601 -631 0
-601 -632 0
-602 -603 0
-602 -604 0
-602 -605 0
-602 -606 0
-602 -607 0
-602 -608 0
-602 -609 0
-602 -610 0
-602 -611 0
-602 -612 0
-602 -613 0
-602 -614 0
-602 -615 0
-602 -616 0
-602 -617 0
-602 -618 0
-602 -619 0
-602 -620 0
-602 -621 0
-602 -622 0
-602 -623 0
-602 -624 0
-602 -625 0
-602 -626 0
-602 -627 0
-602 -628 0
-602 -629 0
-602 -630 0
-602 -631 0
-602 -632 0
-603 -604 0
-603 -605 0
-603 -606 0
-603 -607 0
-603 -608 0
-603 -609 0
-603 -610 0
-603 -611 0
-603 -612 0
-603 -613 0
-603 -614 0
-603 -615 0
-603 -616 0
-603 -617 0
-603 -618 0
-603 -619 0
-603 -620 0
-603 -621 0
-603 -622 0
-603 -623 0
-603 -624 0
-603 -625 0
-603 -626 0
-603 -627 0
-603 -628 0
-603 -629 0
-603 -630 0
-603 -631 0
-603 -632 0
-604 -605 0
-604 -606 0
-604 -607 0
-604 -608 0
-604 -609 0
-604 -610 0
-604 -611 0
-604 -612 0
-604 -613 0
-604 -614 0
-604 -615 0
-604 -616 0
-604 -617 0
-604 -618 0
-604 -619 0
-604 -620 0
-604 -621 0
-604 -622 0
-604 -623 0
-604 -624 0
-604 -625 0
-604 -626 0
-604 -627 0
-604 -628 0
-604 -629 0
-604 -630 0
-604 -631 0
-604 -632 0
-605 -606 0
-605 -607 0
-605 -608 0
-605 -609 0
-605 -610 0
-605 -611 0
-605 -612 0
-605 -613 0
-605 -614 0
-605 -615 0
-605 -616 0
-605 -617 0
-605 -618 0
-605 -619 0
-605 -620 0
-605 -621 0
-605 -622 0
-605 -623 0
-605 -624 0
-605 -625 0
-605 -626 0
-605 -627 0
-605 -628 0
-605 -629 0
-605 -630 0
-605 -631 0
-605 -632 0
-606 -607 0
-606 -608 0
-606 -609 0
-606 -610 0
-606 -611 0
-606 -612 0
-606 -613 0
-606 -614 0
-606 -615 0
-606 -616 0
-606 -617 0
-606 -618 0
-606 -619 0
-606 -620 0
-606 -621 0
-606 -622 0
-606 -623 0
-606 -624 0
-606 -625 0
-606 -626 0
-606 -627 0
-606 -628 0
-606 -629 0
-606 -630 0
-606 -631 0
-606 -632 0
-607 -608 0
-607 -609 0
-607 -610 0
-607 -611 0
-607 -612 0
-607 -613 0
-607 -614 0
-607 -615 0
-607 -616 0
-607 -617 0
-607 -618 0
-607 -619 0
-607 -620 0
-607 -621 0
-607 -622 0
-607 -623 0
-607 -624 0
-607 -625 0
-607 -626 0
-607 -627 0
-607 -628 0
-607 -629 0
-607 -630 0
-607 -631 0
-607 -632 0
-608 -609 0
-608 -610 0
-608 -611 0
-608 -612 0
-608 -613 0
-608 -614 0
-608 -615 0
-608 -616 0
-608 -617 0
-608 -618 0
-608 -619 0
-608 -620 0
-608 -621 0
-608 -622 0
-608 -623 0
-608 -624 0
-608 -625 0
-608 -626 0
-608 -627 0
-608 -628 0
-608 -629 0
-608 -630 0
-608 -631 0
-608 -632 0
-609 -610 0
-609 -611 0
-609 -612 0
-609 -613 0
-609 -614 0
-609 -615 0
-609 -616 0
-609 -617 0
-609 -618 0
-609 -619 0
-609 -620 0
-609 -621 0
-609 -622 0
-609 -623 0
-609 -624 0
-609 -625 0
-609 -626 0
-609 -627 0
-609 -628 0
-609 -629 0
-609 -630 0
-609 -631 0
-609 -632 0
-610 -611 0
-610 -612 0
-610 -613 0
-610 -614 0
-610 -615 0
-610 -616 0
-610 -617 0
-610 -618 0
-610 -619 0
-610 -620 0
-610 -621 0
-610 -622 0
-610 -623 0
-610 -624 0
-610 -625 0
-610 -626 0
-610 -627 0
-610 -628 0
-610 -629 0
-610 -630 0
-610 -631 0
-610 -632 0
-611 -612 0
-611 -613 0
-611 -614 0
-611 -615 0
-611 -616 0
-611 -617 0
-611 -618 0
-611 -619 0
-611 -620 0
-611 -621 0
-611 -622 0
-611 -623 0
-611 -624 0
-611 -625 0
-611 -626 0
-611 -627 0
-611 -628 0
-611 -629 0
-611 -630 0
-611 -631 0
-611 -632 0
-612 -613 0
-612 -614 0
-612 -615 0
-612 -616 0
-612 -617 0
-612 -618 0
-612 -619 0
-612 -620 0
-612 -621 0
-612 -622 0
-612 -623 0
-612 -624 0
-612 -625 0
-612 -626 0
-612 -627 0
-612 -628 0
-612 -629 0
-612 -630 0
-612 -631 0
-612 -632 0
-613 -614 0
-613 -615 0
-613 -616 0
-613 -617 0
-613 -618 0
-613 -619 0
-613 -620 0
-613 -621 0
-613 -622 0
-613 -623 0
-613 -624 0
-613 -625 0
-613 -626 0
-613 -627 0
-613 -628 0
-613 -629 0
-613 -630 0
-613 -631 0
-613 -632 0
-614 -615 0
-614 -616 0
-614 -617 0
-614 -618 0
-614 -619 0
-614 -620 0
-614 -621 0
-614 -622 0
-614 -623 0
-614 -624 0
-614 -625 0
-614 -626 0
-614 -627 0
-614 -628 0
-614 -629 0
-614 -630 0
-614 -631 0
-614 -632 0
-615 -616 0
-615 -617 0
-615 -618 0
-615 -619 0
-615 -620 0
-615 -621 0
-615 -622 0
-615 -623 0
-615 -624 0
-615 -625 0
-615 -626 0
-615 -627 0
-615 -628 0
-615 -629 0
-615 -630 0
-615 -631 0
-615 -632 0
-616 -617 0
-616 -618 0
-616 -619 0
-616 -620 0
-616 -621 0
-616 -622 0
-616 -623 0
-616 -624 0
-616 -625 0
-616 -626 0
-616 -627 0
-616 -628 0
-616 -629 0
-616 -630 0
-616 -631 0
-616 -632 0
-617 -618 0
-617 -619 0
-617 -620 0
-617 -621 0
-617 -622 0
-617 -623 0
-617 -624 0
-617 -625 0
-617 -626 0
-617 -627 0
-617 -628 0
-617 -629 0
-617 -630 0
-617 -631 0
-617 -632 0
-618 -619 0
-618 -620 0
-618 -621 0
-618 -622 0
-618 -623 0
-618 -624 0
-618 -625 0
-618 -626 0
-618 -627 0
-618 -628 0
-618 -629 0
-618 -630 0
-618 -631 0
-618 -632 0
-619 -620 0
-619 -621 0
-619 -622 0
-619 -623 0
-619 -624 0
-619 -625 0
-619 -626 0
-619 -627 0
-619 -628 0
-619 -629 0
-619 -630 0
-619 -631 0
-619 -632 0
-620 -621 0
-620 -622 0
-620 -623 0
-620 -624 0
-620 -625 0
-620 -626 0
-620 -627 0
-620 -628 0
-620 -629 0
-620 -630 0
-620 -631 0
-620 -632 0
-621 -622 0
-621 -623 0
-621 -624 0
-621 -625 0
-621 -626 0
-621 -627 0
-621 -628 0
-621 -629 0
-621 -630 0
-621 -631 0
-621 -632 0
-622 -623 0
-622 -624 0
-622 -625 0
-622 -626 0
-622 -627 0
-622 -628 0
-622 -629 0
-622 -630 0
-622 -631 0
-622 -632 0
-623 -624 0
-623 -625 0
-623 -626 0
-623 -627 0
-623 -628 0
-623 -629 0
-623 -630 0
-623 -631 0
-623 -632 0
-624 -625 0
-624 -626 0
-624 -627 0
-624 -628 0
-624 -629 0
-624 -630 0
-624 -631 0
-624 -632 0
-625 -626 0
-625 -627 0
-625 -628 0
-625 -629 0
-625 -630 0
-625 -631 0
-625 -632 0
-626 -627 0
-626 -628 0
-626 -629 0
-626 -630 0
-626 -631 0
-626 -632 0
-627 -628 0
-627 -629 0
-627 -630 0
-627 -631 0
-627 -632 0
-628 -629 0
-628 -630 0
-628 -631 0
-628 -632 0
-629 -630 0
-629 -631 0
-629 -632 0
-630 -631 0
-630 -632 0
-631 -632 0
-489 -129 0
-489 -130 0
-489 -131 0
-489 132 0
-489 -133 0
-489 -134 0
-489 -135 0
-489 136 0
-489 -137 0
-489 -138 0
-489 -139 0
-489 140 0
-489 -141 0
-489 -142 0
-489 -143 0
-489 144 0
-489 -145 0
-489 -146 0
-489 -147 0
-489 148 0
-489 -149 0
-489 -150 0
-489 -151 0
-489 152 0
-489 -153 0
-489 -154 0
-489 -155 0
-489 156 0
-489 -157 0
-489 -158 0
-489 -159 0
-489 160 0
-490 -129 0
-490 130 0
-490 -131 0
-490 -132 0
-490 -133 0
-490 134 0
-490 -135 0
-490 -136 0
-490 -137 0
-490 138 0
-490 -139 0
-490 -140 0
-490 -141 0
-490 142 0
-490 -143 0
-490 -144 0
-490 -145 0
-490 146 0
-490 -147 0
-490 -148 0
-490 -149 0
-490 150 0
-490 -151 0
-490 -152 0
-490 -153 0
-490 154 0
-490 -155 0
-490 -156 0
-490 -157 0
-490 158 0
-490 -159 0
-490 -160 0
-491 -129 0
-491 -130 0
-491 131 0
-491 -132 0
-491 -133 0
-491 -134 0
-491 135 0
-491 -136 0
-491 -137 0
-491 -138 0
-491 139 0
-491 -140 0
-491 -141 0
-491 -142 0
-491 143 0
-491 -144 0
-491 -145 0
-491 -146 0
-491 147 0
-491 -148 0
-491 -149 0
-491 -150 0
-491 151 0
-491 -152 0
-491 -153 0
-491 -154 0
-491 155 0
-491 -156 0
-491 -157 0
-491 -158 0
-491 159 0
-491 -160 0
-492 129 0
-492 -130 0
-492 -131 0
-492 -132 0
-492 133 0
-492 -134 0
-492 -135 0
-492 -136 0
-492 137 0
-492 -138 0
-492 -139 0
-492 -140 0
-492 141 0
-492 -142 0
-492 -143 0
-492 -144 0
-492 145 0
-492 -146 0
-492 -147 0
-492 -148 0
-492 149 0
-492 -150 0
-492 -151 0
-492 -152 0
-492 153 0
-492 -154 0
-492 -155 0
-492 -156 0
-492 157 0
-492 -158 0
-492 -159 0
-492 -160 0
-493 -129 0
-493 -130 0
-493 -131 0
-493 -132 0
-493 -133 0
-493 134 0
-493 -135 0
-493 136 0
-493 -137 0
-493 -138 0
-493 -139 0
-493 -140 0
-493 -141 0
-493 142 0
-493 -143 0
-493 144 0
-493 -145 0
-493 -146 0
-493 -147 0
-493 -148 0
-493 -149 0
-493 150 0
-493 -151 0
-493 152 0
-493 -153 0
-493 -154 0
-493 -155 0
-493 -156 0
-493 -157 0
-493 158 0
-493 -159 0
-493 160 0
-494 -129 0
-494 130 0
-494 -131 0
-494 132 0
-494 -133 0
-494 -134 0
-494 -135 0
-494 -136 0
-494 -137 0
-494 138 0
-494 -139 0
-494 140 0
-494 -141 0
-494 -142 0
-494 -143 0
-494 -144 0
-494 -145 0
-494 146 0
-494 -147 0
-494 148 0
-494 -149 0
-494 -150 0
-494 -151 0
-494 -152 0
-494 -153 0
-494 154 0
-494 -155 0
-494 156 0
-494 -157 0
-494 -158 0
-494 -159 0
-494 -160 0
-495 -129 0
-495 -130 0
-495 -131 0
-495 -132 0
-495 133 0
-495 -134 0
-495 135 0
-495 -136 0
-495 -137 0
-495 -138 0
-495 -139 0
-495 -140 0
-495 141 0
-495 -142 0
-495 143 0
-495 -144 0
-495 -145 0
-495 -146 0
-495 -147 0
-495 -148 0
-495 149 0
-495 -150 0
-495 151 0
-495 -152 0
-495 -153 0
-495 -154 0
-495 -155 0
-495 -156 0
-495 157 0
-495 -158 0
-495 159 0
-495 -160 0
-496 129 0
-496 -130 0
-496 131 0
-496 -132 0
-496 -133 0
-496 -134 0
-496 -135 0
-496 -136 0
-496 137 0
-496 -138 0
-496 139 0
-496 -140 0
-496 -141 0
-496 -142 0
-496 -143 0
-496 -144 0
-496 145 0
-496 -146 0
-496 147 0
-496 -148 0
-496 -149 0
-496 -150 0
-496 -151 0
-496 -152 0
-496 153 0
-496 -154 0
-496 155 0
-496 -156 0
-496 -157 0
-496 -158 0
-496 -159 0
-496 -160 0
-497 -129 0
-497 -130 0
-497 -131 0
-497 -132 0
-497 -133 0
-497 -134 0
-497 -135 0
-497 -136 0
-497 -137 0
-497 138 0
-497 -139 0
-497 140 0
-497 -141 0
-497 142 0
-497 -143 0
-497 144 0
-497 -145 0
-497 -146 0
-497 -147 0
-497 -148 0
-497 -149 0
-497 -150 0
-497 -151 0
-497 -152 0
-497 -153 0
-497 154 0
-497 -155 0
-497 156 0
-497 -157 0
-497 158 0
-497 -159 0
-497 160 0
-498 -129 0
-498 130 0
-498 -131 0
-498 132 0
-498 -133 0
-498 134 0
-498 -135 0
-498 136 0
-498 -137 0
-498 -138 0
-498 -139 0
-498 -140 0
-498 -141 0
-498 -142 0
-498 -143 0
-498 -144 0
-498 -145 0
-498 146 0
-498 -147 0
-498 148 0
-498 -149 0
-498 150 0
-498 -151 0
-498 152 0
-498 -153 0
-498 -154 0
-498 -155 0
-498 -156 0
-498 -157 0
-498 -158 0
-498 -159 0
-498 -160 0
-499 -129 0
-499 -130 0
-499 -131 0
-499 -132 0
-499 -133 0
-499 -134 0
-499 -135 0
-499 -136 0
-499 137 0
-499 -138 0
-499 139 0
-499 -140 0
-499 141 0
-499 -142 0
-499 143 0
-499 -144 0
-499 -145 0
-499 -146 0
-499 -147 0
-499 -148 0
-499 -149 0
-499 -150 0
-499 -151 0
-499 -152 0
-499 153 0
-499 -154 0
-499 155 0
-499 -156 0
-499 157 0
-499 -158 0
-499 159 0
-499 -160 0
-500 129 0
-500 -130 0
-500 131 0
-500 -132 0
-500 133 0
-500 -134 0
-500 135 0
-500 -136 0
-500 -137 0
-500 -138 0
-500 -139 0
-500 -140 0
-500 -141 0
-500 -142 0
-500 -143 0
-500 -144 0
-500 145 0
-500 -146 0
-500 147 0
-500 -148 0
-500 149 0
-500 -150 0
-500 151 0
-500 -152 0
-500 -153 0
-500 -154 0
-500 -155 0
-500 -156 0
-500 -157 0
-500 -158 0
-500 -159 0
-500 -160 0
-501 -129 0
-501 -130 0
-501 -131 0
-501 -132 0
-501 -133 0
-501 -134 0
-501 -135 0
-501 -136 0
-501 -137 0
-501 -138 0
-501 -139 0
-501 -140 0
-501 -141 0
-501 -142 0
-501 -143 0
-501 -144 0
-501 -145 0
-501 146 0
-501 -147 0
-501 148 0
-501 -149 0
-501 150 0
-501 -151 0
-501 152 0
-501 -153 0
-501 154 0
-501 -155 0
-501 156 0
-501 -157 0
-501 158 0
-501 -159 0
-501 160 0
-502 -129 0
-502 130 0
-502 -131 0
-502 132 0
-502 -133 0
-502 134 0
-502 -135 0
-502 136 0
-502 -137 0
-502 138 0
-502 -139 0
-502 140 0
-502 -141 0
-502 142 0
-502 -143 0
-502 144 0
-502 -145 0
-502 -146 0
-502 -147 0
-502 -148 0
-502 -149 0
-502 -150 0
-502 -151 0
-502 -152 0
-502 -153 0
-502 -154 0
-502 -155 0
-502 -156 0
-502 -157 0
-502 -158 0
-502 -159 0
-502 -160 0
-503 -129 0
-503 -130 0
-503 -131 0
-503 -132 0
-503 -133 0
-503 -134 0
-503 -135 0
-503 -136 0
-503 -137 0
-503 -138 0
-503 -139 0
-503 -140 0
-503 -141 0
-503 -142 0
-503 -143 0
-503 -144 0
-503 145 0
-503 -146 0
-503 147 0
-503 -148 0
-503 149 0
-503 -150 0
-503 151 0
-503 -152 0
-503 153 0
-503 -154 0
-503 155 0
-503 -156 0
-503 157 0
-503 -158 0
-503 159 0
-503 -160 0
-504 129 0
-504 -130 0
-504 131 0
-504 -132 0
-504 133 0
-504 -134 0
-504 135 0
-504 -136 0
-504 137 0
-504 -138 0
-504 139 0
-504 -140 0
-504 141 0
-504 -142 0
-504 143 0
-504 -144 0
-504 -145 0
-504 -146 0
-504 -147 0
-504 -148 0
-504 -149 0
-504 -150 0
-504 -151 0
-504 -152 0
-504 -153 0
-504 -154 0
-504 -155 0
-504 -156 0
-504 -157 0
-504 -158 0
-504 -159 0
-504 -160 0
-505 -129 0
-505 -130 2 0
-505 130 -2 0
-505 -131 0
-505 -132 4 0
-505 132 -4 0
-505 -133 0
-505 -134 6 0
-505 134 -6 0
-505 -135 0
-505 -136 8 0
-505 136 -8 0
-505 -137 0
-505 -138 10 0
-505 138 -10 0
-505 -139 0
-505 -140 12 0
-505 140 -12 0
-505 -141 0
-505 -142 14 0
-505 142 -14 0
-505 -143 0
-505 -144 16 0
-505 144 -16 0
-505 -145 0
-505 -146 18 0
-505 146 -18 0
-505 -147 0
-505 -148 20 0
-505 148 -20 0
-505 -149 0
-505 -150 22 0
-505 150 -22 0
-505 -151 0
-505 -152 24 0
-505 152 -24 0
-505 -153 0
-505 -154 26 0
-505 154 -26 0
-505 -155 0
-505 -156 28 0
-505 156 -28 0
-505 -157 0
-505 -158 30 0
-505 158 -30 0
-505 -159 0
-505 -160 32 0
-505 160 -32 0
-506 -129 0
-506 -130 -2 0
-506 130 2 0
-506 -131 0
-506 -132 -4 0
-506 132 4 0
-506 -133 0
-506 -134 -6 0
-506 134 6 0
-506 -135 0
-506 -136 -8 0
-506 136 8 0
-506 -137 0
-506 -138 -10 0
-506 138 10 0
-506 -139 0
-506 -140 -12 0
-506 140 12 0
-506 -141 0
-506 -142 -14 0
-506 142 14 0
-506 -143 0
-506 -144 -16 0
-506 144 16 0
-506 -145 0
-506 -146 -18 0
-506 146 18 0
-506 -147 0
-506 -148 -20 0
-506 148 20 0
-506 -149 0
-506 -150 -22 0
-506 150 22 0
-506 -151 0
-506 -152 -24 0
-506 152 24 0
-506 -153 0
-506 -154 -26 0
-506 154 26 0
-506 -155 0
-506 -156 -28 0
-506 156 28 0
-506 -157 0
-506 -158 -30 0
-506 158 30 0
-506 -159 0
-506 -160 -32 0
-506 160 32 0
-507 -129 1 0
-507 129 -1 0
-507 -130 0
-507 -131 3 0
-507 131 -3 0
-507 -132 0
-507 -133 5 0
-507 133 -5 0
-507 -134 0
-507 -135 7 0
-507 135 -7 0
-507 -136 0
-507 -137 9 0
-507 137 -9 0
-507 -138 0
-507 -139 11 0
-507 139 -11 0
-507 -140 0
-507 -141 13 0
-507 141 -13 0
-507 -142 0
-507 -143 15 0
-507 143 -15 0
-507 -144 0
-507 -145 17 0
-507 145 -17 0
-507 -146 0
-507 -147 19 0
-507 147 -19 0
-507 -148 0
-507 -149 21 0
-507 149 -21 0
-507 -150 0
-507 -151 23 0
-507 151 -23 0
-507 -152 0
-507 -153 25 0
-507 153 -25 0
-507 -154 0
-507 -155 27 0
-507 155 -27 0
-507 -156 0
-507 -157 29 0
-507 157 -29 0
-507 -158 0
-507 -159 31 0
-507 159 -31 0
-507 -160 0
-508 -129 -1 0
-508 129 1 0
-508 -130 0
-508 -131 -3 0
-508 131 3 0
-508 -132 0
-508 -133 -5 0
-508 133 5 0
-508 -134 0
-508 -135 -7 0
-508 135 7 0
-508 -136 0
-508 -137 -9 0
-508 137 9 0
-508 -138 0
-508 -139 -11 0
-508 139 11 0
-508 -140 0
-508 -141 -13 0
-508 141 13 0
-508 -142 0
-508 -143 -15 0
-508 143 15 0
-508 -144 0
-508 -145 -17 0
-508 145 17 0
-508 -146 0
-508 -147 -19 0
-508 147 19 0
-508 -148 0
-508 -149 -21 0
-508 149 21 0
-508 -150 0
-508 -151 -23 0
-508 151 23 0
-508 -152 0
-508 -153 -25 0
-508 153 25 0
-508 -154 0
-508 -155 -27 0
-508 155 27 0
-508 -156 0
-508 -157 -29 0
-508 157 29 0
-508 -158 0
-508 -159 -31 0
-508 159 31 0
-508 -160 0
-509 -129 0
-509 -130 34 0
-509 130 -34 0
-509 -131 0
-509 -132 36 0
-509 132 -36 0
-509 -133 0
-509 -134 38 0
-509 134 -38 0
-509 -135 0
-509 -136 40 0
-509 136 -40 0
-509 -137 0
-509 -138 42 0
-509 138 -42 0
-509 -139 0
-509 -140 44 0
-509 140 -44 0
-509 -141 0
-509 -142 46 0
-509 142 -46 0
-509 -143 0
-509 -144 48 0
-509 144 -48 0
-509 -145 0
-509 -146 50 0
-509 146 -50 0
-509 -147 0
-509 -148 52 0
-509 148 -52 0
-509 -149 0
-509 -150 54 0
-509 150 -54 0
-509 -151 0
-509 -152 56 0
-509 152 -56 0
-509 -153 0
-509 -154 58 0
-509 154 -58 0
-509 -155 0
-509 -156 60 0
-509 156 -60 0
-509 -157 0
-509 -158 62 0
-509 158 -62 0
-509 -159 0
-509 -160 64 0
-509 160 -64 0
-510 -129 0
-510 -130 -34 0
-510 130 34 0
-510 -131 0
-510 -132 -36 0
-510 132 36 0
-510 -133 0
-510 -134 -38 0
-510 134 38 0
-510 -135 0
-510 -136 -40 0
-510 136 40 0
-510 -137 0
-510 -138 -42 0
-510 138 42 0
-510 -139 0
-510 -140 -44 0
-510 140 44 0
-510 -141 0
-510 -142 -46 0
-510 142 46 0
-510 -143 0
-510 -144 -48 0
-510 144 48 0
-510 -145 0
-510 -146 -50 0
-510 146 50 0
-510 -147 0
-510 -148 -52 0
-510 148 52 0
-510 -149 0
-510 -150 -54 0
-510 150 54 0
-510 -151 0
-510 -152 -56 0
-510 152 56 0
-510 -153 0
-510 -154 -58 0
-510 154 58 0
-510 -155 0
-510 -156 -60 0
-510 156 60 0
-510 -157 0
-510 -158 -62 0
-510 158 62 0
-510 -159 0
-510 -160 -64 0
-510 160 64 0
-511 -129 33 0
-511 129 -33 0
-511 -130 0
-511 -131 35 0
-511 131 -35 0
-511 -132 0
-511 -133 37 0
-511 133 -37 0
-511 -134 0
-511 -135 39 0
-511 135 -39 0
-511 -136 0
-511 -137 41 0
-511 137 -41 0
-511 -138 0
-511 -139 43 0
-511 139 -43 0
-511 -140 0
-511 -141 45 0
-511 141 -45 0
-511 -142 0
-511 -143 47 0
-511 143 -47 0
-511 -144 0
-511 -145 49 0
-511 145 -49 0
-511 -146 0
-511 -147 51 0
-511 147 -51 0
-511 -148 0
-511 -149 53 0
-511 149 -53 0
-511 -150 0
-511 -151 55 0
-511 151 -55 0
-511 -152 0
-511 -153 57 0
-511 153 -57 0
-511 -154 0
-511 -155 59 0
-511 155 -59 0
-511 -156 0
-511 -157 61 0
-511 157 -61 0
-511 -158 0
-511 -159 63 0
-511 159 -63 0
-511 -160 0
-512 -129 -33 0
-512 129 33 0
-512 -130 0
-512 -131 -35 0
-512 131 35 0
-512 -132 0
-512 -133 -37 0
-512 133 37 0
-512 -134 0
-512 -135 -39 0
-512 135 39 0
-512 -136 0
-512 -137 -41 0
-512 137 41 0
-512 -138 0
-512 -139 -43 0
-512 139 43 0
-512 -140 0
-512 -141 -45 0
-512 141 45 0
-512 -142 0
-512 -143 -47 0
-512 143 47 0
-512 -144 0
-512 -145 -49 0
-512 145 49 0
-512 -146 0
-512 -147 -51 0
-512 147 51 0
-512 -148 0
-512 -149 -53 0
-512 149 53 0
-512 -150 0
-512 -151 -55 0
-512 151 55 0
-512 -152 0
-512 -153 -57 0
-512 153 57 0
-512 -154 0
-512 -155 -59 0
-512 155 59 0
-512 -156 0
-512 -157 -61 0
-512 157 61 0
-512 -158 0
-512 -159 -63 0
-512 159 63 0
-512 -160 0
-513 -129 0
-513 -130 66 0
-513 130 -66 0
-513 -131 0
-513 -132 68 0
-513 132 -68 0
-513 -133 0
-513 -134 70 0
-513 134 -70 0
-513 -135 0
-513 -136 72 0
-513 136 -72 0
-513 -137 0
-513 -138 74 0
-513 138 -74 0
-513 -139 0
-513 -140 76 0
-513 140 -76 0
-513 -141 0
-513 -142 78 0
-513 142 -78 0
-513 -143 0
-513 -144 80 0
-513 144 -80 0
-513 -145 0
-513 -146 82 0
-513 146 -82 0
-513 -147 0
-513 -148 84 0
-513 148 -84 0
-513 -149 0
-513 -150 86 0
-513 150 -86 0
-513 -151 0
-513 -152 88 0
-513 152 -88 0
-513 -153 0
-513 -154 90 0
-513 154 -90 0
-513 -155 0
-513 -156 92 0
-513 156 -92 0
-513 -157 0
-513 -158 94 0
-513 158 -94 0
-513 -159 0
-513 -160 96 0
-513 160 -96 0
-514 -129 0
-514 -130 -66 0
-514 130 66 0
-514 -131 0
-514 -132 -68 0
-514 132 68 0
-514 -133 0
-514 -134 -70 0
-514 134 70 0
-514 -135 0
-514 -136 -72 0
-514 136 72 0
-514 -137 0
-514 -138 -74 0
-514 138 74 0
-514 -139 0
-514 -140 -76 0
-514 140 76 0
-514 -141 0
-514 -142 -78 0
-514 142 78 0
-514 -143 0
-514 -144 -80 0
-514 144 80 0
-514 -145 0
-514 -146 -82 0
-514 146 82 0
-514 -147 0
-514 -148 -84 0
-514 148 84 0
-514 -149 0
-514 -150 -86 0
-514 150 86 0
-514 -151 0
-514 -152 -88 0
-514 152 88 0
-514 -153 0
-514 -154 -90 0
-514 154 90 0
-514 -155 0
-514 -156 -92 0
-514 156 92 0
-514 -157 0
-514 -158 -94 0
-514 158 94 0
-514 -159 0
-514 -160 -96 0
-514 160 96 0
-515 -129 65 0
-515 129 -65 0
-515 -130 0
-515 -131 67 0
-515 131 -67 0
-515 -132 0
-515 -133 69 0
-515 133 -69 0
-515 -134 0
-515 -135 71 0
-515 135 -71 0
-515 -136 0
-515 -137 73 0
-515 137 -73 0
-515 -138 0
-515 -139 75 0
-515 139 -75 0
-515 -140 0
-515 -141 77 0
-515 141 -77 0
-515 -142 0
-515 -143 79 0
-515 143 -79 0
-515 -144 0
-515 -145 81 0
-515 145 -81 0
-515 -146 0
-515 -147 83 0
-515 147 -83 0
-515 -148 0
-515 -149 85 0
-515 149 -85 0
-515 -150 0
-515 -151 87 0
-515 151 -87 0
-515 -152 0
-515 -153 89 0
-515 153 -89 0
-515 -154 0
-515 -155 91 0
-515 155 -91 0
-515 -156 0
-515 -157 93 0
-515 157 -93 0
-515 -158 0
-515 -159 95 0
-515 159 -95 0
-515 -160 0
-516 -129 -65 0
-516 129 65 0
-516 -130 0
-516 -131 -67 0
-516 131 67 0
-516 -132 0
-516 -133 -69 0
-516 133 69 0
-516 -134 0
-516 -135 -71 0
-516 135 71 0
-516 -136 0
-516 -137 -73 0
-516 137 73 0
-516 -138 0
-516 -139 -75 0
-516 139 75 0
-516 -140 0
-516 -141 -77 0
-516 141 77 0
-516 -142 0
-516 -143 -79 0
-516 143 79 0
-516 -144 0
-516 -145 -81 0
-516 145 81 0
-516 -146 0
-516 -147 -83 0
-516 147 83 0
-516 -148 0
-516 -149 -85 0
-516 149 85 0
-516 -150 0
-516 -151 -87 0
-516 151 87 0
-516 -152 0
-516 -153 -89 0
-516 153 89 0
-516 -154 0
-516 -155 -91 0
-516 155 91 0
-516 -156 0
-516 -157 -93 0
-516 157 93 0
-516 -158 0
-516 -159 -95 0
-516 159 95 0
-516 -160 0
-517 -129 0
-517 -130 98 0
-517 130 -98 0
-517 -131 0
-517 -132 100 0
-517 132 -100 0
-517 -133 0
-517 -134 102 0
-517 134 -102 0
-517 -135 0
-517 -136 104 0
-517 136 -104 0
-517 -137 0
-517 -138 106 0
-517 138 -106 0
-517 -139 0
-517 -140 108 0
-517 140 -108 0
-517 -141 0
-517 -142 110 0
-517 142 -110 0
-517 -143 0
-517 -144 112 0
-517 144 -112 0
-517 -145 0
-517 -146 114 0
-517 146 -114 0
-517 -147 0
-517 -148 116 0
-517 148 -116 0
-517 -149 0
-517 -150 118 0
-517 150 -118 0
-517 -151 0
-517 -152 120 0
-517 152 -120 0
-517 -153 0
-517 -154 122 0
-517 154 -122 0
-517 -155 0
-517 -156 124 0
-517 156 -124 0
-517 -157 0
-517 -158 126 0
-517 158 -126 0
-517 -159 0
-517 -160 128 0
-517 160 -128 0
-518 -129 0
-518 -130 -98 0
-518 130 98 0
-518 -131 0
-518 -132 -100 0
-518 132 100 0
-518 -133 0
-518 -134 -102 0
-518 134 102 0
-518 -135 0
-518 -136 -104 0
-518 136 104 0
-518 -137 0
-518 -138 -106 0
-518 138 106 0
-518 -139 0
-518 -140 -108 0
-518 140 108 0
-518 -141 0
-518 -142 -110 0
-518 142 110 0
-518 -143 0
-518 -144 -112 0
-518 144 112 0
-518 -145 0
-518 -146 -114 0
-518 146 114 0
-518 -147 0
-518 -148 -116 0
-518 148 116 0
-518 -149 0
-518 -150 -118 0
-518 150 118 0
-518 -151 0
-518 -152 -120 0
-518 152 120 0
-518 -153 0
-518 -154 -122 0
-518 154 122 0
-518 -155 0
-518 -156 -124 0
-518 156 124 0
-518 -157 0
-518 -158 -126 0
-518 158 126 0
-518 -159 0
-518 -160 -128 0
-518 160 128 0
-519 -129 97 0
-519 129 -97 0
-519 -130 0
-519 -131 99 0
-519 131 -99 0
-519 -132 0
-519 -133 101 0
-519 133 -101 0
-519 -134 0
-519 -135 103 0
-519 135 -103 0
-519 -136 0
-519 -137 105 0
-519 137 -105 0
-519 -138 0
-519 -139 107 0
-519 139 -107 0
-519 -140 0
-519 -141 109 0
-519 141 -109 0
-519 -142 0
-519 -143 111 0
-519 143 -111 0
-519 -144 0
-519 -145 113 0
-519 145 -113 0
-519 -146 0
-519 -147 115 0
-519 147 -115 0
-519 -148 0
-519 -149 117 0
-519 149 -117 0
-519 -150 0
-519 -151 119 0
-519 151 -119 0
-519 -152 0
-519 -153 121 0
-519 153 -121 0
-519 -154 0
-519 -155 123 0
-519 155 -123 0
-519 -156 0
-519 -157 125 0
-519 157 -125 0
-519 -158 0
-519 -159 127 0
-519 159 -127 0
-519 -160 0
-520 -129 -97 0
-520 129 97 0
-520 -130 0
-520 -131 -99 0
-520 131 99 0
-520 -132 0
-520 -133 -101 0
-520 133 101 0
-520 -134 0
-520 -135 -103 0
-520 135 103 0
-520 -136 0
-520 -137 -105 0
-520 137 105 0
-520 -138 0
-520 -139 -107 0
-520 139 107 0
-520 -140 0
-520 -141 -109 0
-520 141 109 0
-520 -142 0
-520 -143 -111 0
-520 143 111 0
-520 -144 0
-520 -145 -113 0
-520 145 113 0
-520 -146 0
-520 -147 -115 0
-520 147 115 0
-520 -148 0
-520 -149 -117 0
-520 149 117 0
-520 -150 0
-520 -151 -119 0
-520 151 119 0
-520 -152 0
-520 -153 -121 0
-520 153 121 0
-520 -154 0
-520 -155 -123 0
-520 155 123 0
-520 -156 0
-520 -157 -125 0
-520 157 125 0
-520 -158 0
-520 -159 -127 0
-520 159 127 0
-520 -160 0
-521 -129 0
-521 -130 0
-521 -131 0
-521 -132 0
-521 -133 0
-521 -134 0
-521 135 0
-521 136 0
-521 -137 0
-521 -138 0
-521 -139 0
-521 -140 0
-521 -141 0
-521 -142 0
-521 143 0
-521 144 0
-521 -145 0
-521 -146 0
-521 -147 0
-521 -148 0
-521 -149 0
-521 -150 0
-521 151 0
-521 152 0
-521 -153 0
-521 -154 0
-521 -155 0
-521 -156 0
-521 -157 0
-521 -158 0
-521 159 0
-521 160 0
-522 -129 0
-522 -130 0
-522 131 0
-522 132 0
-522 -133 0
-522 -134 0
-522 -135 0
-522 -136 0
-522 -137 0
-522 -138 0
-522 139 0
-522 140 0
-522 -141 0
-522 -142 0
-522 -143 0
-522 -144 0
-522 -145 0
-522 -146 0
-522 147 0
-522 148 0
-522 -149 0
-522 -150 0
-522 -151 0
-522 -152 0
-522 -153 0
-522 -154 0
-522 155 0
-522 156 0
-522 -157 0
-522 -158 0
-522 -159 0
-522 -160 0
-523 -129 0
-523 -130 0
-523 -131 0
-523 -132 0
-523 133 0
-523 134 0
-523 -135 0
-523 -136 0
-523 -137 0
-523 -138 0
-523 -139 0
-523 -140 0
-523 141 0
-523 142 0
-523 -143 0
-523 -144 0
-523 -145 0
-523 -146 0
-523 -147 0
-523 -148 0
-523 149 0
-523 150 0
-523 -151 0
-523 -152 0
-523 -153 0
-523 -154 0
-523 -155 0
-523 -156 0
-523 157 0
-523 158 0
-523 -159 0
-523 -160 0
-524 129 0
-524 130 0
-524 -131 0
-524 -132 0
-524 -133 0
-524 -134 0
-524 -135 0
-524 -136 0
-524 137 0
-524 138 0
-524 -139 0
-524 -140 0
-524 -141 0
-524 -142 0
-524 -143 0
-524 -144 0
-524 145 0
-524 146 0
-524 -147 0
-524 -148 0
-524 -149 0
-524 -150 0
-524 -151 0
-524 -152 0
-524 153 0
-524 154 0
-524 -155 0
-524 -156 0
-524 -157 0
-524 -158 0
-524 -159 0
-524 -160 0
-525 -129 0
-525 -130 0
-525 -131 0
-525 -132 0
-525 -133 0
-525 -134 0
-525 -135 0
-525 -136 0
-525 -137 0
-525 -138 0
-525 139 0
-525 140 0
-525 -141 0
-525 -142 0
-525 143 0
-525 144 0
-525 -145 0
-525 -146 0
-525 -147 0
-525 -148 0
-525 -149 0
-525 -150 0
-525 -151 0
-525 -152 0
-525 -153 0
-525 -154 0
-525 155 0
-525 156 0
-525 -157 0
-525 -158 0
-525 159 0
-525 160 0
-526 -129 0
-526 -130 0
-526 131 0
-526 132 0
-526 -133 0
-526 -134 0
-526 135 0
-526 136 0
-526 -137 0
-526 -138 0
-526 -139 0
-526 -140 0
-526 -141 0
-526 -142 0
-526 -143 0
-526 -144 0
-526 -145 0
-526 -146 0
-526 147 0
-526 148 0
-526 -149 0
-526 -150 0
-526 151 0
-526 152 0
-526 -153 0
-526 -154 0
-526 -155 0
-526 -156 0
-526 -157 0
-526 -158 0
-526 -159 0
-526 -160 0
-527 -129 0
-527 -130 0
-527 -131 0
-527 -132 0
-527 -133 0
-527 -134 0
-527 -135 0
-527 -136 0
-527 137 0
-527 138 0
-527 -139 0
-527 -140 0
-527 141 0
-527 142 0
-527 -143 0
-527 -144 0
-527 -145 0
-527 -146 0
-527 -147 0
-527 -148 0
-527 -149 0
-527 -150 0
-527 -151 0
-527 -152 0
-527 153 0
-527 154 0
-527 -155 0
-527 -156 0
-527 157 0
-527 158 0
-527 -159 0
-527 -160 0
-528 129 0
-528 130 0
-528 -131 0
-528 -132 0
-528 133 0
-528 134 0
-528 -135 0
-528 -136 0
-528 -137 0
-528 -138 0
-528 -139 0
-528 -140 0
-528 -141 0
-528 -142 0
-528 -143 0
-528 -144 0
-528 145 0
-528 146 0
-528 -147 0
-528 -148 0
-528 149 0
-528 150 0
-528 -151 0
-528 -152 0
-528 -153 0
-528 -154 0
-528 -155 0
-528 -156 0
-528 -157 0
-528 -158 0
-528 -159 0
-528 -160 0
-529 -129 0
-529 -130 0
-529 -131 0
-529 -132 0
-529 -133 0
-529 -134 0
-529 -135 0
-529 -136 0
-529 -137 0
-529 -138 0
-529 -139 0
-529 -140 0
-529 -141 0
-529 -142 0
-529 -143 0
-529 -144 0
-529 -145 0
-529 -146 0
-529 147 0
-529 148 0
-529 -149 0
-529 -150 0
-529 151 0
-529 152 0
-529 -153 0
-529 -154 0
-529 155 0
-529 156 0
-529 -157 0
-529 -158 0
-529 159 0
-529 160 0
-530 -129 0
-530 -130 0
-530 131 0
-530 132 0
-530 -133 0
-530 -134 0
-530 135 0
-530 136 0
-530 -137 0
-530 -138 0
-530 139 0
-530 140 0
-530 -141 0
-530 -142 0
-530 143 0
-530 144 0
-530 -145 0
-530 -146 0
-530 -147 0
-530 -148 0
-530 -149 0
-530 -150 0
-530 -151 0
-530 -152 0
-530 -153 0
-530 -154 0
-530 -155 0
-530 -156 0
-530 -157 0
-530 -158 0
-530 -159 0
-530 -160 0
-531 -129 0
-531 -130 0
-531 -131 0
-531 -132 0
-531 -133 0
-531 -134 0
-531 -135 0
-531 -136 0
-531 -137 0
-531 -138 0
-531 -139 0
-531 -140 0
-531 -141 0
-531 -142 0
-531 -143 0
-531 -144 0
-531 145 0
-531 146 0
-531 -147 0
-531 -148 0
-531 149 0
-531 150 0
-531 -151 0
-531 -152 0
-531 153 0
-531 154 0
-531 -155 0
-531 -156 0
-531 157 0
-531 158 0
-531 -159 0
-531 -160 0
-532 129 0
-532 130 0
-532 -131 0
-532 -132 0
-532 133 0
-532 134 0
-532 -135 0
-532 -136 0
-532 137 0
-532 138 0
-532 -139 0
-532 -140 0
-532 141 0
-532 142 0
-532 -143 0
-532 -144 0
-532 -145 0
-532 -146 0
-532 -147 0
-532 -148 0
-532 -149 0
-532 -150 0
-532 -151 0
-532 -152 0
-532 -153 0
-532 -154 0
-532 -155 0
-532 -156 0
-532 -157 0
-532 -158 0
-532 -159 0
-532 -160 0
-533 -129 0
-533 -130 0
-533 -131 3 0
-533 131 -3 0
-533 -132 4 0
-533 132 -4 0
-533 -133 0
-533 -134 0
-533 -135 7 0
-533 135 -7 0
-533 -136 8 0
-533 136 -8 0
-533 -137 0
-533 -138 0
-533 -139 11 0
-533 139 -11 0
-533 -140 12 0
-533 140 -12 0
-533 -141 0
-533 -142 0
-533 -143 15 0
-533 143 -15 0
-533 -144 16 0
-533 144 -16 0
-533 -145 0
-533 -146 0
-533 -147 19 0
-533 147 -19 0
-533 -148 20 0
-533 148 -20 0
-533 -149 0
-533 -150 0
-533 -151 23 0
-533 151 -23 0
-533 -152 24 0
-533 152 -24 0
-533 -153 0
-533 -154 0
-533 -155 27 0
-533 155 -27 0
-533 -156 28 0
-533 156 -28 0
-533 -157 0
-533 -158 0
-533 -159 31 0
-533 159 -31 0
-533 -160 32 0
-533 160 -32 0
-534 -129 0
-534 -130 0
-534 -131 -3 0
-534 131 3 0
-534 -132 -4 0
-534 132 4 0
-534 -133 0
-534 -134 0
-534 -135 -7 0
-534 135 7 0
-534 -136 -8 0
-534 136 8 0
-534 -137 0
-534 -138 0
-534 -139 -11 0
-534 139 11 0
-534 -140 -12 0
-534 140 12 0
-534 -141 0
-534 -142 0
-534 -143 -15 0
-534 143 15 0
-534 -144 -16 0
-534 144 16 0
-534 -145 0
-534 -146 0
-534 -147 -19 0
-534 147 19 0
-534 -148 -20 0
-534 148 20 0
-534 -149 0
-534 -150 0
-534 -151 -23 0
-534 151 23 0
-534 -152 -24 0
-534 152 24 0
-534 -153 0
-534 -154 0
-534 -155 -27 0
-534 155 27 0
-534 -156 -28 0
-534 156 28 0
-534 -157 0
-534 -158 0
-534 -159 -31 0
-534 159 31 0
-534 -160 -32 0
-534 160 32 0
-535 -129 1 0
-535 129 -1 0
-535 -130 2 0
-535 130 -2 0
-535 -131 0
-535 -132 0
-535 -133 5 0
-535 133 -5 0
-535 -134 6 0
-535 134 -6 0
-535 -135 0
-535 -136 0
-535 -137 9 0
-535 137 -9 0
-535 -138 10 0
-535 138 -10 0
-535 -139 0
-535 -140 0
-535 -141 13 0
-535 141 -13 0
-535 -142 14 0
-535 142 -14 0
-535 -143 0
-535 -144 0
-535 -145 17 0
-535 145 -17 0
-535 -146 18 0
-535 146 -18 0
-535 -147 0
-535 -148 0
-535 -149 21 0
-535 149 -21 0
-535 -150 22 0
-535 150 -22 0
-535 -151 0
-535 -152 0
-535 -153 25 0
-535 153 -25 0
-535 -154 26 0
-535 154 -26 0
-535 -155 0
-535 -156 0
-535 -157 29 0
-535 157 -29 0
-535 -158 30 0
-535 158 -30 0
-535 -159 0
-535 -160 0
-536 -129 -1 0
-536 129 1 0
-536 -130 -2 0
-536 130 2 0
-536 -131 0
-536 -132 0
-536 -133 -5 0
-536 133 5 0
-536 -134 -6 0
-536 134 6 0
-536 -135 0
-536 -136 0
-536 -137 -9 0
-536 137 9 0
-536 -138 -10 0
-536 138 10 0
-536 -139 0
-536 -140 0
-536 -141 -13 0
-536 141 13 0
-536 -142 -14 0
-536 142 14 0
-536 -143 0
-536 -144 0
-536 -145 -17 0
-536 145 17 0
-536 -146 -18 0
-536 146 18 0
-536 -147 0
-536 -148 0
-536 -149 -21 0
-536 149 21 0
-536 -150 -22 0
-536 150 22 0
-536 -151 0
-536 -152 0
-536 -153 -25 0
-536 153 25 0
-536 -154 -26 0
-536 154 26 0
-536 -155 0
-536 -156 0
-536 -157 -29 0
-536 157 29 0
-536 -158 -30 0
-536 158 30 0
-536 -159 0
-536 -160 0
-537 -129 0
-537 -130 0
-537 -131 35 0
-537 131 -35 0
-537 -132 36 0
-537 132 -36 0
-537 -133 0
-537 -134 0
-537 -135 39 0
-537 135 -39 0
-537 -136 40 0
-537 136 -40 0
-537 -137 0
-537 -138 0
-537 -139 43 0
-537 139 -43 0
-537 -140 44 0
-537 140 -44 0
-537 -141 0
-537 -142 0
-537 -143 47 0
-537 143 -47 0
-537 -144 48 0
-537 144 -48 0
-537 -145 0
-537 -146 0
-537 -147 51 0
-537 147 -51 0
-537 -148 52 0
-537 148 -52 0
-537 -149 0
-537 -150 0
-537 -151 55 0
-537 151 -55 0
-537 -152 56 0
-537 152 -56 0
-537 -153 0
-537 -154 0
-537 -155 59 0
-537 155 -59 0
-537 -156 60 0
-537 156 -60 0
-537 -157 0
-537 -158 0
-537 -159 63 0
-537 159 -63 0
-537 -160 64 0
-537 160 -64 0
-538 -129 0
-538 -130 0
-538 -131 -35 0
-538 131 35 0
-538 -132 -36 0
-538 132 36 0
-538 -133 0
-538 -134 0
-538 -135 -39 0
-538 135 39 0
-538 -136 -40 0
-538 136 40 0
-538 -137 0
-538 -138 0
-538 -139 -43 0
-538 139 43 0
-538 -140 -44 0
-538 140 44 0
-538 -141 0
-538 -142 0
-538 -143 -47 0
-538 143 47 0
-538 -144 -48 0
-538 144 48 0
-538 -145 0
-538 -146 0
-538 -147 -51 0
-538 147 51 0
-538 -148 -52 0
-538 148 52 0
-538 -149 0
-538 -150 0
-538 -151 -55 0
-538 151 55 0
-538 -152 -56 0
-538 152 56 0
-538 -153 0
-538 -154 0
-538 -155 -59 0
-538 155 59 0
-538 -156 -60 0
-538 156 60 0
-538 -157 0
-538 -158 0
-538 -159 -63 0
-538 159 63 0
-538 -160 -64 0
-538 160 64 0
-539 -129 33 0
-539 129 -33 0
-539 -130 34 0
-539 130 -34 0
-539 -131 0
-539 -132 0
-539 -133 37 0
-539 133 -37 0
-539 -134 38 0
-539 134 -38 0
-539 -135 0
-539 -136 0
-539 -137 41 0
-539 137 -41 0
-539 -138 42 0
-539 138 -42 0
-539 -139 0
-539 -140 0
-539 -141 45 0
-539 141 -45 0
-539 -142 46 0
-539 142 -46 0
-539 -143 0
-539 -144 0
-539 -145 49 0
-539 145 -49 0
-539 -146 50 0
-539 146 -50 0
-539 -147 0
-539 -148 0
-539 -149 53 0
-539 149 -53 0
-539 -150 54 0
-539 150 -54 0
-539 -151 0
-539 -152 0
-539 -153 57 0
-539 153 -57 0
-539 -154 58 0
-539 154 -58 0
-539 -155 0
-539 -156 0
-539 -157 61 0
-539 157 -61 0
-539 -158 62 0
-539 158 -62 0
-539 -159 0
-539 -160 0
-540 -129 -33 0
-540 129 33 0
-540 -130 -34 0
-540 130 34 0
-540 -131 0
-540 -132 0
-540 -133 -37 0
-540 133 37 0
-540 -134 -38 0
-540 134 38 0
-540 -135 0
-540 -136 0
-540 -137 -41 0
-540 137 41 0
-540 -138 -42 0
-540 138 42 0
-540 -139 0
-540 -140 0
-540 -141 -45 0
-540 141 45 0
-540 -142 -46 0
-540 142 46 0
-540 -143 0
-540 -144 0
-540 -145 -49 0
-540 145 49 0
-540 -146 -50 0
-540 146 50 0
-540 -147 0
-540 -148 0
-540 -149 -53 0
-540 149 53 0
-540 -150 -54 0
-540 150 54 0
-540 -151 0
-540 -152 0
-540 -153 -57 0
-540 153 57 0
-540 -154 -58 0
-540 154 58 0
-540 -155 0
-540 -156 0
-540 -157 -61 0
-540 157 61 0
-540 -158 -62 0
-540 158 62 0
-540 -159 0
-540 -160 0
-541 -129 0
-541 -130 0
-541 -131 67 0
-541 131 -67 0
-541 -132 68 0
-541 132 -68 0
-541 -133 0
-541 -134 0
-541 -135 71 0
-541 135 -71 0
-541 -136 72 0
-541 136 -72 0
-541 -137 0
-541 -138 0
-541 -139 75 0
-541 139 -75 0
-541 -140 76 0
-541 140 -76 0
-541 -141 0
-541 -142 0
-541 -143 79 0
-541 143 -79 0
-541 -144 80 0
-541 144 -80 0
-541 -145 0
-541 -146 0
-541 -147 83 0
-541 147 -83 0
-541 -148 84 0
-541 148 -84 0
-541 -149 0
-541 -150 0
-541 -151 87 0
-541 151 -87 0
-541 -152 88 0
-541 152 -88 0
-541 -153 0
-541 -154 0
-541 -155 91 0
-541 155 -91 0
-541 -156 92 0
-541 156 -92 0
-541 -157 0
-541 -158 0
-541 -159 95 0
-541 159 -95 0
-541 -160 96 0
-541 160 -96 0
-542 -129 0
-542 -130 0
-542 -131 -67 0
-542 131 67 0
-542 -132 -68 0
-542 132 68 0
-542 -133 0
-542 -134 0
-542 -135 -71 0
-542 135 71 0
-542 -136 -72 0
-542 136 72 0
-542 -137 0
-542 -138 0
-542 -139 -75 0
-542 139 75 0
-542 -140 -76 0
-542 140 76 0
-542 -141 0
-542 -142 0
-542 -143 -79 0
-542 143 79 0
-542 -144 -80 0
-542 144 80 0
-542 -145 0
-542 -146 0
-542 -147 -83 0
-542 147 83 0
-542 -148 -84 0
-542 148 84 0
-542 -149 0
-542 -150 0
-542 -151 -87 0
-542 151 87 0
-542 -152 -88 0
-542 152 88 0
-542 -153 0
-542 -154 0
-542 -155 -91 0
-542 155 91 0
-542 -156 -92 0
-542 156 92 0
-542 -157 0
-542 -158 0
-542 -159 -95 0
-542 159 95 0
-542 -160 -96 0
-542 160 96 0
-543 -129 65 0
-543 129 -65 0
-543 -130 66 0
-543 130 -66 0
-543 -131 0
-543 -132 0
-543 -133 69 0
-543 133 -69 0
-543 -134 70 0
-543 134 -70 0
-543 -135 0
-543 -136 0
-543 -137 73 0
-543 137 -73 0
-543 -138 74 0
-543 138 -74 0
-543 -139 0
-543 -140 0
-543 -141 77 0
-543 141 -77 0
-543 -142 78 0
-543 142 -78 0
-543 -143 0
-543 -144 0
-543 -145 81 0
-543 145 -81 0
-543 -146 82 0
-543 146 -82 0
-543 -147 0
-543 -148 0
-543 -149 85 0
-543 149 -85 0
-543 -150 86 0
-543 150 -86 0
-543 -151 0
-543 -152 0
-543 -153 89 0
-543 153 -89 0
-543 -154 90 0
-543 154 -90 0
-543 -155 0
-543 -156 0
-543 -157 93 0
-543 157 -93 0
-543 -158 94 0
-543 158 -94 0
-543 -159 0
-543 -160 0
-544 -129 -65 0
-544 129 65 0
-544 -130 -66 0
-544 130 66 0
-544 -131 0
-544 -132 0
-544 -133 -69 0
-544 133 69 0
-544 -134 -70 0
-544 134 70 0
-544 -135 0
-544 -136 0
-544 -137 -73 0
-544 137 73 0
-544 -138 -74 0
-544 138 74 0
-544 -139 0
-544 -140 0
-544 -141 -77 0
-544 141 77 0
-544 -142 -78 0
-544 142 78 0
-544 -143 0
-544 -144 0
-544 -145 -81 0
-544 145 81 0
-544 -146 -82 0
-544 146 82 0
-544 -147 0
-544 -148 0
-544 -149 -85 0
-544 149 85 0
-544 -150 -86 0
-544 150 86 0
-544 -151 0
-544 -152 0
-544 -153 -89 0
-544 153 89 0
-544 -154 -90 0
-544 154 90 0
-544 -155 0
-544 -156 0
-544 -157 -93 0
-544 157 93 0
-544 -158 -94 0
-544 158 94 0
-544 -159 0
-544 -160 0
-545 -129 0
-545 -130 0
-545 -131 99 0
-545 131 -99 0
-545 -132 100 0
-545 132 -100 0
-545 -133 0
-545 -134 0
-545 -135 103 0
-545 135 -103 0
-545 -136 104 0
-545 136 -104 0
-545 -137 0
-545 -138 0
-545 -139 107 0
-545 139 -107 0
-545 -140 108 0
-545 140 -108 0
-545 -141 0
-545 -142 0
-545 -143 111 0
-545 143 -111 0
-545 -144 112 0
-545 144 -112 0
-545 -145 0
-545 -146 0
-545 -147 115 0
-545 147 -115 0
-545 -148 116 0
-545 148 -116 0
-545 -149 0
-545 -150 0
-545 -151 119 0
-545 151 -119 0
-545 -152 120 0
-545 152 -120 0
-545 -153 0
-545 -154 0
-545 -155 123 0
-545 155 -123 0
-545 -156 124 0
-545 156 -124 0
-545 -157 0
-545 -158 0
-545 -159 127 0
-545 159 -127 0
-545 -160 128 0
-545 160 -128 0
-546 -129 0
-546 -130 0
-546 -131 -99 0
-546 131 99 0
-546 -132 -100 0
-546 132 100 0
-546 -133 0
-546 -134 0
-546 -135 -103 0
-546 135 103 0
-546 -136 -104 0
-546 136 104 0
-546 -137 0
-546 -138 0
-546 -139 -107 0
-546 139 107 0
-546 -140 -108 0
-546 140 108 0
-546 -141 0
-546 -142 0
-546 -143 -111 0
-546 143 111 0
-546 -144 -112 0
-546 144 112 0
-546 -145 0
-546 -146 0
-546 -147 -115 0
-546 147 115 0
-546 -148 -116 0
-546 148 116 0
-546 -149 0
-546 -150 0
-546 -151 -119 0
-546 151 119 0
-546 -152 -120 0
-546 152 120 0
-546 -153 0
-546 -154 0
-546 -155 -123 0
-546 155 123 0
-546 -156 -124 0
-546 156 124 0
-546 -157 0
-546 -158 0
-546 -159 -127 0
-546 159 127 0
-546 -160 -128 0
-546 160 128 0
-547 -129 97 0
-547 129 -97 0
-547 -130 98 0
-547 130 -98 0
-547 -131 0
-547 -132 0
-547 -133 101 0
-547 133 -101 0
-547 -134 102 0
-547 134 -102 0
-547 -135 0
-547 -136 0
-547 -137 105 0
-547 137 -105 0
-547 -138 106 0
-547 138 -106 0
-547 -139 0
-547 -140 0
-547 -141 109 0
-547 141 -109 0
-547 -142 110 0
-547 142 -110 0
-547 -143 0
-547 -144 0
-547 -145 113 0
-547 145 -113 0
-547 -146 114 0
-547 146 -114 0
-547 -147 0
-547 -148 0
-547 -149 117 0
-547 149 -117 0
-547 -150 118 0
-547 150 -118 0
-547 -151 0
-547 -152 0
-547 -153 121 0
-547 153 -121 0
-547 -154 122 0
-547 154 -122 0
-547 -155 0
-547 -156 0
-547 -157 125 0
-547 157 -125 0
-547 -158 126 0
-547 158 -126 0
-547 -159 0
-547 -160 0
-548 -129 -97 0
-548 129 97 0
-548 -130 -98 0
-548 130 98 0
-548 -131 0
-548 -132 0
-548 -133 -101 0
-548 133 101 0
-548 -134 -102 0
-548 134 102 0
-548 -135 0
-548 -136 0
-548 -137 -105 0
-548 137 105 0
-548 -138 -106 0
-548 138 106 0
-548 -139 0
-548 -140 0
-548 -141 -109 0
-548 141 109 0
-548 -142 -110 0
-548 142 110 0
-548 -143 0
-548 -144 0
-548 -145 -113 0
-548 145 113 0
-548 -146 -114 0
-548 146 114 0
-548 -147 0
-548 -148 0
-548 -149 -117 0
-548 149 117 0
-548 -150 -118 0
-548 150 118 0
-548 -151 0
-548 -152 0
-548 -153 -121 0
-548 153 121 0
-548 -154 -122 0
-548 154 122 0
-548 -155 0
-548 -156 0
-548 -157 -125 0
-548 157 125 0
-548 -158 -126 0
-548 158 126 0
-548 -159 0
-548 -160 0
-549 -129 0
-549 -130 0
-549 -131 0
-549 -132 0
-549 -133 0
-549 -134 0
-549 -135 0
-549 -136 0
-549 -137 0
-549 -138 0
-549 -139 0
-549 -140 0
-549 141 0
-549 142 0
-549 143 0
-549 144 0
-549 -145 0
-549 -146 0
-549 -147 0
-549 -148 0
-549 -149 0
-549 -150 0
-549 -151 0
-549 -152 0
-549 -153 0
-549 -154 0
-549 -155 0
-549 -156 0
-549 157 0
-549 158 0
-549 159 0
-549 160 0
-550 -129 0
-550 -130 0
-550 -131 0
-550 -132 0
-550 133 0
-550 134 0
-550 135 0
-550 136 0
-550 -137 0
-550 -138 0
-550 -139 0
-550 -140 0
-550 -141 0
-550 -142 0
-550 -143 0
-550 -144 0
-550 -145 0
-550 -146 0
-550 -147 0
-550 -148 0
-550 149 0
-550 150 0
-550 151 0
-550 152 0
-550 -153 0
-550 -154 0
-550 -155 0
-550 -156 0
-550 -157 0
-550 -158 0
-550 -159 0
-550 -160 0
-551 -129 0
-551 -130 0
-551 -131 0
-551 -132 0
-551 -133 0
-551 -134 0
-551 -135 0
-551 -136 0
-551 137 0
-551 138 0
-551 139 0
-551 140 0
-551 -141 0
-551 -142 0
-551 -143 0
-551 -144 0
-551 -145 0
-551 -146 0
-551 -147 0
-551 -148 0
-551 -149 0
-551 -150 0
-551 -151 0
-551 -152 0
-551 153 0
-551 154 0
-551 155 0
-551 156 0
-551 -157 0
-551 -158 0
-551 -159 0
-551 -160 0
-552 129 0
-552 130 0
-552 131 0
-552 132 0
-552 -133 0
-552 -134 0
-552 -135 0
-552 -136 0
-552 -137 0
-552 -138 0
-552 -139 0
-552 -140 0
-552 -141 0
-552 -142 0
-552 -143 0
-552 -144 0
-552 145 0
-552 146 0
-552 147 0
-552 148 0
-552 -149 0
-552 -150 0
-552 -151 0
-552 -152 0
-552 -153 0
-552 -154 0
-552 -155 0
-552 -156 0
-552 -157 0
-552 -158 0
-552 -159 0
-552 -160 0
-553 -129 0
-553 -130 0
-553 -131 0
-553 -132 0
-553 -133 0
-553 -134 0
-553 -135 0
-553 -136 0
-553 -137 0
-553 -138 0
-553 -139 0
-553 -140 0
-553 -141 0
-553 -142 0
-553 -143 0
-553 -144 0
-553 -145 0
-553 -146 0
-553 -147 0
-553 -148 0
-553 149 0
-553 150 0
-553 151 0
-553 152 0
-553 -153 0
-553 -154 0
-553 -155 0
-553 -156 0
-553 157 0
-553 158 0
-553 159 0
-553 160 0
-554 -129 0
-554 -130 0
-554 -131 0
-554 -132 0
-554 133 0
-554 134 0
-554 135 0
-554 136 0
-554 -137 0
-554 -138 0
-554 -139 0
-554 -140 0
-554 141 0
-554 142 0
-554 143 0
-554 144 0
-554 -145 0
-554 -146 0
-554 -147 0
-554 -148 0
-554 -149 0
-554 -150 0
-554 -151 0
-554 -152 0
-554 -153 0
-554 -154 0
-554 -155 0
-554 -156 0
-554 -157 0
-554 -158 0
-554 -159 0
-554 -160 0
-555 -129 0
-555 -130 0
-555 -131 0
-555 -132 0
-555 -133 0
-555 -134 0
-555 -135 0
-555 -136 0
-555 -137 0
-555 -138 0
-555 -139 0
-555 -140 0
-555 -141 0
-555 -142 0
-555 -143 0
-555 -144 0
-555 145 0
-555 146 0
-555 147 0
-555 148 0
-555 -149 0
-555 -150 0
-555 -151 0
-555 -152 0
-555 153 0
-555 154 0
-555 155 0
-555 156 0
-555 -157 0
-555 -158 0
-555 -159 0
-555 -160 0
-556 129 0
-556 130 0
-556 131 0
-556 132 0
-556 -133 0
-556 -134 0
-556 -135 0
-556 -136 0
-556 137 0
-556 138 0
-556 139 0
-556 140 0
-556 -141 0
-556 -142 0
-556 -143 0
-556 -144 0
-556 -145 0
-556 -146 0
-556 -147 0
-556 -148 0
-556 -149 0
-556 -150 0
-556 -151 0
-556 -152 0
-556 -153 0
-556 -154 0
-556 -155 0
-556 -156 0
-556 -157 0
-556 -158 0
-556 -159 0
-556 -160 0
-557 -129 0
-557 -130 0
-557 -131 0
-557 -132 0
-557 -133 5 0
-557 133 -5 0
-557 -134 6 0
-557 134 -6 0
-557 -135 7 0
-557 135 -7 0
-557 -136 8 0
-557 136 -8 0
-557 -137 0
-557 -138 0
-557 -139 0
-557 -140 0
-557 -141 13 0
-557 141 -13 0
-557 -142 14 0
-557 142 -14 0
-557 -143 15 0
-557 143 -15 0
-557 -144 16 0
-557 144 -16 0
-557 -145 0
-557 -146 0
-557 -147 0
-557 -148 0
-557 -149 21 0
-557 149 -21 0
-557 -150 22 0
-557 150 -22 0
-557 -151 23 0
-557 151 -23 0
-557 -152 24 0
-557 152 -24 0
-557 -153 0
-557 -154 0
-557 -155 0
-557 -156 0
-557 -157 29 0
-557 157 -29 0
-557 -158 30 0
-557 158 -30 0
-557 -159 31 0
-557 159 -31 0
-557 -160 32 0
-557 160 -32 0
-558 -129 0
-558 -130 0
-558 -131 0
-558 -132 0
-558 -133 -5 0
-558 133 5 0
-558 -134 -6 0
-558 134 6 0
-558 -135 -7 0
-558 135 7 0
-558 -136 -8 0
-558 136 8 0
-558 -137 0
-558 -138 0
-558 -139 0
-558 -140 0
-558 -141 -13 0
-558 141 13 0
-558 -142 -14 0
-558 142 14 0
-558 -143 -15 0
-558 143 15 0
-558 -144 -16 0
-558 144 16 0
-558 -145 0
-558 -146 0
-558 -147 0
-558 -148 0
-558 -149 -21 0
-558 149 21 0
-558 -150 -22 0
-558 150 22 0
-558 -151 -23 0
-558 151 23 0
-558 -152 -24 0
-558 152 24 0
-558 -153 0
-558 -154 0
-558 -155 0
-558 -156 0
-558 -157 -29 0
-558 157 29 0
-558 -158 -30 0
-558 158 30 0
-558 -159 -31 0
-558 159 31 0
-558 -160 -32 0
-558 160 32 0
-559 -129 1 0
-559 129 -1 0
-559 -130 2 0
-559 130 -2 0
-559 -131 3 0
-559 131 -3 0
-559 -132 4 0
-559 132 -4 0
-559 -133 0
-559 -134 0
-559 -135 0
-559 -136 0
-559 -137 9 0
-559 137 -9 0
-559 -138 10 0
-559 138 -10 0
-559 -139 11 0
-559 139 -11 0
-559 -140 12 0
-559 140 -12 0
-559 -141 0
-559 -142 0
-559 -143 0
-559 -144 0
-559 -145 17 0
-559 145 -17 0
-559 -146 18 0
-559 146 -18 0
-559 -147 19 0
-559 147 -19 0
-559 -148 20 0
-559 148 -20 0
-559 -149 0
-559 -150 0
-559 -151 0
-559 -152 0
-559 -153 25 0
-559 153 -25 0
-559 -154 26 0
-559 154 -26 0
-559 -155 27 0
-559 155 -27 0
-559 -156 28 0
-559 156 -28 0
-559 -157 0
-559 -158 0
-559 -159 0
-559 -160 0
-560 -129 -1 0
-560 129 1 0
-560 -130 -2 0
-560 130 2 0
-560 -131 -3 0
-560 131 3 0
-560 -132 -4 0
-560 132 4 0
-560 -133 0
-560 -134 0
-560 -135 0
-560 -136 0
-560 -137 -9 0
-560 137 9 0
-560 -138 -10 0
-560 138 10 0
-560 -139 -11 0
-560 139 11 0
-560 -140 -12 0
-560 140 12 0
-560 -141 0
-560 -142 0
-560 -143 0
-560 -144 0
-560 -145 -17 0
-560 145 17 0
-560 -146 -18 0
-560 146 18 0
-560 -147 -19 0
-560 147 19 0
-560 -148 -20 0
-560 148 20 0
-560 -149 0
-560 -150 0
-560 -151 0
-560 -152 0
-560 -153 -25 0
-560 153 25 0
-560 -154 -26 0
-560 154 26 0
-560 -155 -27 0
-560 155 27 0
-560 -156 -28 0
-560 156 28 0
-560 -157 0
-560 -158 0
-560 -159 0
-560 -160 0
-561 -129 0
-561 -130 0
-561 -131 0
-561 -132 0
-561 -133 37 0
-561 133 -37 0
-561 -134 38 0
-561 134 -38 0
-561 -135 39 0
-561 135 -39 0
-561 -136 40 0
-561 136 -40 0
-561 -137 0
-561 -138 0
-561 -139 0
-561 -140 0
-561 -141 45 0
-561 141 -45 0
-561 -142 46 0
-561 142 -46 0
-561 -143 47 0
-561 143 -47 0
-561 -144 48 0
-561 144 -48 0
-561 -145 0
-561 -146 0
-561 -147 0
-561 -148 0
-561 -149 53 0
-561 149 -53 0
-561 -150 54 0
-561 150 -54 0
-561 -151 55 0
-561 151 -55 0
-561 -152 56 0
-561 152 -56 0
-561 -153 0
-561 -154 0
-561 -155 0
-561 -156 0
-561 -157 61 0
-561 157 -61 0
-561 -158 62 0
-561 158 -62 0
-561 -159 63 0
-561 159 -63 0
-561 -160 64 0
-561 160 -64 0
-562 -129 0
-562 -130 0
-562 -131 0
-562 -132 0
-562 -133 -37 0
-562 133 37 0
-562 -134 -38 0
-562 134 38 0
-562 -135 -39 0
-562 135 39 0
-562 -136 -40 0
-562 136 40 0
-562 -137 0
-562 -138 0
-562 -139 0
-562 -140 0
-562 -141 -45 0
-562 141 45 0
-562 -142 -46 0
-562 142 46 0
-562 -143 -47 0
-562 143 47 0
-562 -144 -48 0
-562 144 48 0
-562 -145 0
-562 -146 0
-562 -147 0
-562 -148 0
-562 -149 -53 0
-562 149 53 0
-562 -150 -54 0
-562 150 54 0
-562 -151 -55 0
-562 151 55 0
-562 -152 -56 0
-562 152 56 0
-562 -153 0
-562 -154 0
-562 -155 0
-562 -156 0
-562 -157 -61 0
-562 157 61 0
-562 -158 -62 0
-562 158 62 0
-562 -159 -63 0
-562 159 63 0
-562 -160 -64 0
-562 160 64 0
-563 -129 33 0
-563 129 -33 0
-563 -130 34 0
-563 130 -34 0
-563 -131 35 0
-563 131 -35 0
-563 -132 36 0
-563 132 -36 0
-563 -133 0
-563 -134 0
-563 -135 0
-563 -136 0
-563 -137 41 0
-563 137 -41 0
-563 -138 42 0
-563 138 -42 0
-563 -139 43 0
-563 139 -43 0
-563 -140 44 0
-563 140 -44 0
-563 -141 0
-563 -142 0
-563 -143 0
-563 -144 0
-563 -145 49 0
-563 145 -49 0
-563 -146 50 0
-563 146 -50 0
-563 -147 51 0
-563 147 -51 0
-563 -148 52 0
-563 148 -52 0
-563 -149 0
-563 -150 0
-563 -151 0
-563 -152 0
-563 -153 57 0
-563 153 -57 0
-563 -154 58 0
-563 154 -58 0
-563 -155 59 0
-563 155 -59 0
-563 -156 60 0
-563 156 -60 0
-563 -157 0
-563 -158 0
-563 -159 0
-563 -160 0
-564 -129 -33 0
-564 129 33 0
-564 -130 -34 0
-564 130 34 0
-564 -131 -35 0
-564 131 35 0
-564 -132 -36 0
-564 132 36 0
-564 -133 0
-564 -134 0
-564 -135 0
-564 -136 0
-564 -137 -41 0
-564 137 41 0
-564 -138 -42 0
-564 138 42 0
-564 -139 -43 0
-564 139 43 0
-564 -140 -44 0
-564 140 44 0
-564 -141 0
-564 -142 0
-564 -143 0
-564 -144 0
-564 -145 -49 0
-564 145 49 0
-564 -146 -50 0
-564 146 50 0
-564 -147 -51 0
-564 147 51 0
-564 -148 -52 0
-564 148 52 0
-564 -149 0
-564 -150 0
-564 -151 0
-564 -152 0
-564 -153 -57 0
-564 153 57 0
-564 -154 -58 0
-564 154 58 0
-564 -155 -59 0
-564 155 59 0
-564 -156 -60 0
-564 156 60 0
-564 -157 0
-564 -158 0
-564 -159 0
-564 -160 0
-565 -129 0
-565 -130 0
-565 -131 0
-565 -132 0
-565 -133 69 0
-565 133 -69 0
-565 -134 70 0
-565 134 -70 0
-565 -135 71 0
-565 135 -71 0
-565 -136 72 0
-565 136 -72 0
-565 -137 0
-565 -138 0
-565 -139 0
-565 -140 0
-565 -141 77 0
-565 141 -77 0
-565 -142 78 0
-565 142 -78 0
-565 -143 79 0
-565 143 -79 0
-565 -144 80 0
-565 144 -80 0
-565 -145 0
-565 -146 0
-565 -147 0
-565 -148 0
-565 -149 85 0
-565 149 -85 0
-565 -150 86 0
-565 150 -86 0
-565 -151 87 0
-565 151 -87 0
-565 -152 88 0
-565 152 -88 0
-565 -153 0
-565 -154 0
-565 -155 0
-565 -156 0
-565 -157 93 0
-565 157 -93 0
-565 -158 94 0
-565 158 -94 0
-565 -159 95 0
-565 159 -95 0
-565 -160 96 0
-565 160 -96 0
-566 -129 0
-566 -130 0
-566 -131 0
-566 -132 0
-566 -133 -69 0
-566 133 69 0
-566 -134 -70 0
-566 134 70 0
-566 -135 -71 0
-566 135 71 0
-566 -136 -72 0
-566 136 72 0
-566 -137 0
-566 -138 0
-566 -139 0
-566 -140 0
-566 -141 -77 0
-566 141 77 0
-566 -142 -78 0
-566 142 78 0
-566 -143 -79 0
-566 143 79 0
-566 -144 -80 0
-566 144 80 0
-566 -145 0
-566 -146 0
-566 -147 0
-566 -148 0
-566 -149 -85 0
-566 149 85 0
-566 -150 -86 0
-566 150 86 0
-566 -151 -87 0
-566 151 87 0
-566 -152 -88 0
-566 152 88 0
-566 -153 0
-566 -154 0
-566 -155 0
-566 -156 0
-566 -157 -93 0
-566 157 93 0
-566 -158 -94 0
-566 158 94 0
-566 -159 -95 0
-566 159 95 0
-566 -160 -96 0
-566 160 96 0
-567 -129 65 0
-567 129 -65 0
-567 -130 66 0
-567 130 -66 0
-567 -131 67 0
-567 131 -67 0
-567 -132 68 0
-567 132 -68 0
-567 -133 0
-567 -134 0
-567 -135 0
-567 -136 0
-567 -137 73 0
-567 137 -73 0
-567 -138 74 0
-567 138 -74 0
-567 -139 75 0
-567 139 -75 0
-567 -140 76 0
-567 140 -76 0
-567 -141 0
-567 -142 0
-567 -143 0
-567 -144 0
-567 -145 81 0
-567 145 -81 0
-567 -146 82 0
-567 146 -82 0
-567 -147 83 0
-567 147 -83 0
-567 -148 84 0
-567 148 -84 0
-567 -149 0
-567 -150 0
-567 -151 0
-567 -152 0
-567 -153 89 0
-567 153 -89 0
-567 -154 90 0
-567 154 -90 0
-567 -155 91 0
-567 155 -91 0
-567 -156 92 0
-567 156 -92 0
-567 -157 0
-567 -158 0
-567 -159 0
-567 -160 0
-568 -129 -65 0
-568 129 65 0
-568 -130 -66 0
-568 130 66 0
-568 -131 -67 0
-568 131 67 0
-568 -132 -68 0
-568 132 68 0
-568 -133 0
-568 -134 0
-568 -135 0
-568 -136 0
-568 -137 -73 0
-568 137 73 0
-568 -138 -74 0
-568 138 74 0
-568 -139 -75 0
-568 139 75 0
-568 -140 -76 0
-568 140 76 0
-568 -141 0
-568 -142 0
-568 -143 0
-568 -144 0
-568 -145 -81 0
-568 145 81 0
-568 -146 -82 0
-568 146 82 0
-568 -147 -83 0
-568 147 83 0
-568 -148 -84 0
-568 148 84 0
-568 -149 0
-568 -150 0
-568 -151 0
-568 -152 0
-568 -153 -89 0
-568 153 89 0
-568 -154 -90 0
-568 154 90 0
-568 -155 -91 0
-568 155 91 0
-568 -156 -92 0
-568 156 92 0
-568 -157 0
-568 -158 0
-568 -159 0
-568 -160 0
-569 -129 0
-569 -130 0
-569 -131 0
-569 -132 0
-569 -133 101 0
-569 133 -101 0
-569 -134 102 0
-569 134 -102 0
-569 -135 103 0
-569 135 -103 0
-569 -136 104 0
-569 136 -104 0
-569 -137 0
-569 -138 0
-569 -139 0
-569 -140 0
-569 -141 109 0
-569 141 -109 0
-569 -142 110 0
-569 142 -110 0
-569 -143 111 0
-569 143 -111 0
-569 -144 112 0
-569 144 -112 0
-569 -145 0
-569 -146 0
-569 -147 0
-569 -148 0
-569 -149 117 0
-569 149 -117 0
-569 -150 118 0
-569 150 -118 0
-569 -151 119 0
-569 151 -119 0
-569 -152 120 0
-569 152 -120 0
-569 -153 0
-569 -154 0
-569 -155 0
-569 -156 0
-569 -157 125 0
-569 157 -125 0
-569 -158 126 0
-569 158 -126 0
-569 -159 127 0
-569 159 -127 0
-569 -160 128 0
-569 160 -128 0
-570 -129 0
-570 -130 0
-570 -131 0
-570 -132 0
-570 -133 -101 0
-570 133 101 0
-570 -134 -102 0
-570 134 102 0
-570 -135 -103 0
-570 135 103 0
-570 -136 -104 0
-570 136 104 0
-570 -137 0
-570 -138 0
-570 -139 0
-570 -140 0
-570 -141 -109 0
-570 141 109 0
-570 -142 -110 0
-570 142 110 0
-570 -143 -111 0
-570 143 111 0
-570 -144 -112 0
-570 144 112 0
-570 -145 0
-570 -146 0
-570 -147 0
-570 -148 0
-570 -149 -117 0
-570 149 117 0
-570 -150 -118 0
-570 150 118 0
-570 -151 -119 0
-570 151 119 0
-570 -152 -120 0
-570 152 120 0
-570 -153 0
-570 -154 0
-570 -155 0
-570 -156 0
-570 -157 -125 0
-570 157 125 0
-570 -158 -126 0
-570 158 126 0
-570 -159 -127 0
-570 159 127 0
-570 -160 -128 0
-570 160 128 0
-571 -129 97 0
-571 129 -97 0
-571 -130 98 0
-571 130 -98 0
-571 -131 99 0
-571 131 -99 0
-571 -132 100 0
-571 132 -100 0
-571 -133 0
-571 -134 0
-571 -135 0
-571 -136 0
-571 -137 105 0
-571 137 -105 0
-571 -138 106 0
-571 138 -106 0
-571 -139 107 0
-571 139 -107 0
-571 -140 108 0
-571 140 -108 0
-571 -141 0
-571 -142 0
-571 -143 0
-571 -144 0
-571 -145 113 0
-571 145 -113 0
-571 -146 114 0
-571 146 -114 0
-571 -147 115 0
-571 147 -115 0
-571 -148 116 0
-571 148 -116 0
-571 -149 0
-571 -150 0
-571 -151 0
-571 -152 0
-571 -153 121 0
-571 153 -121 0
-571 -154 122 0
-571 154 -122 0
-571 -155 123 0
-571 155 -123 0
-571 -156 124 0
-571 156 -124 0
-571 -157 0
-571 -158 0
-571 -159 0
-571 -160 0
-572 -129 -97 0
-572 129 97 0
-572 -130 -98 0
-572 130 98 0
-572 -131 -99 0
-572 131 99 0
-572 -132 -100 0
-572 132 100 0
-572 -133 0
-572 -134 0
-572 -135 0
-572 -136 0
-572 -137 -105 0
-572 137 105 0
-572 -138 -106 0
-572 138 106 0
-572 -139 -107 0
-572 139 107 0
-572 -140 -108 0
-572 140 108 0
-572 -141 0
-572 -142 0
-572 -143 0
-572 -144 0
-572 -145 -113 0
-572 145 113 0
-572 -146 -114 0
-572 146 114 0
-572 -147 -115 0
-572 147 115 0
-572 -148 -116 0
-572 148 116 0
-572 -149 0
-572 -150 0
-572 -151 0
-572 -152 0
-572 -153 -121 0
-572 153 121 0
-572 -154 -122 0
-572 154 122 0
-572 -155 -123 0
-572 155 123 0
-572 -156 -124 0
-572 156 124 0
-572 -157 0
-572 -158 0
-572 -159 0
-572 -160 0
-573 -129 0
-573 -130 0
-573 -131 0
-573 -132 0
-573 -133 0
-573 -134 0
-573 -135 0
-573 -136 0
-573 -137 0
-573 -138 0
-573 -139 0
-573 -140 0
-573 -141 0
-573 -142 0
-573 -143 0
-573 -144 0
-573 -145 0
-573 -146 0
-573 -147 0
-573 -148 0
-573 -149 0
-573 -150 0
-573 -151 0
-573 -152 0
-573 153 0
-573 154 0
-573 155 0
-573 156 0
-573 157 0
-573 158 0
-573 159 0
-573 160 0
-574 -129 0
-574 -130 0
-574 -131 0
-574 -132 0
-574 -133 0
-574 -134 0
-574 -135 0
-574 -136 0
-574 137 0
-574 138 0
-574 139 0
-574 140 0
-574 141 0
-574 142 0
-574 143 0
-574 144 0
-574 -145 0
-574 -146 0
-574 -147 0
-574 -148 0
-574 -149 0
-574 -150 0
-574 -151 0
-574 -152 0
-574 -153 0
-574 -154 0
-574 -155 0
-574 -156 0
-574 -157 0
-574 -158 0
-574 -159 0
-574 -160 0
-575 -129 0
-575 -130 0
-575 -131 0
-575 -132 0
-575 -133 0
-575 -134 0
-575 -135 0
-575 -136 0
-575 -137 0
-575 -138 0
-575 -139 0
-575 -140 0
-575 -141 0
-575 -142 0
-575 -143 0
-575 -144 0
-575 145 0
-575 146 0
-575 147 0
-575 148 0
-575 149 0
-575 150 0
-575 151 0
-575 152 0
-575 -153 0
-575 -154 0
-575 -155 0
-575 -156 0
-575 -157 0
-575 -158 0
-575 -159 0
-575 -160 0
-576 129 0
-576 130 0
-576 131 0
-576 132 0
-576 133 0
-576 134 0
-576 135 0
-576 136 0
-576 -137 0
-576 -138 0
-576 -139 0
-576 -140 0
-576 -141 0
-576 -142 0
-576 -143 0
-576 -144 0
-576 -145 0
-576 -146 0
-576 -147 0
-576 -148 0
-576 -149 0
-576 -150 0
-576 -151 0
-576 -152 0
-576 -153 0
-576 -154 0
-576 -155 0
-576 -156 0
-576 -157 0
-576 -158 0
-576 -159 0
-576 -160 0
-577 -129 0
-577 -130 0
-577 -131 0
-577 -132 0
-577 -133 0
-577 -134 0
-577 -135 0
-577 -136 0
-577 -137 9 0
-577 137 -9 0
-577 -138 10 0
-577 138 -10 0
-577 -139 11 0
-577 139 -11 0
-577 -140 12 0
-577 140 -12 0
-577 -141 13 0
-577 141 -13 0
-577 -142 14 0
-577 142 -14 0
-577 -143 15 0
-577 143 -15 0
-577 -144 16 0
-577 144 -16 0
-577 -145 0
-577 -146 0
-577 -147 0
-577 -148 0
-577 -149 0
-577 -150 0
-577 -151 0
-577 -152 0
-577 -153 25 0
-577 153 -25 0
-577 -154 26 0
-577 154 -26 0
-577 -155 27 0
-577 155 -27 0
-577 -156 28 0
-577 156 -28 0
-577 -157 29 0
-577 157 -29 0
-577 -158 30 0
-577 158 -30 0
-577 -159 31 0
-577 159 -31 0
-577 -160 32 0
-577 160 -32 0
-578 -129 0
-578 -130 0
-578 -131 0
-578 -132 0
-578 -133 0
-578 -134 0
-578 -135 0
-578 -136 0
-578 -137 -9 0
-578 137 9 0
-578 -138 -10 0
-578 138 10 0
-578 -139 -11 0
-578 139 11 0
-578 -140 -12 0
-578 140 12 0
-578 -141 -13 0
-578 141 13 0
-578 -142 -14 0
-578 142 14 0
-578 -143 -15 0
-578 143 15 0
-578 -144 -16 0
-578 144 16 0
-578 -145 0
-578 -146 0
-578 -147 0
-578 -148 0
-578 -149 0
-578 -150 0
-578 -151 0
-578 -152 0
-578 -153 -25 0
-578 153 25 0
-578 -154 -26 0
-578 154 26 0
-578 -155 -27 0
-578 155 27 0
-578 -156 -28 0
-578 156 28 0
-578 -157 -29 0
-578 157 29 0
-578 -158 -30 0
-578 158 30 0
-578 -159 -31 0
-578 159 31 0
-578 -160 -32 0
-578 160 32 0
-579 -129 1 0
-579 129 -1 0
-579 -130 2 0
-579 130 -2 0
-579 -131 3 0
-579 131 -3 0
-579 -132 4 0
-579 132 -4 0
-579 -133 5 0
-579 133 -5 0
-579 -134 6 0
-579 134 -6 0
-579 -135 7 0
-579 135 -7 0
-579 -136 8 0
-579 136 -8 0
-579 -137 0
-579 -138 0
-579 -139 0
-579 -140 0
-579 -141 0
-579 -142 0
-579 -143 0
-579 -144 0
-579 -145 17 0
-579 145 -17 0
-579 -146 18 0
-579 146 -18 0
-579 -147 19 0
-579 147 -19 0
-579 -148 20 0
-579 148 -20 0
-579 -149 21 0
-579 149 -21 0
-579 -150 22 0
-579 150 -22 0
-579 -151 23 0
-579 151 -23 0
-579 -152 24 0
-579 152 -24 0
-579 -153 0
-579 -154 0
-579 -155 0
-579 -156 0
-579 -157 0
-579 -158 0
-579 -159 0
-579 -160 0
-580 -129 -1 0
-580 129 1 0
-580 -130 -2 0
-580 130 2 0
-580 -131 -3 0
-580 131 3 0
-580 -132 -4 0
-580 132 4 0
-580 -133 -5 0
-580 133 5 0
-580 -134 -6 0
-580 134 6 0
-580 -135 -7 0
-580 135 7 0
-580 -136 -8 0
-580 136 8 0
-580 -137 0
-580 -138 0
-580 -139 0
-580 -140 0
-580 -141 0
-580 -142 0
-580 -143 0
-580 -144 0
-580 -145 -17 0
-580 145 17 0
-580 -146 -18 0
-580 146 18 0
-580 -147 -19 0
-580 147 19 0
-580 -148 -20 0
-580 148 20 0
-580 -149 -21 0
-580 149 21 0
-580 -150 -22 0
-580 150 22 0
-580 -151 -23 0
-580 151 23 0
-580 -152 -24 0
-580 152 24 0
-580 -153 0
-580 -154 0
-580 -155 0
-580 -156 0
-580 -157 0
-580 -158 0
-580 -159 0
-580 -160 0
-581 -129 0
-581 -130 0
-581 -131 0
-581 -132 0
-581 -133 0
-581 -134 0
-581 -135 0
-581 -136 0
-581 -137 41 0
-581 137 -41 0
-581 -138 42 0
-581 138 -42 0
-581 -139 43 0
-581 139 -43 0
-581 -140 44 0
-581 140 -44 0
-581 -141 45 0
-581 141 -45 0
-581 -142 46 0
-581 142 -46 0
-581 -143 47 0
-581 143 -47 0
-581 -144 48 0
-581 144 -48 0
-581 -145 0
-581 -146 0
-581 -147 0
-581 -148 0
-581 -149 0
-581 -150 0
-581 -151 0
-581 -152 0
-581 -153 57 0
-581 153 -57 0
-581 -154 58 0
-581 154 -58 0
-581 -155 59 0
-581 155 -59 0
-581 -156 60 0
-581 156 -60 0
-581 -157 61 0
-581 157 -61 0
-581 -158 62 0
-581 158 -62 0
-581 -159 63 0
-581 159 -63 0
-581 -160 64 0
-581 160 -64 0
-582 -129 0
-582 -130 0
-582 -131 0
-582 -132 0
-582 -133 0
-582 -134 0
-582 -135 0
-582 -136 0
-582 -137 -41 0
-582 137 41 0
-582 -138 -42 0
-582 138 42 0
-582 -139 -43 0
-582 139 43 0
-582 -140 -44 0
-582 140 44 0
-582 -141 -45 0
-582 141 45 0
-582 -142 -46 0
-582 142 46 0
-582 -143 -47 0
-582 143 47 0
-582 -144 -48 0
-582 144 48 0
-582 -145 0
-582 -146 0
-582 -147 0
-582 -148 0
-582 -149 0
-582 -150 0
-582 -151 0
-582 -152 0
-582 -153 -57 0
-582 153 57 0
-582 -154 -58 0
-582 154 58 0
-582 -155 -59 0
-582 155 59 0
-582 -156 -60 0
-582 156 60 0
-582 -157 -61 0
-582 157 61 0
-582 -158 -62 0
-582 158 62 0
-582 -159 -63 0
-582 159 63 0
-582 -160 -64 0
-582 160 64 0
-583 -129 33 0
-583 129 -33 0
-583 -130 34 0
-583 130 -34 0
-583 -131 35 0
-583 131 -35 0
-583 -132 36 0
-583 132 -36 0
-583 -133 37 0
-583 133 -37 0
-583 -134 38 0
-583 134 -38 0
-583 -135 39 0
-583 135 -39 0
-583 -136 40 0
-583 136 -40 0
-583 -137 0
-583 -138 0
-583 -139 0
-583 -140 0
-583 -141 0
-583 -142 0
-583 -143 0
-583 -144 0
-583 -145 49 0
-583 145 -49 0
-583 -146 50 0
-583 146 -50 0
-583 -147 51 0
-583 147 -51 0
-583 -148 52 0
-583 148 -52 0
-583 -149 53 0
-583 149 -53 0
-583 -150 54 0
-583 150 -54 0
-583 -151 55 0
-583 151 -55 0
-583 -152 56 0
-583 152 -56 0
-583 -153 0
-583 -154 0
-583 -155 0
-583 -156 0
-583 -157 0
-583 -158 0
-583 -159 0
-583 -160 0
-584 -129 -33 0
-584 129 33 0
-584 -130 -34 0
-584 130 34 0
-584 -131 -35 0
-584 131 35 0
-584 -132 -36 0
-584 132 36 0
-584 -133 -37 0
-584 133 37 0
-584 -134 -38 0
-584 134 38 0
-584 -135 -39 0
-584 135 39 0
-584 -136 -40 0
-584 136 40 0
-584 -137 0
-584 -138 0
-584 -139 0
-584 -140 0
-584 -141 0
-584 -142 0
-584 -143 0
-584 -144 0
-584 -145 -49 0
-584 145 49 0
-584 -146 -50 0
-584 146 50 0
-584 -147 -51 0
-584 147 51 0
-584 -148 -52 0
-584 148 52 0
-584 -149 -53 0
-584 149 53 0
-584 -150 -54 0
-584 150 54 0
-584 -151 -55 0
-584 151 55 0
-584 -152 -56 0
-584 152 56 0
-584 -153 0
-584 -154 0
-584 -155 0
-584 -156 0
-584 -157 0
-584 -158 0
-584 -159 0
-584 -160 0
-585 -129 0
-585 -130 0
-585 -131 0
-585 -132 0
-585 -133 0
-585 -134 0
-585 -135 0
-585 -136 0
-585 -137 73 0
-585 137 -73 0
-585 -138 74 0
-585 138 -74 0
-585 -139 75 0
-585 139 -75 0
-585 -140 76 0
-585 140 -76 0
-585 -141 77 0
-585 141 -77 0
-585 -142 78 0
-585 142 -78 0
-585 -143 79 0
-585 143 -79 0
-585 -144 80 0
-585 144 -80 0
-585 -145 0
-585 -146 0
-585 -147 0
-585 -148 0
-585 -149 0
-585 -150 0
-585 -151 0
-585 -152 0
-585 -153 89 0
-585 153 -89 0
-585 -154 90 0
-585 154 -90 0
-585 -155 91 0
-585 155 -91 0
-585 -156 92 0
-585 156 -92 0
-585 -157 93 0
-585 157 -93 0
-585 -158 94 0
-585 158 -94 0
-585 -159 95 0
-585 159 -95 0
-585 -160 96 0
-585 160 -96 0
-586 -129 0
-586 -130 0
-586 -131 0
-586 -132 0
-586 -133 0
-586 -134 0
-586 -135 0
-586 -136 0
-586 -137 -73 0
-586 137 73 0
-586 -138 -74 0
-586 138 74 0
-586 -139 -75 0
-586 139 75 0
-586 -140 -76 0
-586 140 76 0
-586 -141 -77 0
-586 141 77 0
-586 -142 -78 0
-586 142 78 0
-586 -143 -79 0
-586 143 79 0
-586 -144 -80 0
-586 144 80 0
-586 -145 0
-586 -146 0
-586 -147 0
-586 -148 0
-586 -149 0
-586 -150 0
-586 -151 0
-586 -152 0
-586 -153 -89 0
-586 153 89 0
-586 -154 -90 0
-586 154 90 0
-586 -155 -91 0
-586 155 91 0
-586 -156 -92 0
-586 156 92 0
-586 -157 -93 0
-586 157 93 0
-586 -158 -94 0
-586 158 94 0
-586 -159 -95 0
-586 159 95 0
-586 -160 -96 0
-586 160 96 0
-587 -129 65 0
-587 129 -65 0
-587 -130 66 0
-587 130 -66 0
-587 -131 67 0
-587 131 -67 0
-587 -132 68 0
-587 132 -68 0
-587 -133 69 0
-587 133 -69 0
-587 -134 70 0
-587 134 -70 0
-587 -135 71 0
-587 135 -71 0
-587 -136 72 0
-587 136 -72 0
-587 -137 0
-587 -138 0
-587 -139 0
-587 -140 0
-587 -141 0
-587 -142 0
-587 -143 0
-587 -144 0
-587 -145 81 0
-587 145 -81 0
-587 -146 82 0
-587 146 -82 0
-587 -147 83 0
-587 147 -83 0
-587 -148 84 0
-587 148 -84 0
-587 -149 85 0
-587 149 -85 0
-587 -150 86 0
-587 150 -86 0
-587 -151 87 0
-587 151 -87 0
-587 -152 88 0
-587 152 -88 0
-587 -153 0
-587 -154 0
-587 -155 0
-587 -156 0
-587 -157 0
-587 -158 0
-587 -159 0
-587 -160 0
-588 -129 -65 0
-588 129 65 0
-588 -130 -66 0
-588 130 66 0
-588 -131 -67 0
-588 131 67 0
-588 -132 -68 0
-588 132 68 0
-588 -133 -69 0
-588 133 69 0
-588 -134 -70 0
-588 134 70 0
-588 -135 -71 0
-588 135 71 0
-588 -136 -72 0
-588 136 72 0
-588 -137 0
-588 -138 0
-588 -139 0
-588 -140 0
-588 -141 0
-588 -142 0
-588 -143 0
-588 -144 0
-588 -145 -81 0
-588 145 81 0
-588 -146 -82 0
-588 146 82 0
-588 -147 -83 0
-588 147 83 0
-588 -148 -84 0
-588 148 84 0
-588 -149 -85 0
-588 149 85 0
-588 -150 -86 0
-588 150 86 0
-588 -151 -87 0
-588 151 87 0
-588 -152 -88 0
-588 152 88 0
-588 -153 0
-588 -154 0
-588 -155 0
-588 -156 0
-588 -157 0
-588 -158 0
-588 -159 0
-588 -160 0
-589 -129 0
-589 -130 0
-589 -131 0
-589 -132 0
-589 -133 0
-589 -134 0
-589 -135 0
-589 -136 0
-589 -137 105 0
-589 137 -105 0
-589 -138 106 0
-589 138 -106 0
-589 -139 107 0
-589 139 -107 0
-589 -140 108 0
-589 140 -108 0
-589 -141 109 0
-589 141 -109 0
-589 -142 110 0
-589 142 -110 0
-589 -143 111 0
-589 143 -111 0
-589 -144 112 0
-589 144 -112 0
-589 -145 0
-589 -146 0
-589 -147 0
-589 -148 0
-589 -149 0
-589 -150 0
-589 -151 0
-589 -152 0
-589 -153 121 0
-589 153 -121 0
-589 -154 122 0
-589 154 -122 0
-589 -155 123 0
-589 155 -123 0
-589 -156 124 0
-589 156 -124 0
-589 -157 125 0
-589 157 -125 0
-589 -158 126 0
-589 158 -126 0
-589 -159 127 0
-589 159 -127 0
-589 -160 128 0
-589 160 -128 0
-590 -129 0
-590 -130 0
-590 -131 0
-590 -132 0
-590 -133 0
-590 -134 0
-590 -135 0
-590 -136 0
-590 -137 -105 0
-590 137 105 0
-590 -138 -106 0
-590 138 106 0
-590 -139 -107 0
-590 139 107 0
-590 -140 -108 0
-590 140 108 0
-590 -141 -109 0
-590 141 109 0
-590 -142 -110 0
-590 142 110 0
-590 -143 -111 0
-590 143 111 0
-590 -144 -112 0
-590 144 112 0
-590 -145 0
-590 -146 0
-590 -147 0
-590 -148 0
-590 -149 0
-590 -150 0
-590 -151 0
-590 -152 0
-590 -153 -121 0
-590 153 121 0
-590 -154 -122 0
-590 154 122 0
-590 -155 -123 0
-590 155 123 0
-590 -156 -124 0
-590 156 124 0
-590 -157 -125 0
-590 157 125 0
-590 -158 -126 0
-590 158 126 0
-590 -159 -127 0
-590 159 127 0
-590 -160 -128 0
-590 160 128 0
-591 -129 97 0
-591 129 -97 0
-591 -130 98 0
-591 130 -98 0
-591 -131 99 0
-591 131 -99 0
-591 -132 100 0
-591 132 -100 0
-591 -133 101 0
-591 133 -101 0
-591 -134 102 0
-591 134 -102 0
-591 -135 103 0
-591 135 -103 0
-591 -136 104 0
-591 136 -104 0
-591 -137 0
-591 -138 0
-591 -139 0
-591 -140 0
-591 -141 0
-591 -142 0
-591 -143 0
-591 -144 0
-591 -145 113 0
-591 145 -113 0
-591 -146 114 0
-591 146 -114 0
-591 -147 115 0
-591 147 -115 0
-591 -148 116 0
-591 148 -116 0
-591 -149 117 0
-591 149 -117 0
-591 -150 118 0
-591 150 -118 0
-591 -151 119 0
-591 151 -119 0
-591 -152 120 0
-591 152 -120 0
-591 -153 0
-591 -154 0
-591 -155 0
-591 -156 0
-591 -157 0
-591 -158 0
-591 -159 0
-591 -160 0
-592 -129 -97 0
-592 129 97 0
-592 -130 -98 0
-592 130 98 0
-592 -131 -99 0
-592 131 99 0
-592 -132 -100 0
-592 132 100 0
-592 -133 -101 0
-592 133 101 0
-592 -134 -102 0
-592 134 102 0
-592 -135 -103 0
-592 135 103 0
-592 -136 -104 0
-592 136 104 0
-592 -137 0
-592 -138 0
-592 -139 0
-592 -140 0
-592 -141 0
-592 -142 0
-592 -143 0
-592 -144 0
-592 -145 -113 0
-592 145 113 0
-592 -146 -114 0
-592 146 114 0
-592 -147 -115 0
-592 147 115 0
-592 -148 -116 0
-592 148 116 0
-592 -149 -117 0
-592 149 117 0
-592 -150 -118 0
-592 150 118 0
-592 -151 -119 0
-592 151 119 0
-592 -152 -120 0
-592 152 120 0
-592 -153 0
-592 -154 0
-592 -155 0
-592 -156 0
-592 -157 0
-592 -158 0
-592 -159 0
-592 -160 0
-593 -129 0
-593 -130 0
-593 -131 0
-593 -132 0
-593 -133 0
-593 -134 0
-593 -135 0
-593 -136 0
-593 -137 0
-593 -138 0
-593 -139 0
-593 -140 0
-593 -141 0
-593 -142 0
-593 -143 0
-593 -144 0
-593 -145 17 0
-593 145 -17 0
-593 -146 18 0
-593 146 -18 0
-593 -147 19 0
-593 147 -19 0
-593 -148 20 0
-593 148 -20 0
-593 -149 21 0
-593 149 -21 0
-593 -150 22 0
-593 150 -22 0
-593 -151 23 0
-593 151 -23 0
-593 -152 24 0
-593 152 -24 0
-593 -153 25 0
-593 153 -25 0
-593 -154 26 0
-593 154 -26 0
-593 -155 27 0
-593 155 -27 0
-593 -156 28 0
-593 156 -28 0
-593 -157 29 0
-593 157 -29 0
-593 -158 30 0
-593 158 -30 0
-593 -159 31 0
-593 159 -31 0
-593 -160 32 0
-593 160 -32 0
-594 -129 0
-594 -130 0
-594 -131 0
-594 -132 0
-594 -133 0
-594 -134 0
-594 -135 0
-594 -136 0
-594 -137 0
-594 -138 0
-594 -139 0
-594 -140 0
-594 -141 0
-594 -142 0
-594 -143 0
-594 -144 0
-594 -145 -17 0
-594 145 17 0
-594 -146 -18 0
-594 146 18 0
-594 -147 -19 0
-594 147 19 0
-594 -148 -20 0
-594 148 20 0
-594 -149 -21 0
-594 149 21 0
-594 -150 -22 0
-594 150 22 0
-594 -151 -23 0
-594 151 23 0
-594 -152 -24 0
-594 152 24 0
-594 -153 -25 0
-594 153 25 0
-594 -154 -26 0
-594 154 26 0
-594 -155 -27 0
-594 155 27 0
-594 -156 -28 0
-594 156 28 0
-594 -157 -29 0
-594 157 29 0
-594 -158 -30 0
-594 158 30 0
-594 -159 -31 0
-594 159 31 0
-594 -160 -32 0
-594 160 32 0
-595 -129 1 0
-595 129 -1 0
-595 -130 2 0
-595 130 -2 0
-595 -131 3 0
-595 131 -3 0
-595 -132 4 0
-595 132 -4 0
-595 -133 5 0
-595 133 -5 0
-595 -134 6 0
-595 134 -6 0
-595 -135 7 0
-595 135 -7 0
-595 -136 8 0
-595 136 -8 0
-595 -137 9 0
-595 137 -9 0
-595 -138 10 0
-595 138 -10 0
-595 -139 11 0
-595 139 -11 0
-595 -140 12 0
-595 140 -12 0
-595 -141 13 0
-595 141 -13 0
-595 -142 14 0
-595 142 -14 0
-595 -143 15 0
-595 143 -15 0
-595 -144 16 0
-595 144 -16 0
-595 -145 0
-595 -146 0
-595 -147 0
-595 -148 0
-595 -149 0
-595 -150 0
-595 -151 0
-595 -152 0
-595 -153 0
-595 -154 0
-595 -155 0
-595 -156 0
-595 -157 0
-595 -158 0
-595 -159 0
-595 -160 0
-596 -129 -1 0
-596 129 1 0
-596 -130 -2 0
-596 130 2 0
-596 -131 -3 0
-596 131 3 0
-596 -132 -4 0
-596 132 4 0
-596 -133 -5 0
-596 133 5 0
-596 -134 -6 0
-596 134 6 0
-596 -135 -7 0
-596 135 7 0
-596 -136 -8 0
-596 136 8 0
-596 -137 -9 0
-596 137 9 0
-596 -138 -10 0
-596 138 10 0
-596 -139 -11 0
-596 139 11 0
-596 -140 -12 0
-596 140 12 0
-596 -141 -13 0
-596 141 13 0
-596 -142 -14 0
-596 142 14 0
-596 -143 -15 0
-596 143 15 0
-596 -144 -16 0
-596 144 16 0
-596 -145 0
-596 -146 0
-596 -147 0
-596 -148 0
-596 -149 0
-596 -150 0
-596 -151 0
-596 -152 0
-596 -153 0
-596 -154 0
-596 -155 0
-596 -156 0
-596 -157 0
-596 -158 0
-596 -159 0
-596 -160 0
-597 -129 0
-597 -130 0
-597 -131 0
-597 -132 0
-597 -133 0
-597 -134 0
-597 -135 0
-597 -136 0
-597 -137 0
-597 -138 0
-597 -139 0
-597 -140 0
-597 -141 0
-597 -142 0
-597 -143 0
-597 -144 0
-597 -145 49 0
-597 145 -49 0
-597 -146 50 0
-597 146 -50 0
-597 -147 51 0
-597 147 -51 0
-597 -148 52 0
-597 148 -52 0
-597 -149 53 0
-597 149 -53 0
-597 -150 54 0
-597 150 -54 0
-597 -151 55 0
-597 151 -55 0
-597 -152 56 0
-597 152 -56 0
-597 -153 57 0
-597 153 -57 0
-597 -154 58 0
-597 154 -58 0
-597 -155 59 0
-597 155 -59 0
-597 -156 60 0
-597 156 -60 0
-597 -157 61 0
-597 157 -61 0
-597 -158 62 0
-597 158 -62 0
-597 -159 63 0
-597 159 -63 0
-597 -160 64 0
-597 160 -64 0
-598 -129 0
-598 -130 0
-598 -131 0
-598 -132 0
-598 -133 0
-598 -134 0
-598 -135 0
-598 -136 0
-598 -137 0
-598 -138 0
-598 -139 0
-598 -140 0
-598 -141 0
-598 -142 0
-598 -143 0
-598 -144 0
-598 -145 -49 0
-598 145 49 0
-598 -146 -50 0
-598 146 50 0
-598 -147 -51 0
-598 147 51 0
-598 -148 -52 0
-598 148 52 0
-598 -149 -53 0
-598 149 53 0
-598 -150 -54 0
-598 150 54 0
-598 -151 -55 0
-598 151 55 0
-598 -152 -56 0
-598 152 56 0
-598 -153 -57 0
-598 153 57 0
-598 -154 -58 0
-598 154 58 0
-598 -155 -59 0
-598 155 59 0
-598 -156 -60 0
-598 156 60 0
-598 -157 -61 0
-598 157 61 0
-598 -158 -62 0
-598 158 62 0
-598 -159 -63 0
-598 159 63 0
-598 -160 -64 0
-598 160 64 0
-599 -129 33 0
-599 129 -33 0
-599 -130 34 0
-599 130 -34 0
-599 -131 35 0
-599 131 -35 0
-599 -132 36 0
-599 132 -36 0
-599 -133 37 0
-599 133 -37 0
-599 -134 38 0
-599 134 -38 0
-599 -135 39 0
-599 135 -39 0
-599 -136 40 0
-599 136 -40 0
-599 -137 41 0
-599 137 -41 0
-599 -138 42 0
-599 138 -42 0
-599 -139 43 0
-599 139 -43 0
-599 -140 44 0
-599 140 -44 0
-599 -141 45 0
-599 141 -45 0
-599 -142 46 0
-599 142 -46 0
-599 -143 47 0
-599 143 -47 0
-599 -144 48 0
-599 144 -48 0
-599 -145 0
-599 -146 0
-599 -147 0
-599 -148 0
-599 -149 0
-599 -150 0
-599 -151 0
-599 -152 0
-599 -153 0
-599 -154 0
-599 -155 0
-599 -156 0
-599 -157 0
-599 -158 0
-599 -159 0
-599 -160 0
-600 -129 -33 0
-600 129 33 0
-600 -130 -34 0
-600 130 34 0
-600 -131 -35 0
-600 131 35 0
-600 -132 -36 0
-600 132 36 0
-600 -133 -37 0
-600 133 37 0
-600 -134 -38 0
-600 134 38 0
-600 -135 -39 0
-600 135 39 0
-600 -136 -40 0
-600 136 40 0
-600 -137 -41 0
-600 137 41 0
-600 -138 -42 0
-600 138 42 0
-600 -139 -43 0
-600 139 43 0
-600 -140 -44 0
-600 140 44 0
-600 -141 -45 0
-600 141 45 0
-600 -142 -46 0
-600 142 46 0
-600 -143 -47 0
-600 143 47 0
-600 -144 -48 0
-600 144 48 0
-600 -145 0
-600 -146 0
-600 -147 0
-600 -148 0
-600 -149 0
-600 -150 0
-600 -151 0
-600 -152 0
-600 -153 0
-600 -154 0
-600 -155 0
-600 -156 0
-600 -157 0
-600 -158 0
-600 -159 0
-600 -160 0
-601 -129 0
-601 -130 0
-601 -131 0
-601 -132 0
-601 -133 0
-601 -134 0
-601 -135 0
-601 -136 0
-601 -137 0
-601 -138 0
-601 -139 0
-601 -140 0
-601 -141 0
-601 -142 0
-601 -143 0
-601 -144 0
-601 -145 81 0
-601 145 -81 0
-601 -146 82 0
-601 146 -82 0
-601 -147 83 0
-601 147 -83 0
-601 -148 84 0
-601 148 -84 0
-601 -149 85 0
-601 149 -85 0
-601 -150 86 0
-601 150 -86 0
-601 -151 87 0
-601 151 -87 0
-601 -152 88 0
-601 152 -88 0
-601 -153 89 0
-601 153 -89 0
-601 -154 90 0
-601 154 -90 0
-601 -155 91 0
-601 155 -91 0
-601 -156 92 0
-601 156 -92 0
-601 -157 93 0
-601 157 -93 0
-601 -158 94 0
-601 158 -94 0
-601 -159 95 0
-601 159 -95 0
-601 -160 96 0
-601 160 -96 0
-602 -129 0
-602 -130 0
-602 -131 0
-602 -132 0
-602 -133 0
-602 -134 0
-602 -135 0
-602 -136 0
-602 -137 0
-602 -138 0
-602 -139 0
-602 -140 0
-602 -141 0
-602 -142 0
-602 -143 0
-602 -144 0
-602 -145 -81 0
-602 145 81 0
-602 -146 -82 0
-602 146 82 0
-602 -147 -83 0
-602 147 83 0
-602 -148 -84 0
-602 148 84 0
-602 -149 -85 0
-602 149 85 0
-602 -150 -86 0
-602 150 86 0
-602 -151 -87 0
-602 151 87 0
-602 -152 -88 0
-602 152 88 0
-602 -153 -89 0
-602 153 89 0
-602 -154 -90 0
-602 154 90 0
-602 -155 -91 0
-602 155 91 0
-602 -156 -92 0
-602 156 92 0
-602 -157 -93 0
-602 157 93 0
-602 -158 -94 0
-602 158 94 0
-602 -159 -95 0
-602 159 95 0
-602 -160 -96 0
-602 160 96 0
-603 -129 65 0
-603 129 -65 0
-603 -130 66 0
-603 130 -66 0
-603 -131 67 0
-603 131 -67 0
-603 -132 68 0
-603 132 -68 0
-603 -133 69 0
-603 133 -69 0
-603 -134 70 0
-603 134 -70 0
-603 -135 71 0
-603 135 -71 0
-603 -136 72 0
-603 136 -72 0
-603 -137 73 0
-603 137 -73 0
-603 -138 74 0
-603 138 -74 0
-603 -139 75 0
-603 139 -75 0
-603 -140 76 0
-603 140 -76 0
-603 -141 77 0
-603 141 -77 0
-603 -142 78 0
-603 142 -78 0
-603 -143 79 0
-603 143 -79 0
-603 -144 80 0
-603 144 -80 0
-603 -145 0
-603 -146 0
-603 -147 0
-603 -148 0
-603 -149 0
-603 -150 0
-603 -151 0
-603 -152 0
-603 -153 0
-603 -154 0
-603 -155 0
-603 -156 0
-603 -157 0
-603 -158 0
-603 -159 0
-603 -160 0
-604 -129 -65 0
-604 129 65 0
-604 -130 -66 0
-604 130 66 0
-604 -131 -67 0
-604 131 67 0
-604 -132 -68 0
-604 132 68 0
-604 -133 -69 0
-604 133 69 0
-604 -134 -70 0
-604 134 70 0
-604 -135 -71 0
-604 135 71 0
-604 -136 -72 0
-604 136 72 0
-604 -137 -73 0
-604 137 73 0
-604 -138 -74 0
-604 138 74 0
-604 -139 -75 0
-604 139 75 0
-604 -140 -76 0
-604 140 76 0
-604 -141 -77 0
-604 141 77 0
-604 -142 -78 0
-604 142 78 0
-604 -143 -79 0
-604 143 79 0
-604 -144 -80 0
-604 144 80 0
-604 -145 0
-604 -146 0
-604 -147 0
-604 -148 0
-604 -149 0
-604 -150 0
-604 -151 0
-604 -152 0
-604 -153 0
-604 -154 0
-604 -155 0
-604 -156 0
-604 -157 0
-604 -158 0
-604 -159 0
-604 -160 0
-605 -129 0
-605 -130 0
-605 -131 0
-605 -132 0
-605 -133 0
-605 -134 0
-605 -135 0
-605 -136 0
-605 -137 0
-605 -138 0
-605 -139 0
-605 -140 0
-605 -141 0
-605 -142 0
-605 -143 0
-605 -144 0
-605 -145 113 0
-605 145 -113 0
-605 -146 114 0
-605 146 -114 0
-605 -147 115 0
-605 147 -115 0
-605 -148 116 0
-605 148 -116 0
-605 -149 117 0
-605 149 -117 0
-605 -150 118 0
-605 150 -118 0
-605 -151 119 0
-605 151 -119 0
-605 -152 120 0
-605 152 -120 0
-605 -153 121 0
-605 153 -121 0
-605 -154 122 0
-605 154 -122 0
-605 -155 123 0
-605 155 -123 0
-605 -156 124 0
-605 156 -124 0
-605 -157 125 0
-605 157 -125 0
-605 -158 126 0
-605 158 -126 0
-605 -159 127 0
-605 159 -127 0
-605 -160 128 0
-605 160 -128 0
-606 -129 0
-606 -130 0
-606 -131 0
-606 -132 0
-606 -133 0
-606 -134 0
-606 -135 0
-606 -136 0
-606 -137 0
-606 -138 0
-606 -139 0
-606 -140 0
-606 -141 0
-606 -142 0
-606 -143 0
-606 -144 0
-606 -145 -113 0
-606 145 113 0
-606 -146 -114 0
-606 146 114 0
-606 -147 -115 0
-606 147 115 0
-606 -148 -116 0
-606 148 116 0
-606 -149 -117 0
-606 149 117 0
-606 -150 -118 0
-606 150 118 0
-606 -151 -119 0
-606 151 119 0
-606 -152 -120 0
-606 152 120 0
-606 -153 -121 0
-606 153 121 0
-606 -154 -122 0
-606 154 122 0
-606 -155 -123 0
-606 155 123 0
-606 -156 -124 0
-606 156 124 0
-606 -157 -125 0
-606 157 125 0
-606 -158 -126 0
-606 158 126 0
-606 -159 -127 0
-606 159 127 0
-606 -160 -128 0
-606 160 128 0
-607 -129 97 0
-607 129 -97 0
-607 -130 98 0
-607 130 -98 0
-607 -131 99 0
-607 131 -99 0
-607 -132 100 0
-607 132 -100 0
-607 -133 101 0
-607 133 -101 0
-607 -134 102 0
-607 134 -102 0
-607 -135 103 0
-607 135 -103 0
-607 -136 104 0
-607 136 -104 0
-607 -137 105 0
-607 137 -105 0
-607 -138 106 0
-607 138 -106 0
-607 -139 107 0
-607 139 -107 0
-607 -140 108 0
-607 140 -108 0
-607 -141 109 0
-607 141 -109 0
-607 -142 110 0
-607 142 -110 0
-607 -143 111 0
-607 143 -111 0
-607 -144 112 0
-607 144 -112 0
-607 -145 0
-607 -146 0
-607 -147 0
-607 -148 0
-607 -149 0
-607 -150 0
-607 -151 0
-607 -152 0
-607 -153 0
-607 -154 0
-607 -155 0
-607 -156 0
-607 -157 0
-607 -158 0
-607 -159 0
-607 -160 0
-608 -129 -97 0
-608 129 97 0
-608 -130 -98 0
-608 130 98 0
-608 -131 -99 0
-608 131 99 0
-608 -132 -100 0
-608 132 100 0
-608 -133 -101 0
-608 133 101 0
-608 -134 -102 0
-608 134 102 0
-608 -135 -103 0
-608 135 103 0
-608 -136 -104 0
-608 136 104 0
-608 -137 -105 0
-608 137 105 0
-608 -138 -106 0
-608 138 106 0
-608 -139 -107 0
-608 139 107 0
-608 -140 -108 0
-608 140 108 0
-608 -141 -109 0
-608 141 109 0
-608 -142 -110 0
-608 142 110 0
-608 -143 -111 0
-608 143 111 0
-608 -144 -112 0
-608 144 112 0
-608 -145 0
-608 -146 0
-608 -147 0
-608 -148 0
-608 -149 0
-608 -150 0
-608 -151 0
-608 -152 0
-608 -153 0
-608 -154 0
-608 -155 0
-608 -156 0
-608 -157 0
-608 -158 0
-608 -159 0
-608 -160 0
-609 -129 1 0
-609 -129 33 0
-609 129 -1 -33 0
-609 -130 2 0
-609 -130 34 0
-609 130 -2 -34 0
-609 -131 3 0
-609 -131 35 0
-609 131 -3 -35 0
-609 -132 4 0
-609 -132 36 0
-609 132 -4 -36 0
-609 -133 5 0
-609 -133 37 0
-609 133 -5 -37 0
-609 -134 6 0
-609 -134 38 0
-609 134 -6 -38 0
-609 -135 7 0
-609 -135 39 0
-609 135 -7 -39 0
-609 -136 8 0
-609 -136 40 0
-609 136 -8 -40 0
-609 -137 9 0
-609 -137 41 0
-609 137 -9 -41 0
-609 -138 10 0
-609 -138 42 0
-609 138 -10 -42 0
-609 -139 11 0
-609 -139 43 0
-609 139 -11 -43 0
-609 -140 12 0
-609 -140 44 0
-609 140 -12 -44 0
-609 -141 13 0
-609 -141 45 0
-609 141 -13 -45 0
-609 -142 14 0
-609 -142 46 0
-609 142 -14 -46 0
-609 -143 15 0
-609 -143 47 0
-609 143 -15 -47 0
-609 -144 16 0
-609 -144 48 0
-609 144 -16 -48 0
-609 -145 17 0
-609 -145 49 0
-609 145 -17 -49 0
-609 -146 18 0
-609 -146 50 0
-609 146 -18 -50 0
-609 -147 19 0
-609 -147 51 0
-609 147 -19 -51 0
-609 -148 20 0
-609 -148 52 0
-609 148 -20 -52 0
-609 -149 21 0
-609 -149 53 0
-609 149 -21 -53 0
-609 -150 22 0
-609 -150 54 0
-609 150 -22 -54 0
-609 -151 23 0
-609 -151 55 0
-609 151 -23 -55 0
-609 -152 24 0
-609 -152 56 0
-609 152 -24 -56 0
-609 -153 25 0
-609 -153 57 0
-609 153 -25 -57 0
-609 -154 26 0
-609 -154 58 0
-609 154 -26 -58 0
-609 -155 27 0
-609 -155 59 0
-609 155 -27 -59 0
-609 -156 28 0
-609 -156 60 0
-609 156 -28 -60 0
-609 -157 29 0
-609 -157 61 0
-609 157 -29 -61 0
-609 -158 30 0
-609 -158 62 0
-609 158 -30 -62 0
-609 -159 31 0
-609 -159 63 0
-609 159 -31 -63 0
-609 -160 32 0
-609 -160 64 0
-609 160 -32 -64 0
-610 -129 1 0
-610 -129 -33 0
-610 129 -1 33 0
-610 -130 2 0
-610 -130 -34 0
-610 130 -2 34 0
-610 -131 3 0
-610 -131 -35 0
-610 131 -3 35 0
-610 -132 4 0
-610 -132 -36 0
-610 132 -4 36 0
-610 -133 5 0
-610 -133 -37 0
-610 133 -5 37 0
-610 -134 6 0
-610 -134 -38 0
-610 134 -6 38 0
-610 -135 7 0
-610 -135 -39 0
-610 135 -7 39 0
-610 -136 8 0
-610 -136 -40 0
-610 136 -8 40 0
-610 -137 9 0
-610 -137 -41 0
-610 137 -9 41 0
-610 -138 10 0
-610 -138 -42 0
-610 138 -10 42 0
-610 -139 11 0
-610 -139 -43 0
-610 139 -11 43 0
-610 -140 12 0
-610 -140 -44 0
-610 140 -12 44 0
-610 -141 13 0
-610 -141 -45 0
-610 141 -13 45 0
-610 -142 14 0
-610 -142 -46 0
-610 142 -14 46 0
-610 -143 15 0
-610 -143 -47 0
-610 143 -15 47 0
-610 -144 16 0
-610 -144 -48 0
-610 144 -16 48 0
-610 -145 17 0
-610 -145 -49 0
-610 145 -17 49 0
-610 -146 18 0
-610 -146 -50 0
-610 146 -18 50 0
-610 -147 19 0
-610 -147 -51 0
-610 147 -19 51 0
-610 -148 20 0
-610 -148 -52 0
-610 148 -20 52 0
-610 -149 21 0
-610 -149 -53 0
-610 149 -21 53 0
-610 -150 22 0
-610 -150 -54 0
-610 150 -22 54 0
-610 -151 23 0
-610 -151 -55 0
-610 151 -23 55 0
-610 -152 24 0
-610 -152 -56 0
-610 152 -24 56 0
-610 -153 25 0
-610 -153 -57 0
-610 153 -25 57 0
-610 -154 26 0
-610 -154 -58 0
-610 154 -26 58 0
-610 -155 27 0
-610 -155 -59 0
-610 155 -27 59 0
-610 -156 28 0
-610 -156 -60 0
-610 156 -28 60 0
-610 -157 29 0
-610 -157 -61 0
-610 157 -29 61 0
-610 -158 30 0
-610 -158 -62 0
-610 158 -30 62 0
-610 -159 31 0
-610 -159 -63 0
-610 159 -31 63 0
-610 -160 32 0
-610 -160 -64 0
-610 160 -32 64 0
-611 -129 -1 0
-611 -129 33 0
-611 129 1 -33 0
-611 -130 -2 0
-611 -130 34 0
-611 130 2 -34 0
-611 -131 -3 0
-611 -131 35 0
-611 131 3 -35 0
-611 -132 -4 0
-611 -132 36 0
-611 132 4 -36 0
-611 -133 -5 0
-611 -133 37 0
-611 133 5 -37 0
-611 -134 -6 0
-611 -134 38 0
-611 134 6 -38 0
-611 -135 -7 0
-611 -135 39 0
-611 135 7 -39 0
-611 -136 -8 0
-611 -136 40 0
-611 136 8 -40 0
-611 -137 -9 0
-611 -137 41 0
-611 137 9 -41 0
-611 -138 -10 0
-611 -138 42 0
-611 138 10 -42 0
-611 -139 -11 0
-611 -139 43 0
-611 139 11 -43 0
-611 -140 -12 0
-611 -140 44 0
-611 140 12 -44 0
-611 -141 -13 0
-611 -141 45 0
-611 141 13 -45 0
-611 -142 -14 0
-611 -142 46 0
-611 142 14 -46 0
-611 -143 -15 0
-611 -143 47 0
-611 143 15 -47 0
-611 -144 -16 0
-611 -144 48 0
-611 144 16 -48 0
-611 -145 -17 0
-611 -145 49 0
-611 145 17 -49 0
-611 -146 -18 0
-611 -146 50 0
-611 146 18 -50 0
-611 -147 -19 0
-611 -147 51 0
-611 147 19 -51 0
-611 -148 -20 0
-611 -148 52 0
-611 148 20 -52 0
-611 -149 -21 0
-611 -149 53 0
-611 149 21 -53 0
-611 -150 -22 0
-611 -150 54 0
-611 150 22 -54 0
-611 -151 -23 0
-611 -151 55 0
-611 151 23 -55 0
-611 -152 -24 0
-611 -152 56 0
-611 152 24 -56 0
-611 -153 -25 0
-611 -153 57 0
-611 153 25 -57 0
-611 -154 -26 0
-611 -154 58 0
-611 154 26 -58 0
-611 -155 -27 0
-611 -155 59 0
-611 155 27 -59 0
-611 -156 -28 0
-611 -156 60 0
-611 156 28 -60 0
-611 -157 -29 0
-611 -157 61 0
-611 157 29 -61 0
-611 -158 -30 0
-611 -158 62 0
-611 158 30 -62 0
-611 -159 -31 0
-611 -159 63 0
-611 159 31 -63 0
-611 -160 -32 0
-611 -160 64 0
-611 160 32 -64 0
-612 -129 -1 0
-612 -129 -33 0
-612 129 1 33 0
-612 -130 -2 0
-612 -130 -34 0
-612 130 2 34 0
-612 -131 -3 0
-612 -131 -35 0
-612 131 3 35 0
-612 -132 -4 0
-612 -132 -36 0
-612 132 4 36 0
-612 -133 -5 0
-612 -133 -37 0
-612 133 5 37 0
-612 -134 -6 0
-612 -134 -38 0
-612 134 6 38 0
-612 -135 -7 0
-612 -135 -39 0
-612 135 7 39 0
-612 -136 -8 0
-612 -136 -40 0
-612 136 8 40 0
-612 -137 -9 0
-612 -137 -41 0
-612 137 9 41 0
-612 -138 -10 0
-612 -138 -42 0
-612 138 10 42 0
-612 -139 -11 0
-612 -139 -43 0
-612 139 11 43 0
-612 -140 -12 0
-612 -140 -44 0
-612 140 12 44 0
-612 -141 -13 0
-612 -141 -45 0
-612 141 13 45 0
-612 -142 -14 0
-612 -142 -46 0
-612 142 14 46 0
-612 -143 -15 0
-612 -143 -47 0
-612 143 15 47 0
-612 -144 -16 0
-612 -144 -48 0
-612 144 16 48 0
-612 -145 -17 0
-612 -145 -49 0
-612 145 17 49 0
-612 -146 -18 0
-612 -146 -50 0
-612 146 18 50 0
-612 -147 -19 0
-612 -147 -51 0
-612 147 19 51 0
-612 -148 -20 0
-612 -148 -52 0
-612 148 20 52 0
-612 -149 -21 0
-612 -149 -53 0
-612 149 21 53 0
-612 -150 -22 0
-612 -150 -54 0
-612 150 22 54 0
-612 -151 -23 0
-612 -151 -55 0
-612 151 23 55 0
-612 -152 -24 0
-612 -152 -56 0
-612 152 24 56 0
-612 -153 -25 0
-612 -153 -57 0
-612 153 25 57 0
-612 -154 -26 0
-612 -154 -58 0
-612 154 26 58 0
-612 -155 -27 0
-612 -155 -59 0
-612 155 27 59 0
-612 -156 -28 0
-612 -156 -60 0
-612 156 28 60 0
-612 -157 -29 0
-612 -157 -61 0
-612 157 29 61 0
-612 -158 -30 0
-612 -158 -62 0
-612 158 30 62 0
-612 -159 -31 0
-612 -159 -63 0
-612 159 31 63 0
-612 -160 -32 0
-612 -160 -64 0
-612 160 32 64 0
-613 -129 1 0
-613 -129 65 0
-613 129 -1 -65 0
-613 -130 2 0
-613 -130 66 0
-613 130 -2 -66 0
-613 -131 3 0
-613 -131 67 0
-613 131 -3 -67 0
-613 -132 4 0
-613 -132 68 0
-613 132 -4 -68 0
-613 -133 5 0
-613 -133 69 0
-613 133 -5 -69 0
-613 -134 6 0
-613 -134 70 0
-613 134 -6 -70 0
-613 -135 7 0
-613 -135 71 0
-613 135 -7 -71 0
-613 -136 8 0
-613 -136 72 0
-613 136 -8 -72 0
-613 -137 9 0
-613 -137 73 0
-613 137 -9 -73 0
-613 -138 10 0
-613 -138 74 0
-613 138 -10 -74 0
-613 -139 11 0
-613 -139 75 0
-613 139 -11 -75 0
-613 -140 12 0
-613 -140 76 0
-613 140 -12 -76 0
-613 -141 13 0
-613 -141 77 0
-613 141 -13 -77 0
-613 -142 14 0
-613 -142 78 0
-613 142 -14 -78 0
-613 -143 15 0
-613 -143 79 0
-613 143 -15 -79 0
-613 -144 16 0
-613 -144 80 0
-613 144 -16 -80 0
-613 -145 17 0
-613 -145 81 0
-613 145 -17 -81 0
-613 -146 18 0
-613 -146 82 0
-613 146 -18 -82 0
-613 -147 19 0
-613 -147 83 0
-613 147 -19 -83 0
-613 -148 20 0
-613 -148 84 0
-613 148 -20 -84 0
-613 -149 21 0
-613 -149 85 0
-613 149 -21 -85 0
-613 -150 22 0
-613 -150 86 0
-613 150 -22 -86 0
-613 -151 23 0
-613 -151 87 0
-613 151 -23 -87 0
-613 -152 24 0
-613 -152 88 0
-613 152 -24 -88 0
-613 -153 25 0
-613 -153 89 0
-613 153 -25 -89 0
-613 -154 26 0
-613 -154 90 0
-613 154 -26 -90 0
-613 -155 27 0
-613 -155 91 0
-613 155 -27 -91 0
-613 -156 28 0
-613 -156 92 0
-613 156 -28 -92 0
-613 -157 29 0
-613 -157 93 0
-613 157 -29 -93 0
-613 -158 30 0
-613 -158 94 0
-613 158 -30 -94 0
-613 -159 31 0
-613 -159 95 0
-613 159 -31 -95 0
-613 -160 32 0
-613 -160 96 0
-613 160 -32 -96 0
-614 -129 1 0
-614 -129 -65 0
-614 129 -1 65 0
-614 -130 2 0
-614 -130 -66 0
-614 130 -2 66 0
-614 -131 3 0
-614 -131 -67 0
-614 131 -3 67 0
-614 -132 4 0
-614 -132 -68 0
-614 132 -4 68 0
-614 -133 5 0
-614 -133 -69 0
-614 133 -5 69 0
-614 -134 6 0
-614 -134 -70 0
-614 134 -6 70 0
-614 -135 7 0
-614 -135 -71 0
-614 135 -7 71 0
-614 -136 8 0
-614 -136 -72 0
-614 136 -8 72 0
-614 -137 9 0
-614 -137 -73 0
-614 137 -9 73 0
-614 -138 10 0
-614 -138 -74 0
-614 138 -10 74 0
-614 -139 11 0
-614 -139 -75 0
-614 139 -11 75 0
-614 -140 12 0
-614 -140 -76 0
-614 140 -12 76 0
-614 -141 13 0
-614 -141 -77 0
-614 141 -13 77 0
-614 -142 14 0
-614 -142 -78 0
-614 142 -14 78 0
-614 -143 15 0
-614 -143 -79 0
-614 143 -15 79 0
-614 -144 16 0
-614 -144 -80 0
-614 144 -16 80 0
-614 -145 17 0
-614 -145 -81 0
-614 145 -17 81 0
-614 -146 18 0
-614 -146 -82 0
-614 146 -18 82 0
-614 -147 19 0
-614 -147 -83 0
-614 147 -19 83 0
-614 -148 20 0
-614 -148 -84 0
-614 148 -20 84 0
-614 -149 21 0
-614 -149 -85 0
-614 149 -21 85 0
-614 -150 22 0
-614 -150 -86 0
-614 150 -22 86 0
-614 -151 23 0
-614 -151 -87 0
-614 151 -23 87 0
-614 -152 24 0
-614 -152 -88 0
-614 152 -24 88 0
-614 -153 25 0
-614 -153 -89 0
-614 153 -25 89 0
-614 -154 26 0
-614 -154 -90 0
-614 154 -26 90 0
-614 -155 27 0
-614 -155 -91 0
-614 155 -27 91 0
-614 -156 28 0
-614 -156 -92 0
-614 156 -28 92 0
-614 -157 29 0
-614 -157 -93 0
-614 157 -29 93 0
-614 -158 30 0
-614 -158 -94 0
-614 158 -30 94 0
-614 -159 31 0
-614 -159 -95 0
-614 159 -31 95 0
-614 -160 32 0
-614 -160 -96 0
-614 160 -32 96 0
-615 -129 -1 0
-615 -129 65 0
-615 129 1 -65 0
-615 -130 -2 0
-615 -130 66 0
-615 130 2 -66 0
-615 -131 -3 0
-615 -131 67 0
-615 131 3 -67 0
-615 -132 -4 0
-615 -132 68 0
-615 132 4 -68 0
-615 -133 -5 0
-615 -133 69 0
-615 133 5 -69 0
-615 -134 -6 0
-615 -134 70 0
-615 134 6 -70 0
-615 -135 -7 0
-615 -135 71 0
-615 135 7 -71 0
-615 -136 -8 0
-615 -136 72 0
-615 136 8 -72 0
-615 -137 -9 0
-615 -137 73 0
-615 137 9 -73 0
-615 -138 -10 0
-615 -138 74 0
-615 138 10 -74 0
-615 -139 -11 0
-615 -139 75 0
-615 139 11 -75 0
-615 -140 -12 0
-615 -140 76 0
-615 140 12 -76 0
-615 -141 -13 0
-615 -141 77 0
-615 141 13 -77 0
-615 -142 -14 0
-615 -142 78 0
-615 142 14 -78 0
-615 -143 -15 0
-615 -143 79 0
-615 143 15 -79 0
-615 -144 -16 0
-615 -144 80 0
-615 144 16 -80 0
-615 -145 -17 0
-615 -145 81 0
-615 145 17 -81 0
-615 -146 -18 0
-615 -146 82 0
-615 146 18 -82 0
-615 -147 -19 0
-615 -147 83 0
-615 147 19 -83 0
-615 -148 -20 0
-615 -148 84 0
-615 148 20 -84 0
-615 -149 -21 0
-615 -149 85 0
-615 149 21 -85 0
-615 -150 -22 0
-615 -150 86 0
-615 150 22 -86 0
-615 -151 -23 0
-615 -151 87 0
-615 151 23 -87 0
-615 -152 -24 0
-615 -152 88 0
-615 152 24 -88 0
-615 -153 -25 0
-615 -153 89 0
-615 153 25 -89 0
-615 -154 -26 0
-615 -154 90 0
-615 154 26 -90 0
-615 -155 -27 0
-615 -155 91 0
-615 155 27 -91 0
-615 -156 -28 0
-615 -156 92 0
-615 156 28 -92 0
-615 -157 -29 0
-615 -157 93 0
-615 157 29 -93 0
-615 -158 -30 0
-615 -158 94 0
-615 158 30 -94 0
-615 -159 -31 0
-615 -159 95 0
-615 159 31 -95 0
-615 -160 -32 0
-615 -160 96 0
-615 160 32 -96 0
-616 -129 -1 0
-616 -129 -65 0
-616 129 1 65 0
-616 -130 -2 0
-616 -130 -66 0
-616 130 2 66 0
-616 -131 -3 0
-616 -131 -67 0
-616 131 3 67 0
-616 -132 -4 0
-616 -132 -68 0
-616 132 4 68 0
-616 -133 -5 0
-616 -133 -69 0
-616 133 5 69 0
-616 -134 -6 0
-616 -134 -70 0
-616 134 6 70 0
-616 -135 -7 0
-616 -135 -71 0
-616 135 7 71 0
-616 -136 -8 0
-616 -136 -72 0
-616 136 8 72 0
-616 -137 -9 0
-616 -137 -73 0
-616 137 9 73 0
-616 -138 -10 0
-616 -138 -74 0
-616 138 10 74 0
-616 -139 -11 0
-616 -139 -75 0
-616 139 11 75 0
-616 -140 -12 0
-616 -140 -76 0
-616 140 12 76 0
-616 -141 -13 0
-616 -141 -77 0
-616 141 13 77 0
-616 -142 -14 0
-616 -142 -78 0
-616 142 14 78 0
-616 -143 -15 0
-616 -143 -79 0
-616 143 15 79 0
-616 -144 -16 0
-616 -144 -80 0
-616 144 16 80 0
-616 -145 -17 0
-616 -145 -81 0
-616 145 17 81 0
-616 -146 -18 0
-616 -146 -82 0
-616 146 18 82 0
-616 -147 -19 0
-616 -147 -83 0
-616 147 19 83 0
-616 -148 -20 0
-616 -148 -84 0
-616 148 20 84 0
-616 -149 -21 0
-616 -149 -85 0
-616 149 21 85 0
-616 -150 -22 0
-616 -150 -86 0
-616 150 22 86 0
-616 -151 -23 0
-616 -151 -87 0
-616 151 23 87 0
-616 -152 -24 0
-616 -152 -88 0
-616 152 24 88 0
-616 -153 -25 0
-616 -153 -89 0
-616 153 25 89 0
-616 -154 -26 0
-616 -154 -90 0
-616 154 26 90 0
-616 -155 -27 0
-616 -155 -91 0
-616 155 27 91 0
-616 -156 -28 0
-616 -156 -92 0
-616 156 28 92 0
-616 -157 -29 0
-616 -157 -93 0
-616 157 29 93 0
-616 -158 -30 0
-616 -158 -94 0
-616 158 30 94 0
-616 -159 -31 0
-616 -159 -95 0
-616 159 31 95 0
-616 -160 -32 0
-616 -160 -96 0
-616 160 32 96 0
-617 -129 1 0
-617 -129 97 0
-617 129 -1 -97 0
-617 -130 2 0
-617 -130 98 0
-617 130 -2 -98 0
-617 -131 3 0
-617 -131 99 0
-617 131 -3 -99 0
-617 -132 4 0
-617 -132 100 0
-617 132 -4 -100 0
-617 -133 5 0
-617 -133 101 0
-617 133 -5 -101 0
-617 -134 6 0
-617 -134 102 0
-617 134 -6 -102 0
-617 -135 7 0
-617 -135 103 0
-617 135 -7 -103 0
-617 -136 8 0
-617 -136 104 0
-617 136 -8 -104 0
-617 -137 9 0
-617 -137 105 0
-617 137 -9 -105 0
-617 -138 10 0
-617 -138 106 0
-617 138 -10 -106 0
-617 -139 11 0
-617 -139 107 0
-617 139 -11 -107 0
-617 -140 12 0
-617 -140 108 0
-617 140 -12 -108 0
-617 -141 13 0
-617 -141 109 0
-617 141 -13 -109 0
-617 -142 14 0
-617 -142 110 0
-617 142 -14 -110 0
-617 -143 15 0
-617 -143 111 0
-617 143 -15 -111 0
-617 -144 16 0
-617 -144 112 0
-617 144 -16 -112 0
-617 -145 17 0
-617 -145 113 0
-617 145 -17 -113 0
-617 -146 18 0
-617 -146 114 0
-617 146 -18 -114 0
-617 -147 19 0
-617 -147 115 0
-617 147 -19 -115 0
-617 -148 20 0
-617 -148 116 0
-617 148 -20 -116 0
-617 -149 21 0
-617 -149 117 0
-617 149 -21 -117 0
-617 -150 22 0
-617 -150 118 0
-617 150 -22 -118 0
-617 -151 23 0
-617 -151 119 0
-617 151 -23 -119 0
-617 -152 24 0
-617 -152 120 0
-617 152 -24 -120 0
-617 -153 25 0
-617 -153 121 0
-617 153 -25 -121 0
-617 -154 26 0
-617 -154 122 0
-617 154 -26 -122 0
-617 -155 27 0
-617 -155 123 0
-617 155 -27 -123 0
-617 -156 28 0
-617 -156 124 0
-617 156 -28 -124 0
-617 -157 29 0
-617 -157 125 0
-617 157 -29 -125 0
-617 -158 30 0
-617 -158 126 0
-617 158 -30 -126 0
-617 -159 31 0
-617 -159 127 0
-617 159 -31 -127 0
-617 -160 32 0
-617 -160 128 0
-617 160 -32 -128 0
-618 -129 1 0
-618 -129 -97 0
-618 129 -1 97 0
-618 -130 2 0
-618 -130 -98 0
-618 130 -2 98 0
-618 -131 3 0
-618 -131 -99 0
-618 131 -3 99 0
-618 -132 4 0
-618 -132 -100 0
-618 132 -4 100 0
-618 -133 5 0
-618 -133 -101 0
-618 133 -5 101 0
-618 -134 6 0
-618 -134 -102 0
-618 134 -6 102 0
-618 -135 7 0
-618 -135 -103 0
-618 135 -7 103 0
-618 -136 8 0
-618 -136 -104 0
-618 136 -8 104 0
-618 -137 9 0
-618 -137 -105 0
-618 137 -9 105 0
-618 -138 10 0
-618 -138 -106 0
-618 138 -10 106 0
-618 -139 11 0
-618 -139 -107 0
-618 139 -11 107 0
-618 -140 12 0
-618 -140 -108 0
-618 140 -12 108 0
-618 -141 13 0
-618 -141 -109 0
-618 141 -13 109 0
-618 -142 14 0
-618 -142 -110 0
-618 142 -14 110 0
-618 -143 15 0
-618 -143 -111 0
-618 143 -15 111 0
-618 -144 16 0
-618 -144 -112 0
-618 144 -16 112 0
-618 -145 17 0
-618 -145 -113 0
-618 145 -17 113 0
-618 -146 18 0
-618 -146 -114 0
-618 146 -18 114 0
-618 -147 19 0
-618 -147 -115 0
-618 147 -19 115 0
-618 -148 20 0
-618 -148 -116 0
-618 148 -20 116 0
-618 -149 21 0
-618 -149 -117 0
-618 149 -21 117 0
-618 -150 22 0
-618 -150 -118 0
-618 150 -22 118 0
-618 -151 23 0
-618 -151 -119 0
-618 151 -23 119 0
-618 -152 24 0
-618 -152 -120 0
-618 152 -24 120 0
-618 -153 25 0
-618 -153 -121 0
-618 153 -25 121 0
-618 -154 26 0
-618 -154 -122 0
-618 154 -26 122 0
-618 -155 27 0
-618 -155 -123 0
-618 155 -27 123 0
-618 -156 28 0
-618 -156 -124 0
-618 156 -28 124 0
-618 -157 29 0
-618 -157 -125 0
-618 157 -29 125 0
-618 -158 30 0
-618 -158 -126 0
-618 158 -30 126 0
-618 -159 31 0
-618 -159 -127 0
-618 159 -31 127 0
-618 -160 32 0
-618 -160 -128 0
-618 160 -32 128 0
-619 -129 -1 0
-619 -129 97 0
-619 129 1 -97 0
-619 -130 -2 0
-619 -130 98 0
-619 130 2 -98 0
-619 -131 -3 0
-619 -131 99 0
-619 131 3 -99 0
-619 -132 -4 0
-619 -132 100 0
-619 132 4 -100 0
-619 -133 -5 0
-619 -133 101 0
-619 133 5 -101 0
-619 -134 -6 0
-619 -134 102 0
-619 134 6 -102 0
-619 -135 -7 0
-619 -135 103 0
-619 135 7 -103 0
-619 -136 -8 0
-619 -136 104 0
-619 136 8 -104 0
-619 -137 -9 0
-619 -137 105 0
-619 137 9 -105 0
-619 -138 -10 0
-619 -138 106 0
-619 138 10 -106 0
-619 -139 -11 0
-619 -139 107 0
-619 139 11 -107 0
-619 -140 -12 0
-619 -140 108 0
-619 140 12 -108 0
-619 -141 -13 0
-619 -141 109 0
-619 141 13 -109 0
-619 -142 -14 0
-619 -142 110 0
-619 142 14 -110 0
-619 -143 -15 0
-619 -143 111 0
-619 143 15 -111 0
-619 -144 -16 0
-619 -144 112 0
-619 144 16 -112 0
-619 -145 -17 0
-619 -145 113 0
-619 145 17 -113 0
-619 -146 -18 0
-619 -146 114 0
-619 146 18 -114 0
-619 -147 -19 0
-619 -147 115 0
-619 147 19 -115 0
-619 -148 -20 0
-619 -148 116 0
-619 148 20 -116 0
-619 -149 -21 0
-619 -149 117 0
-619 149 21 -117 0
-619 -150 -22 0
-619 -150 118 0
-619 150 22 -118 0
-619 -151 -23 0
-619 -151 119 0
-619 151 23 -119 0
-619 -152 -24 0
-619 -152 120 0
-619 152 24 -120 0
-619 -153 -25 0
-619 -153 121 0
-619 153 25 -121 0
-619 -154 -26 0
-619 -154 122 0
-619 154 26 -122 0
-619 -155 -27 0
-619 -155 123 0
-619 155 27 -123 0
-619 -156 -28 0
-619 -156 124 0
-619 156 28 -124 0
-619 -157 -29 0
-619 -157 125 0
-619 157 29 -125 0
-619 -158 -30 0
-619 -158 126 0
-619 158 30 -126 0
-619 -159 -31 0
-619 -159 127 0
-619 159 31 -127 0
-619 -160 -32 0
-619 -160 128 0
-619 160 32 -128 0
-620 -129 -1 0
-620 -129 -97 0
-620 129 1 97 0
-620 -130 -2 0
-620 -130 -98 0
-620 130 2 98 0
-620 -131 -3 0
-620 -131 -99 0
-620 131 3 99 0
-620 -132 -4 0
-620 -132 -100 0
-620 132 4 100 0
-620 -133 -5 0
-620 -133 -101 0
-620 133 5 101 0
-620 -134 -6 0
-620 -134 -102 0
-620 134 6 102 0
-620 -135 -7 0
-620 -135 -103 0
-620 135 7 103 0
-620 -136 -8 0
-620 -136 -104 0
-620 136 8 104 0
-620 -137 -9 0
-620 -137 -105 0
-620 137 9 105 0
-620 -138 -10 0
-620 -138 -106 0
-620 138 10 106 0
-620 -139 -11 0
-620 -139 -107 0
-620 139 11 107 0
-620 -140 -12 0
-620 -140 -108 0
-620 140 12 108 0
-620 -141 -13 0
-620 -141 -109 0
-620 141 13 109 0
-620 -142 -14 0
-620 -142 -110 0
-620 142 14 110 0
-620 -143 -15 0
-620 -143 -111 0
-620 143 15 111 0
-620 -144 -16 0
-620 -144 -112 0
-620 144 16 112 0
-620 -145 -17 0
-620 -145 -113 0
-620 145 17 113 0
-620 -146 -18 0
-620 -146 -114 0
-620 146 18 114 0
-620 -147 -19 0
-620 -147 -115 0
-620 147 19 115 0
-620 -148 -20 0
-620 -148 -116 0
-620 148 20 116 0
-620 -149 -21 0
-620 -149 -117 0
-620 149 21 117 0
-620 -150 -22 0
-620 -150 -118 0
-620 150 22 118 0
-620 -151 -23 0
-620 -151 -119 0
-620 151 23 119 0
-620 -152 -24 0
-620 -152 -120 0
-620 152 24 120 0
-620 -153 -25 0
-620 -153 -121 0
-620 153 25 121 0
-620 -154 -26 0
-620 -154 -122 0
-620 154 26 122 0
-620 -155 -27 0
-620 -155 -123 0
-620 155 27 123 0
-620 -156 -28 0
-620 -156 -124 0
-620 156 28 124 0
-620 -157 -29 0
-620 -157 -125 0
-620 157 29 125 0
-620 -158 -30 0
-620 -158 -126 0
-620 158 30 126 0
-620 -159 -31 0
-620 -159 -127 0
-620 159 31 127 0
-620 -160 -32 0
-620 -160 -128 0
-620 160 32 128 0
-621 -129 33 0
-621 -129 65 0
-621 129 -33 -65 0
-621 -130 34 0
-621 -130 66 0
-621 130 -34 -66 0
-621 -131 35 0
-621 -131 67 0
-621 131 -35 -67 0
-621 -132 36 0
-621 -132 68 0
-621 132 -36 -68 0
-621 -133 37 0
-621 -133 69 0
-621 133 -37 -69 0
-621 -134 38 0
-621 -134 70 0
-621 134 -38 -70 0
-621 -135 39 0
-621 -135 71 0
-621 135 -39 -71 0
-621 -136 40 0
-621 -136 72 0
-621 136 -40 -72 0
-621 -137 41 0
-621 -137 73 0
-621 137 -41 -73 0
-621 -138 42 0
-621 -138 74 0
-621 138 -42 -74 0
-621 -139 43 0
-621 -139 75 0
-621 139 -43 -75 0
-621 -140 44 0
-621 -140 76 0
-621 140 -44 -76 0
-621 -141 45 0
-621 -141 77 0
-621 141 -45 -77 0
-621 -142 46 0
-621 -142 78 0
-621 142 -46 -78 0
-621 -143 47 0
-621 -143 79 0
-621 143 -47 -79 0
-621 -144 48 0
-621 -144 80 0
-621 144 -48 -80 0
-621 -145 49 0
-621 -145 81 0
-621 145 -49 -81 0
-621 -146 50 0
-621 -146 82 0
-621 146 -50 -82 0
-621 -147 51 0
-621 -147 83 0
-621 147 -51 -83 0
-621 -148 52 0
-621 -148 84 0
-621 148 -52 -84 0
-621 -149 53 0
-621 -149 85 0
-621 149 -53 -85 0
-621 -150 54 0
-621 -150 86 0
-621 150 -54 -86 0
-621 -151 55 0
-621 -151 87 0
-621 151 -55 -87 0
-621 -152 56 0
-621 -152 88 0
-621 152 -56 -88 0
-621 -153 57 0
-621 -153 89 0
-621 153 -57 -89 0
-621 -154 58 0
-621 -154 90 0
-621 154 -58 -90 0
-621 -155 59 0
-621 -155 91 0
-621 155 -59 -91 0
-621 -156 60 0
-621 -156 92 0
-621 156 -60 -92 0
-621 -157 61 0
-621 -157 93 0
-621 157 -61 -93 0
-621 -158 62 0
-621 -158 94 0
-621 158 -62 -94 0
-621 -159 63 0
-621 -159 95 0
-621 159 -63 -95 0
-621 -160 64 0
-621 -160 96 0
-621 160 -64 -96 0
-622 -129 33 0
-622 -129 -65 0
-622 129 -33 65 0
-622 -130 34 0
-622 -130 -66 0
-622 130 -34 66 0
-622 -131 35 0
-622 -131 -67 0
-622 131 -35 67 0
-622 -132 36 0
-622 -132 -68 0
-622 132 -36 68 0
-622 -133 37 0
-622 -133 -69 0
-622 133 -37 69 0
-622 -134 38 0
-622 -134 -70 0
-622 134 -38 70 0
-622 -135 39 0
-622 -135 -71 0
-622 135 -39 71 0
-622 -136 40 0
-622 -136 -72 0
-622 136 -40 72 0
-622 -137 41 0
-622 -137 -73 0
-622 137 -41 73 0
-622 -138 42 0
-622 -138 -74 0
-622 138 -42 74 0
-622 -139 43 0
-622 -139 -75 0
-622 139 -43 75 0
-622 -140 44 0
-622 -140 -76 0
-622 140 -44 76 0
-622 -141 45 0
-622 -141 -77 0
-622 141 -45 77 0
-622 -142 46 0
-622 -142 -78 0
-622 142 -46 78 0
-622 -143 47 0
-622 -143 -79 0
-622 143 -47 79 0
-622 -144 48 0
-622 -144 -80 0
-622 144 -48 80 0
-622 -145 49 0
-622 -145 -81 0
-622 145 -49 81 0
-622 -146 50 0
-622 -146 -82 0
-622 146 -50 82 0
-622 -147 51 0
-622 -147 -83 0
-622 147 -51 83 0
-622 -148 52 0
-622 -148 -84 0
-622 148 -52 84 0
-622 -149 53 0
-622 -149 -85 0
-622 149 -53 85 0
-622 -150 54 0
-622 -150 -86 0
-622 150 -54 86 0
-622 -151 55 0
-622 -151 -87 0
-622 151 -55 87 0
-622 -152 56 0
-622 -152 -88 0
-622 152 -56 88 0
-622 -153 57 0
-622 -153 -89 0
-622 153 -57 89 0
-622 -154 58 0
-622 -154 -90 0
-622 154 -58 90 0
-622 -155 59 0
-622 -155 -91 0
-622 155 -59 91 0
-622 -156 60 0
-622 -156 -92 0
-622 156 -60 92 0
-622 -157 61 0
-622 -157 -93 0
-622 157 -61 93 0
-622 -158 62 0
-622 -158 -94 0
-622 158 -62 94 0
-622 -159 63 0
-622 -159 -95 0
-622 159 -63 95 0
-622 -160 64 0
-622 -160 -96 0
-622 160 -64 96 0
-623 -129 -33 0
-623 -129 65 0
-623 129 33 -65 0
-623 -130 -34 0
-623 -130 66 0
-623 130 34 -66 0
-623 -131 -35 0
-623 -131 67 0
-623 131 35 -67 0
-623 -132 -36 0
-623 -132 68 0
-623 132 36 -68 0
-623 -133 -37 0
-623 -133 69 0
-623 133 37 -69 0
-623 -134 -38 0
-623 -134 70 0
-623 134 38 -70 0
-623 -135 -39 0
-623 -135 71 0
-623 135 39 -71 0
-623 -136 -40 0
-623 -136 72 0
-623 136 40 -72 0
-623 -137 -41 0
-623 -137 73 0
-623 137 41 -73 0
-623 -138 -42 0
-623 -138 74 0
-623 138 42 -74 0
-623 -139 -43 0
-623 -139 75 0
-623 139 43 -75 0
-623 -140 -44 0
-623 -140 76 0
-623 140 44 -76 0
-623 -141 -45 0
-623 -141 77 0
-623 141 45 -77 0
-623 -142 -46 0
-623 -142 78 0
-623 142 46 -78 0
-623 -143 -47 0
-623 -143 79 0
-623 143 47 -79 0
-623 -144 -48 0
-623 -144 80 0
-623 144 48 -80 0
-623 -145 -49 0
-623 -145 81 0
-623 145 49 -81 0
-623 -146 -50 0
-623 -146 82 0
-623 146 50 -82 0
-623 -147 -51 0
-623 -147 83 0
-623 147 51 -83 0
-623 -148 -52 0
-623 -148 84 0
-623 148 52 -84 0
-623 -149 -53 0
-623 -149 85 0
-623 149 53 -85 0
-623 -150 -54 0
-623 -150 86 0
-623 150 54 -86 0
-623 -151 -55 0
-623 -151 87 0
-623 151 55 -87 0
-623 -152 -56 0
-623 -152 88 0
-623 152 56 -88 0
-623 -153 -57 0
-623 -153 89 0
-623 153 57 -89 0
-623 -154 -58 0
-623 -154 90 0
-623 154 58 -90 0
-623 -155 -59 0
-623 -155 91 0
-623 155 59 -91 0
-623 -156 -60 0
-623 -156 92 0
-623 156 60 -92 0
-623 -157 -61 0
-623 -157 93 0
-623 157 61 -93 0
-623 -158 -62 0
-623 -158 94 0
-623 158 62 -94 0
-623 -159 -63 0
-623 -159 95 0
-623 159 63 -95 0
-623 -160 -64 0
-623 -160 96 0
-623 160 64 -96 0
-624 -129 -33 0
-624 -129 -65 0
-624 129 33 65 0
-624 -130 -34 0
-624 -130 -66 0
-624 130 34 66 0
-624 -131 -35 0
-624 -131 -67 0
-624 131 35 67 0
-624 -132 -36 0
-624 -132 -68 0
-624 132 36 68 0
-624 -133 -37 0
-624 -133 -69 0
-624 133 37 69 0
-624 -134 -38 0
-624 -134 -70 0
-624 134 38 70 0
-624 -135 -39 0
-624 -135 -71 0
-624 135 39 71 0
-624 -136 -40 0
-624 -136 -72 0
-624 136 40 72 0
-624 -137 -41 0
-624 -137 -73 0
-624 137 41 73 0
-624 -138 -42 0
-624 -138 -74 0
-624 138 42 74 0
-624 -139 -43 0
-624 -139 -75 0
-624 139 43 75 0
-624 -140 -44 0
-624 -140 -76 0
-624 140 44 76 0
-624 -141 -45 0
-624 -141 -77 0
-624 141 45 77 0
-624 -142 -46 0
-624 -142 -78 0
-624 142 46 78 0
-624 -143 -47 0
-624 -143 -79 0
-624 143 47 79 0
-624 -144 -48 0
-624 -144 -80 0
-624 144 48 80 0
-624 -145 -49 0
-624 -145 -81 0
-624 145 49 81 0
-624 -146 -50 0
-624 -146 -82 0
-624 146 50 82 0
-624 -147 -51 0
-624 -147 -83 0
-624 147 51 83 0
-624 -148 -52 0
-624 -148 -84 0
-624 148 52 84 0
-624 -149 -53 0
-624 -149 -85 0
-624 149 53 85 0
-624 -150 -54 0
-624 -150 -86 0
-624 150 54 86 0
-624 -151 -55 0
-624 -151 -87 0
-624 151 55 87 0
-624 -152 -56 0
-624 -152 -88 0
-624 152 56 88 0
-624 -153 -57 0
-624 -153 -89 0
-624 153 57 89 0
-624 -154 -58 0
-624 -154 -90 0
-624 154 58 90 0
-624 -155 -59 0
-624 -155 -91 0
-624 155 59 91 0
-624 -156 -60 0
-624 -156 -92 0
-624 156 60 92 0
-624 -157 -61 0
-624 -157 -93 0
-624 157 61 93 0
-624 -158 -62 0
-624 -158 -94 0
-624 158 62 94 0
-624 -159 -63 0
-624 -159 -95 0
-624 159 63 95 0
-624 -160 -64 0
-624 -160 -96 0
-624 160 64 96 0
-625 -129 33 0
-625 -129 97 0
-625 129 -33 -97 0
-625 -130 34 0
-625 -130 98 0
-625 130 -34 -98 0
-625 -131 35 0
-625 -131 99 0
-625 131 -35 -99 0
-625 -132 36 0
-625 -132 100 0
-625 132 -36 -100 0
-625 -133 37 0
-625 -133 101 0
-625 133 -37 -101 0
-625 -134 38 0
-625 -134 102 0
-625 134 -38 -102 0
-625 -135 39 0
-625 -135 103 0
-625 135 -39 -103 0
-625 -136 40 0
-625 -136 104 0
-625 136 -40 -104 0
-625 -137 41 0
-625 -137 105 0
-625 137 -41 -105 0
-625 -138 42 0
-625 -138 106 0
-625 138 -42 -106 0
-625 -139 43 0
-625 -139 107 0
-625 139 -43 -107 0
-625 -140 44 0
-625 -140 108 0
-625 140 -44 -108 0
-625 -141 45 0
-625 -141 109 0
-625 141 -45 -109 0
-625 -142 46 0
-625 -142 110 0
-625 142 -46 -110 0
-625 -143 47 0
-625 -143 111 0
-625 143 -47 -111 0
-625 -144 48 0
-625 -144 112 0
-625 144 -48 -112 0
-625 -145 49 0
-625 -145 113 0
-625 145 -49 -113 0
-625 -146 50 0
-625 -146 114 0
-625 146 -50 -114 0
-625 -147 51 0
-625 -147 115 0
-625 147 -51 -115 0
-625 -148 52 0
-625 -148 116 0
-625 148 -52 -116 0
-625 -149 53 0
-625 -149 117 0
-625 149 -53 -117 0
-625 -150 54 0
-625 -150 118 0
-625 150 -54 -118 0
-625 -151 55 0
-625 -151 119 0
-625 151 -55 -119 0
-625 -152 56 0
-625 -152 120 0
-625 152 -56 -120 0
-625 -153 57 0
-625 -153 121 0
-625 153 -57 -121 0
-625 -154 58 0
-625 -154 122 0
-625 154 -58 -122 0
-625 -155 59 0
-625 -155 123 0
-625 155 -59 -123 0
-625 -156 60 0
-625 -156 124 0
-625 156 -60 -124 0
-625 -157 61 0
-625 -157 125 0
-625 157 -61 -125 0
-625 -158 62 0
-625 -158 126 0
-625 158 -62 -126 0
-625 -159 63 0
-625 -159 127 0
-625 159 -63 -127 0
-625 -160 64 0
-625 -160 128 0
-625 160 -64 -128 0
-626 -129 33 0
-626 -129 -97 0
-626 129 -33 97 0
-626 -130 34 0
-626 -130 -98 0
-626 130 -34 98 0
-626 -131 35 0
-626 -131 -99 0
-626 131 -35 99 0
-626 -132 36 0
-626 -132 -100 0
-626 132 -36 100 0
-626 -133 37 0
-626 -133 -101 0
-626 133 -37 101 0
-626 -134 38 0
-626 -134 -102 0
-626 134 -38 102 0
-626 -135 39 0
-626 -135 -103 0
-626 135 -39 103 0
-626 -136 40 0
-626 -136 -104 0
-626 136 -40 104 0
-626 -137 41 0
-626 -137 -105 0
-626 137 -41 105 0
-626 -138 42 0
-626 -138 -106 0
-626 138 -42 106 0
-626 -139 43 0
-626 -139 -107 0
-626 139 -43 107 0
-626 -140 44 0
-626 -140 -108 0
-626 140 -44 108 0
-626 -141 45 0
-626 -141 -109 0
-626 141 -45 109 0
-626 -142 46 0
-626 -142 -110 0
-626 142 -46 110 0
-626 -143 47 0
-626 -143 -111 0
-626 143 -47 111 0
-626 -144 48 0
-626 -144 -112 0
-626 144 -48 112 0
-626 -145 49 0
-626 -145 -113 0
-626 145 -49 113 0
-626 -146 50 0
-626 -146 -114 0
-626 146 -50 114 0
-626 -147 51 0
-626 -147 -115 0
-626 147 -51 115 0
-626 -148 52 0
-626 -148 -116 0
-626 148 -52 116 0
-626 -149 53 0
-626 -149 -117 0
-626 149 -53 117 0
-626 -150 54 0
-626 -150 -118 0
-626 150 -54 118 0
-626 -151 55 0
-626 -151 -119 0
-626 151 -55 119 0
-626 -152 56 0
-626 -152 -120 0
-626 152 -56 120 0
-626 -153 57 0
-626 -153 -121 0
-626 153 -57 121 0
-626 -154 58 0
-626 -154 -122 0
-626 154 -58 122 0
-626 -155 59 0
-626 -155 -123 0
-626 155 -59 123 0
-626 -156 60 0
-626 -156 -124 0
-626 156 -60 124 0
-626 -157 61 0
-626 -157 -125 0
-626 157 -61 125 0
-626 -158 62 0
-626 -158 -126 0
-626 158 -62 126 0
-626 -159 63 0
-626 -159 -127 0
-626 159 -63 127 0
-626 -160 64 0
-626 -160 -128 0
-626 160 -64 128 0
-627 -129 -33 0
-627 -129 97 0
-627 129 33 -97 0
-627 -130 -34 0
-627 -130 98 0
-627 130 34 -98 0
-627 -131 -35 0
-627 -131 99 0
-627 131 35 -99 0
-627 -132 -36 0
-627 -132 100 0
-627 132 36 -100 0
-627 -133 -37 0
-627 -133 101 0
-627 133 37 -101 0
-627 -134 -38 0
-627 -134 102 0
-627 134 38 -102 0
-627 -135 -39 0
-627 -135 103 0
-627 135 39 -103 0
-627 -136 -40 0
-627 -136 104 0
-627 136 40 -104 0
-627 -137 -41 0
-627 -137 105 0
-627 137 41 -105 0
-627 -138 -42 0
-627 -138 106 0
-627 138 42 -106 0
-627 -139 -43 0
-627 -139 107 0
-627 139 43 -107 0
-627 -140 -44 0
-627 -140 108 0
-627 140 44 -108 0
-627 -141 -45 0
-627 -141 109 0
-627 141 45 -109 0
-627 -142 -46 0
-627 -142 110 0
-627 142 46 -110 0
-627 -143 -47 0
-627 -143 111 0
-627 143 47 -111 0
-627 -144 -48 0
-627 -144 112 0
-627 144 48 -112 0
-627 -145 -49 0
-627 -145 113 0
-627 145 49 -113 0
-627 -146 -50 0
-627 -146 114 0
-627 146 50 -114 0
-627 -147 -51 0
-627 -147 115 0
-627 147 51 -115 0
-627 -148 -52 0
-627 -148 116 0
-627 148 52 -116 0
-627 -149 -53 0
-627 -149 117 0
-627 149 53 -117 0
-627 -150 -54 0
-627 -150 118 0
-627 150 54 -118 0
-627 -151 -55 0
-627 -151 119 0
-627 151 55 -119 0
-627 -152 -56 0
-627 -152 120 0
-627 152 56 -120 0
-627 -153 -57 0
-627 -153 121 0
-627 153 57 -121 0
-627 -154 -58 0
-627 -154 122 0
-627 154 58 -122 0
-627 -155 -59 0
-627 -155 123 0
-627 155 59 -123 0
-627 -156 -60 0
-627 -156 124 0
-627 156 60 -124 0
-627 -157 -61 0
-627 -157 125 0
-627 157 61 -125 0
-627 -158 -62 0
-627 -158 126 0
-627 158 62 -126 0
-627 -159 -63 0
-627 -159 127 0
-627 159 63 -127 0
-627 -160 -64 0
-627 -160 128 0
-627 160 64 -128 0
-628 -129 -33 0
-628 -129 -97 0
-628 129 33 97 0
-628 -130 -34 0
-628 -130 -98 0
-628 130 34 98 0
-628 -131 -35 0
-628 -131 -99 0
-628 131 35 99 0
-628 -132 -36 0
-628 -132 -100 0
-628 132 36 100 0
-628 -133 -37 0
-628 -133 -101 0
-628 133 37 101 0
-628 -134 -38 0
-628 -134 -102 0
-628 134 38 102 0
-628 -135 -39 0
-628 -135 -103 0
-628 135 39 103 0
-628 -136 -40 0
-628 -136 -104 0
-628 136 40 104 0
-628 -137 -41 0
-628 -137 -105 0
-628 137 41 105 0
-628 -138 -42 0
-628 -138 -106 0
-628 138 42 106 0
-628 -139 -43 0
-628 -139 -107 0
-628 139 43 107 0
-628 -140 -44 0
-628 -140 -108 0
-628 140 44 108 0
-628 -141 -45 0
-628 -141 -109 0
-628 141 45 109 0
-628 -142 -46 0
-628 -142 -110 0
-628 142 46 110 0
-628 -143 -47 0
-628 -143 -111 0
-628 143 47 111 0
-628 -144 -48 0
-628 -144 -112 0
-628 144 48 112 0
-628 -145 -49 0
-628 -145 -113 0
-628 145 49 113 0
-628 -146 -50 0
-628 -146 -114 0
-628 146 50 114 0
-628 -147 -51 0
-628 -147 -115 0
-628 147 51 115 0
-628 -148 -52 0
-628 -148 -116 0
-628 148 52 116 0
-628 -149 -53 0
-628 -149 -117 0
-628 149 53 117 0
-628 -150 -54 0
-628 -150 -118 0
-628 150 54 118 0
-628 -151 -55 0
-628 -151 -119 0
-628 151 55 119 0
-628 -152 -56 0
-628 -152 -120 0
-628 152 56 120 0
-628 -153 -57 0
-628 -153 -121 0
-628 153 57 121 0
-628 -154 -58 0
-628 -154 -122 0
-628 154 58 122 0
-628 -155 -59 0
-628 -155 -123 0
-628 155 59 123 0
-628 -156 -60 0
-628 -156 -124 0
-628 156 60 124 0
-628 -157 -61 0
-628 -157 -125 0
-628 157 61 125 0
-628 -158 -62 0
-628 -158 -126 0
-628 158 62 126 0
-628 -159 -63 0
-628 -159 -127 0
-628 159 63 127 0
-628 -160 -64 0
-628 -160 -128 0
-628 160 64 128 0
-629 -129 65 0
-629 -129 97 0
-629 129 -65 -97 0
-629 -130 66 0
-629 -130 98 0
-629 130 -66 -98 0
-629 -131 67 0
-629 -131 99 0
-629 131 -67 -99 0
-629 -132 68 0
-629 -132 100 0
-629 132 -68 -100 0
-629 -133 69 0
-629 -133 101 0
-629 133 -69 -101 0
-629 -134 70 0
-629 -134 102 0
-629 134 -70 -102 0
-629 -135 71 0
-629 -135 103 0
-629 135 -71 -103 0
-629 -136 72 0
-629 -136 104 0
-629 136 -72 -104 0
-629 -137 73 0
-629 -137 105 0
-629 137 -73 -105 0
-629 -138 74 0
-629 -138 106 0
-629 138 -74 -106 0
-629 -139 75 0
-629 -139 107 0
-629 139 -75 -107 0
-629 -140 76 0
-629 -140 108 0
-629 140 -76 -108 0
-629 -141 77 0
-629 -141 109 0
-629 141 -77 -109 0
-629 -142 78 0
-629 -142 110 0
-629 142 -78 -110 0
-629 -143 79 0
-629 -143 111 0
-629 143 -79 -111 0
-629 -144 80 0
-629 -144 112 0
-629 144 -80 -112 0
-629 -145 81 0
-629 -145 113 0
-629 145 -81 -113 0
-629 -146 82 0
-629 -146 114 0
-629 146 -82 -114 0
-629 -147 83 0
-629 -147 115 0
-629 147 -83 -115 0
-629 -148 84 0
-629 -148 116 0
-629 148 -84 -116 0
-629 -149 85 0
-629 -149 117 0
-629 149 -85 -117 0
-629 -150 86 0
-629 -150 118 0
-629 150 -86 -118 0
-629 -151 87 0
-629 -151 119 0
-629 151 -87 -119 0
-629 -152 88 0
-629 -152 120 0
-629 152 -88 -120 0
-629 -153 89 0
-629 -153 121 0
-629 153 -89 -121 0
-629 -154 90 0
-629 -154 122 0
-629 154 -90 -122 0
-629 -155 91 0
-629 -155 123 0
-629 155 -91 -123 0
-629 -156 92 0
-629 -156 124 0
-629 156 -92 -124 0
-629 -157 93 0
-629 -157 125 0
-629 157 -93 -125 0
-629 -158 94 0
-629 -158 126 0
-629 158 -94 -126 0
-629 -159 95 0
-629 -159 127 0
-629 159 -95 -127 0
-629 -160 96 0
-629 -160 128 0
-629 160 -96 -128 0
-630 -129 65 0
-630 -129 -97 0
-630 129 -65 97 0
-630 -130 66 0
-630 -130 -98 0
-630 130 -66 98 0
-630 -131 67 0
-630 -131 -99 0
-630 131 -67 99 0
-630 -132 68 0
-630 -132 -100 0
-630 132 -68 100 0
-630 -133 69 0
-630 -133 -101 0
-630 133 -69 101 0
-630 -134 70 0
-630 -134 -102 0
-630 134 -70 102 0
-630 -135 71 0
-630 -135 -103 0
-630 135 -71 103 0
-630 -136 72 0
-630 -136 -104 0
-630 136 -72 104 0
-630 -137 73 0
-630 -137 -105 0
-630 137 -73 105 0
-630 -138 74 0
-630 -138 -106 0
-630 138 -74 106 0
-630 -139 75 0
-630 -139 -107 0
-630 139 -75 107 0
-630 -140 76 0
-630 -140 -108 0
-630 140 -76 108 0
-630 -141 77 0
-630 -141 -109 0
-630 141 -77 109 0
-630 -142 78 0
-630 -142 -110 0
-630 142 -78 110 0
-630 -143 79 0
-630 -143 -111 0
-630 143 -79 111 0
-630 -144 80 0
-630 -144 -112 0
-630 144 -80 112 0
-630 -145 81 0
-630 -145 -113 0
-630 145 -81 113 0
-630 -146 82 0
-630 -146 -114 0
-630 146 -82 114 0
-630 -147 83 0
-630 -147 -115 0
-630 147 -83 115 0
-630 -148 84 0
-630 -148 -116 0
-630 148 -84 116 0
-630 -149 85 0
-630 -149 -117 0
-630 149 -85 117 0
-630 -150 86 0
-630 -150 -118 0
-630 150 -86 118 0
-630 -151 87 0
-630 -151 -119 0
-630 151 -87 119 0
-630 -152 88 0
-630 -152 -120 0
-630 152 -88 120 0
-630 -153 89 0
-630 -153 -121 0
-630 153 -89 121 0
-630 -154 90 0
-630 -154 -122 0
-630 154 -90 122 0
-630 -155 91 0
-630 -155 -123 0
-630 155 -91 123 0
-630 -156 92 0
-630 -156 -124 0
-630 156 -92 124 0
-630 -157 93 0
-630 -157 -125 0
-630 157 -93 125 0
-630 -158 94 0
-630 -158 -126 0
-630 158 -94 126 0
-630 -159 95 0
-630 -159 -127 0
-630 159 -95 127 0
-630 -160 96 0
-630 -160 -128 0
-630 160 -96 128 0
-631 -129 -65 0
-631 -129 97 0
-631 129 65 -97 0
-631 -130 -66 0
-631 -130 98 0
-631 130 66 -98 0
-631 -131 -67 0
-631 -131 99 0
-631 131 67 -99 0
-631 -132 -68 0
-631 -132 100 0
-631 132 68 -100 0
-631 -133 -69 0
-631 -133 101 0
-631 133 69 -101 0
-631 -134 -70 0
-631 -134 102 0
-631 134 70 -102 0
-631 -135 -71 0
-631 -135 103 0
-631 135 71 -103 0
-631 -136 -72 0
-631 -136 104 0
-631 136 72 -104 0
-631 -137 -73 0
-631 -137 105 0
-631 137 73 -105 0
-631 -138 -74 0
-631 -138 106 0
-631 138 74 -106 0
-631 -139 -75 0
-631 -139 107 0
-631 139 75 -107 0
-631 -140 -76 0
-631 -140 108 0
-631 140 76 -108 0
-631 -141 -77 0
-631 -141 109 0
-631 141 77 -109 0
-631 -142 -78 0
-631 -142 110 0
-631 142 78 -110 0
-631 -143 -79 0
-631 -143 111 0
-631 143 79 -111 0
-631 -144 -80 0
-631 -144 112 0
-631 144 80 -112 0
-631 -145 -81 0
-631 -145 113 0
-631 145 81 -113 0
-631 -146 -82 0
-631 -146 114 0
-631 146 82 -114 0
-631 -147 -83 0
-631 -147 115 0
-631 147 83 -115 0
-631 -148 -84 0
-631 -148 116 0
-631 148 84 -116 0
-631 -149 -85 0
-631 -149 117 0
-631 149 85 -117 0
-631 -150 -86 0
-631 -150 118 0
-631 150 86 -118 0
-631 -151 -87 0
-631 -151 119 0
-631 151 87 -119 0
-631 -152 -88 0
-631 -152 120 0
-631 152 88 -120 0
-631 -153 -89 0
-631 -153 121 0
-631 153 89 -121 0
-631 -154 -90 0
-631 -154 122 0
-631 154 90 -122 0
-631 -155 -91 0
-631 -155 123 0
-631 155 91 -123 0
-631 -156 -92 0
-631 -156 124 0
-631 156 92 -124 0
-631 -157 -93 0
-631 -157 125 0
-631 157 93 -125 0
-631 -158 -94 0
-631 -158 126 0
-631 158 94 -126 0
-631 -159 -95 0
-631 -159 127 0
-631 159 95 -127 0
-631 -160 -96 0
-631 -160 128 0
-631 160 96 -128 0
-632 -129 -65 0
-632 -129 -97 0
-632 129 65 97 0
-632 -130 -66 0
-632 -130 -98 0
-632 130 66 98 0
-632 -131 -67 0
-632 -131 -99 0
-632 131 67 99 0
-632 -132 -68 0
-632 -132 -100 0
-632 132 68 100 0
-632 -133 -69 0
-632 -133 -101 0
-632 133 69 101 0
-632 -134 -70 0
-632 -134 -102 0
-632 134 70 102 0
-632 -135 -71 0
-632 -135 -103 0
-632 135 71 103 0
-632 -136 -72 0
-632 -136 -104 0
-632 136 72 104 0
-632 -137 -73 0
-632 -137 -105 0
-632 137 73 105 0
-632 -138 -74 0
-632 -138 -106 0
-632 138 74 106 0
-632 -139 -75 0
-632 -139 -107 0
-632 139 75 107 0
-632 -140 -76 0
-632 -140 -108 0
-632 140 76 108 0
-632 -141 -77 0
-632 -141 -109 0
-632 141 77 109 0
-632 -142 -78 0
-632 -142 -110 0
-632 142 78 110 0
-632 -143 -79 0
-632 -143 -111 0
-632 143 79 111 0
-632 -144 -80 0
-632 -144 -112 0
-632 144 80 112 0
-632 -145 -81 0
-632 -145 -113 0
-632 145 81 113 0
-632 -146 -82 0
-632 -146 -114 0
-632 146 82 114 0
-632 -147 -83 0
-632 -147 -115 0
-632 147 83 115 0
-632 -148 -84 0
-632 -148 -116 0
-632 148 84 116 0
-632 -149 -85 0
-632 -149 -117 0
-632 149 85 117 0
-632 -150 -86 0
-632 -150 -118 0
-632 150 86 118 0
-632 -151 -87 0
-632 -151 -119 0
-632 151 87 119 0
-632 -152 -88 0
-632 -152 -120 0
-632 152 88 120 0
-632 -153 -89 0
-632 -153 -121 0
-632 153 89 121 0
-632 -154 -90 0
-632 -154 -122 0
-632 154 90 122 0
-632 -155 -91 0
-632 -155 -123 0
-632 155 91 123 0
-632 -156 -92 0
-632 -156 -124 0
-632 156 92 124 0
-632 -157 -93 0
-632 -157 -125 0
-632 157 93 125 0
-632 -158 -94 0
-632 -158 -126 0
-632 158 94 126 0
-632 -159 -95 0
-632 -159 -127 0
-632 159 95 127 0
-632 -160 -96 0
-632 -160 -128 0
-632 160 96 128 0
633 634 635 636 637 638 639 640 641 642 643 644 645 646 647 648 649 650 651 652 653 654 655 656 657 658 659 660 661 662 663 664 665 666 667 668 669 670 671 672 673 674 675 676 677 678 679 680 681 682 683 684 685 686 687 688 689 690 691 692 693 694 695 696 697 698 699 700 701 702 703 704 705 706 707 708 709 710 711 712 713 714 715 716 717 718 719 720 721 722 723 724 725 726 727 728 729 730 731 732 733 734 735 736 737 738 739 740 741 742 743 744 745 746 747 748 749 750 751 752 753 754 755 756 757 758 759 760 761 762 763 764 765 766 767 768 769 770 771 772 773 774 775 776 777 778 779 780 781 782 783 784 785 786 787 788 789 790 791 792 793 794 795 796 797 798 799 800 801 802 803 804 805 806 807 808 809 810 811 812 0
-633 -634 0
-633 -635 0
-633 -636 0
-633 -637 0
-633 -638 0
-633 -639 0
-633 -640 0
-633 -641 0
-633 -642 0
-633 -643 0
-633 -644 0
-633 -645 0
-633 -646 0
-633 -647 0
-633 -648 0
-633 -649 0
-633 -650 0
-633 -651 0
-633 -652 0
-633 -653 0
-633 -654 0
-633 -655 0
-633 -656 0
-633 -657 0
-633 -658 0
-633 -659 0
-633 -660 0
-633 -661 0
-633 -662 0
-633 -663 0
-633 -664 0
-633 -665 0
-633 -666 0
-633 -667 0
-633 -668 0
-633 -669 0
-633 -670 0
-633 -671 0
-633 -672 0
-633 -673 0
-633 -674 0
-633 -675 0
-633 -676 0
-633 -677 0
-633 -678 0
-633 -679 0
-633 -680 0
-633 -681 0
-633 -682 0
-633 -683 0
-633 -684 0
-633 -685 0
-633 -686 0
-633 -687 0
-633 -688 0
-633 -689 0
-633 -690 0
-633 -691 0
-633 -692 0
-633 -693 0
-633 -694 0
-633 -695 0
-633 -696 0
-633 -697 0
-633 -698 0
-633 -699 0
-633 -700 0
-633 -701 0
-633 -702 0
-633 -703 0
-633 -704 0
-633 -705 0
-633 -706 0
-633 -707 0
-633 -708 0
-633 -709 0
-633 -710 0
-633 -711 0
-633 -712 0
-633 -713 0
-633 -714 0
-633 -715 0
-633 -716 0
-633 -717 0
-633 -718 0
-633 -719 0
-633 -720 0
-633 -721 0
-633 -722 0
-633 -723 0
-633 -724 0
-633 -725 0
-633 -726 0
-633 -727 0
-633 -728 0
-633 -729 0
-633 -730 0
-633 -731 0
-633 -732 0
-633 -733 0
-633 -734 0
-633 -735 0
-633 -736 0
-633 -737 0
-633 -738 0
-633 -739 0
-633 -740 0
-633 -741 0
-633 -742 0
-633 -743 0
-633 -744 0
-633 -745 0
-633 -746 0
-633 -747 0
-633 -748 0
-633 -749 0
-633 -750 0
-633 -751 0
-633 -752 0
-633 -753 0
-633 -754 0
-633 -755 0
-633 -756 0
-633 -757 0
-633 -758 0
-633 -759 0
-633 -760 0
-633 -761 0
-633 -762 0
-633 -763 0
-633 -764 0
-633 -765 0
-633 -766 0
-633 -767 0
-633 -768 0
-633 -769 0
-633 -770 0
-633 -771 0
-633 -772 0
-633 -773 0
-633 -774 0
-633 -775 0
-633 -776 0
-633 -777 0
-633 -778 0
-633 -779 0
-633 -780 0
-633 -781 0
-633 -782 0
-633 -783 0
-633 -784 0
-633 -785 0
-633 -786 0
-633 -787 0
-633 -788 0
-633 -789 0
-633 -790 0
-633 -791 0
-633 -792 0
-633 -793 0
-633 -794 0
-633 -795 0
-633 -796 0
-633 -797 0
-633 -798 0
-633 -799 0
-633 -800 0
-633 -801 0
-633 -802 0
-633 -803 0
-633 -804 0
-633 -805 0
-633 -806 0
-633 -807 0
-633 -808 0
-633 -809 0
-633 -810 0
-633 -811 0
-633 -812 0
-634 -635 0
-634 -636 0
-634 -637 0
-634 -638 0
-634 -639 0
-634 -640 0
-634 -641 0
-634 -642 0
-634 -643 0
-634 -644 0
-634 -645 0
-634 -646 0
-634 -647 0
-634 -648 0
-634 -649 0
-634 -650 0
-634 -651 0
-634 -652 0
-634 -653 0
-634 -654 0
-634 -655 0
-634 -656 0
-634 -657 0
-634 -658 0
-634 -659 0
-634 -660 0
-634 -661 0
-634 -662 0
-634 -663 0
-634 -664 0
-634 -665 0
-634 -666 0
-634 -667 0
-634 -668 0
-634 -669 0
-634 -670 0
-634 -671 0
-634 -672 0
-634 -673 0
-634 -674 0
-634 -675 0
-634 -676 0
-634 -677 0
-634 -678 0
-634 -679 0
-634 -680 0
-634 -681 0
-634 -682 0
-634 -683 0
-634 -684 0
-634 -685 0
-634 -686 0
-634 -687 0
-634 -688 0
-634 -689 0
-634 -690 0
-634 -691 0
-634 -692 0
-634 -693 0
-634 -694 0
-634 -695 0
-634 -696 0
-634 -697 0
-634 -698 0
-634 -699 0
-634 -700 0
-634 -701 0
-634 -702 0
-634 -703 0
-634 -704 0
-634 -705 0
-634 -706 0
-634 -707 0
-634 -708 0
-634 -709 0
-634 -710 0
-634 -711 0
-634 -712 0
-634 -713 0
-634 -714 0
-634 -715 0
-634 -716 0
-634 -717 0
-634 -718 0
-634 -719 0
-634 -720 0
-634 -721 0
-634 -722 0
-634 -723 0
-634 -724 0
-634 -725 0
-634 -726 0
-634 -727 0
-634 -728 0
-634 -729 0
-634 -730 0
-634 -731 0
-634 -732 0
-634 -733 0
-634 -734 0
-634 -735 0
-634 -736 0
-634 -737 0
-634 -738 0
-634 -739 0
-634 -740 0
-634 -741 0
-634 -742 0
-634 -743 0
-634 -744 0
-634 -745 0
-634 -746 0
-634 -747 0
-634 -748 0
-634 -749 0
-634 -750 0
-634 -751 0
-634 -752 0
-634 -753 0
-634 -754 0
-634 -755 0
-634 -756 0
-634 -757 0
-634 -758 0
-634 -759 0
-634 -760 0
-634 -761 0
-634 -762 0
-634 -763 0
-634 -764 0
-634 -765 0
-634 -766 0
-634 -767 0
-634 -768 0
-634 -769 0
-634 -770 0
-634 -771 0
-634 -772 0
-634 -773 0
-634 -774 0
-634 -775 0
-634 -776 0
-634 -777 0
-634 -778 0
-634 -779 0
-634 -780 0
-634 -781 0
-634 -782 0
-634 -783 0
-634 -784 0
-634 -785 0
-634 -786 0
-634 -787 0
-634 -788 0
-634 -789 0
-634 -790 0
-634 -791 0
-634 -792 0
-634 -793 0
-634 -794 0
-634 -795 0
-634 -796 0
-634 -797 0
-634 -798 0
-634 -799 0
-634 -800 0
-634 -801 0
-634 -802 0
-634 -803 0
-634 -804 0
-634 -805 0
-634 -806 0
-634 -807 0
-634 -808 0
-634 -809 0
-634 -810 0
-634 -811 0
-634 -812 0
-635 -636 0
-635 -637 0
-635 -638 0
-635 -639 0
-635 -640 0
-635 -641 0
-635 -642 0
-635 -643 0
-635 -644 0
-635 -645 0
-635 -646 0
-635 -647 0
-635 -648 0
-635 -649 0
-635 -650 0
-635 -651 0
-635 -652 0
-635 -653 0
-635 -654 0
-635 -655 0
-635 -656 0
-635 -657 0
-635 -658 0
-635 -659 0
-635 -660 0
-635 -661 0
-635 -662 0
-635 -663 0
-635 -664 0
-635 -665 0
-635 -666 0
-635 -667 0
-635 -668 0
-635 -669 0
-635 -670 0
-635 -671 0
-635 -672 0
-635 -673 0
-635 -674 0
-635 -675 0
-635 -676 0
-635 -677 0
-635 -678 0
-635 -679 0
-635 -680 0
-635 -681 0
-635 -682 0
-635 -683 0
-635 -684 0
-635 -685 0
-635 -686 0
-635 -687 0
-635 -688 0
-635 -689 0
-635 -690 0
-635 -691 0
-635 -692 0
-635 -693 0
-635 -694 0
-635 -695 0
-635 -696 0
-635 -697 0
-635 -698 0
-635 -699 0
-635 -700 0
-635 -701 0
-635 -702 0
-635 -703 0
-635 -704 0
-635 -705 0
-635 -706 0
-635 -707 0
-635 -708 0
-635 -709 0
-635 -710 0
-635 -711 0
-635 -712 0
-635 -713 0
-635 -714 0
-635 -715 0
-635 -716 0
-635 -717 0
-635 -718 0
-635 -719 0
-635 -720 0
-635 -721 0
-635 -722 0
-635 -723 0
-635 -724 0
-635 -725 0
-635 -726 0
-635 -727 0
-635 -728 0
-635 -729 0
-635 -730 0
-635 -731 0
-635 -732 0
-635 -733 0
-635 -734 0
-635 -735 0
-635 -736 0
-635 -737 0
-635 -738 0
-635 -739 0
-635 -740 0
-635 -741 0
-635 -742 0
-635 -743 0
-635 -744 0
-635 -745 0
-635 -746 0
-635 -747 0
-635 -748 0
-635 -749 0
-635 -750 0
-635 -751 0
-635 -752 0
-635 -753 0
-635 -754 0
-635 -755 0
-635 -756 0
-635 -757 0
-635 -758 0
-635 -759 0
-635 -760 0
-635 -761 0
-635 -762 0
-635 -763 0
-635 -764 0
-635 -765 0
-635 -766 0
-635 -767 0
-635 -768 0
-635 -769 0
-635 -770 0
-635 -771 0
-635 -772 0
-635 -773 0
-635 -774 0
-635 -775 0
-635 -776 0
-635 -777 0
-635 -778 0
-635 -779 0
-635 -780 0
-635 -781 0
-635 -782 0
-635 -783 0
-635 -784 0
-635 -785 0
-635 -786 0
-635 -787 0
-635 -788 0
-635 -789 0
-635 -790 0
-635 -791 0
-635 -792 0
-635 -793 0
-635 -794 0
-635 -795 0
-635 -796 0
-635 -797 0
-635 -798 0
-635 -799 0
-635 -800 0
-635 -801 0
-635 -802 0
-635 -803 0
-635 -804 0
-635 -805 0
-635 -806 0
-635 -807 0
-635 -808 0
-635 -809 0
-635 -810 0
-635 -811 0
-635 -812 0
-636 -637 0
-636 -638 0
-636 -639 0
-636 -640 0
-636 -641 0
-636 -642 0
-636 -643 0
-636 -644 0
-636 -645 0
-636 -646 0
-636 -647 0
-636 -648 0
-636 -649 0
-636 -650 0
-636 -651 0
-636 -652 0
-636 -653 0
-636 -654 0
-636 -655 0
-636 -656 0
-636 -657 0
-636 -658 0
-636 -659 0
-636 -660 0
-636 -661 0
-636 -662 0
-636 -663 0
-636 -664 0
-636 -665 0
-636 -666 0
-636 -667 0
-636 -668 0
-636 -669 0
-636 -670 0
-636 -671 0
-636 -672 0
-636 -673 0
-636 -674 0
-636 -675 0
-636 -676 0
-636 -677 0
-636 -678 0
-636 -679 0
-636 -680 0
-636 -681 0
-636 -682 0
-636 -683 0
-636 -684 0
-636 -685 0
-636 -686 0
-636 -687 0
-636 -688 0
-636 -689 0
-636 -690 0
-636 -691 0
-636 -692 0
-636 -693 0
-636 -694 0
-636 -695 0
-636 -696 0
-636 -697 0
-636 -698 0
-636 -699 0
-636 -700 0
-636 -701 0
-636 -702 0
-636 -703 0
-636 -704 0
-636 -705 0
-636 -706 0
-636 -707 0
-636 -708 0
-636 -709 0
-636 -710 0
-636 -711 0
-636 -712 0
-636 -713 0
-636 -714 0
-636 -715 0
-636 -716 0
-636 -717 0
-636 -718 0
-636 -719 0
-636 -720 0
-636 -721 0
-636 -722 0
-636 -723 0
-636 -724 0
-636 -725 0
-636 -726 0
-636 -727 0
-636 -728 0
-636 -729 0
-636 -730 0
-636 -731 0
-636 -732 0
-636 -733 0
-636 -734 0
-636 -735 0
-636 -736 0
-636 -737 0
-636 -738 0
-636 -739 0
-636 -740 0
-636 -741 0
-636 -742 0
-636 -743 0
-636 -744 0
-636 -745 0
-636 -746 0
-636 -747 0
-636 -748 0
-636 -749 0
-636 -750 0
-636 -751 0
-636 -752 0
-636 -753 0
-636 -754 0
-636 -755 0
-636 -756 0
-636 -757 0
-636 -758 0
-636 -759 0
-636 -760 0
-636 -761 0
-636 -762 0
-636 -763 0
-636 -764 0
-636 -765 0
-636 -766 0
-636 -767 0
-636 -768 0
-636 -769 0
-636 -770 0
-636 -771 0
-636 -772 0
-636 -773 0
-636 -774 0
-636 -775 0
-636 -776 0
-636 -777 0
-636 -778 0
-636 -779 0
-636 -780 0
-636 -781 0
-636 -782 0
-636 -783 0
-636 -784 0
-636 -785 0
-636 -786 0
-636 -787 0
-636 -788 0
-636 -789 0
-636 -790 0
-636 -791 0
-636 -792 0
-636 -793 0
-636 -794 0
-636 -795 0
-636 -796 0
-636 -797 0
-636 -798 0
-636 -799 0
-636 -800 0
-636 -801 0
-636 -802 0
-636 -803 0
-636 -804 0
-636 -805 0
-636 -806 0
-636 -807 0
-636 -808 0
-636 -809 0
-636 -810 0
-636 -811 0
-636 -812 0
-637 -638 0
-637 -639 0
-637 -640 0
-637 -641 0
-637 -642 0
-637 -643 0
-637 -644 0
-637 -645 0
-637 -646 0
-637 -647 0
-637 -648 0
-637 -649 0
-637 -650 0
-637 -651 0
-637 -652 0
-637 -653 0
-637 -654 0
-637 -655 0
-637 -656 0
-637 -657 0
-637 -658 0
-637 -659 0
-637 -660 0
-637 -661 0
-637 -662 0
-637 -663 0
-637 -664 0
-637 -665 0
-637 -666 0
-637 -667 0
-637 -668 0
-637 -669 0
-637 -670 0
-637 -671 0
-637 -672 0
-637 -673 0
-637 -674 0
-637 -675 0
-637 -676 0
-637 -677 0
-637 -678 0
-637 -679 0
-637 -680 0
-637 -681 0
-637 -682 0
-637 -683 0
-637 -684 0
-637 -685 0
-637 -686 0
-637 -687 0
-637 -688 0
-637 -689 0
-637 -690 0
-637 -691 0
-637 -692 0
-637 -693 0
-637 -694 0
-637 -695 0
-637 -696 0
-637 -697 0
-637 -698 0
-637 -699 0
-637 -700 0
-637 -701 0
-637 -702 0
-637 -703 0
-637 -704 0
-637 -705 0
-637 -706 0
-637 -707 0
-637 -708 0
-637 -709 0
-637 -710 0
-637 -711 0
-637 -712 0
-637 -713 0
-637 -714 0
-637 -715 0
-637 -716 0
-637 -717 0
-637 -718 0
-637 -719 0
-637 -720 0
-637 -721 0
-637 -722 0
-637 -723 0
-637 -724 0
-637 -725 0
-637 -726 0
-637 -727 0
-637 -728 0
-637 -729 0
-637 -730 0
-637 -731 0
-637 -732 0
-637 -733 0
-637 -734 0
-637 -735 0
-637 -736 0
-637 -737 0
-637 -738 0
-637 -739 0
-637 -740 0
-637 -741 0
-637 -742 0
-637 -743 0
-637 -744 0
-637 -745 0
-637 -746 0
-637 -747 0
-637 -748 0
-637 -749 0
-637 -750 0
-637 -751 0
-637 -752 0
-637 -753 0
-637 -754 0
-637 -755 0
-637 -756 0
-637 -757 0
-637 -758 0
-637 -759 0
-637 -760 0
-637 -761 0
-637 -762 0
-637 -763 0
-637 -764 0
-637 -765 0
-637 -766 0
-637 -767 0
-637 -768 0
-637 -769 0
-637 -770 0
-637 -771 0
-637 -772 0
-637 -773 0
-637 -774 0
-637 -775 0
-637 -776 0
-637 -777 0
-637 -778 0
-637 -779 0
-637 -780 0
-637 -781 0
-637 -782 0
-637 -783 0
-637 -784 0
-637 -785 0
-637 -786 0
-637 -787 0
-637 -788 0
-637 -789 0
-637 -790 0
-637 -791 0
-637 -792 0
-637 -793 0
-637 -794 0
-637 -795 0
-637 -796 0
-637 -797 0
-637 -798 0
-637 -799 0
-637 -800 0
-637 -801 0
-637 -802 0
-637 -803 0
-637 -804 0
-637 -805 0
-637 -806 0
-637 -807 0
-637 -808 0
-637 -809 0
-637 -810 0
-637 -811 0
-637 -812 0
-638 -639 0
-638 -640 0
-638 -641 0
-638 -642 0
-638 -643 0
-638 -644 0
-638 -645 0
-638 -646 0
-638 -647 0
-638 -648 0
-638 -649 0
-638 -650 0
-638 -651 0
-638 -652 0
-638 -653 0
-638 -654 0
-638 -655 0
-638 -656 0
-638 -657 0
-638 -658 0
-638 -659 0
-638 -660 0
-638 -661 0
-638 -662 0
-638 -663 0
-638 -664 0
-638 -665 0
-638 -666 0
-638 -667 0
-638 -668 0
-638 -669 0
-638 -670 0
-638 -671 0
-638 -672 0
-638 -673 0
-638 -674 0
-638 -675 0
-638 -676 0
-638 -677 0
-638 -678 0
-638 -679 0
-638 -680 0
-638 -681 0
-638 -682 0
-638 -683 0
-638 -684 0
-638 -685 0
-638 -686 0
-638 -687 0
-638 -688 0
-638 -689 0
-638 -690 0
-638 -691 0
-638 -692 0
-638 -693 0
-638 -694 0
-638 -695 0
-638 -696 0
-638 -697 0
-638 -698 0
-638 -699 0
-638 -700 0
-638 -701 0
-638 -702 0
-638 -703 0
-638 -704 0
-638 -705 0
-638 -706 0
-638 -707 0
-638 -708 0
-638 -709 0
-638 -710 0
-638 -711 0
-638 -712 0
-638 -713 0
-638 -714 0
-638 -715 0
-638 -716 0
-638 -717 0
-638 -718 0
-638 -719 0
-638 -720 0
-638 -721 0
-638 -722 0
-638 -723 0
-638 -724 0
-638 -725 0
-638 -726 0
-638 -727 0
-638 -728 0
-638 -729 0
-638 -730 0
-638 -731 0
-638 -732 0
-638 -733 0
-638 -734 0
-638 -735 0
-638 -736 0
-638 -737 0
-638 -738 0
-638 -739 0
-638 -740 0
-638 -741 0
-638 -742 0
-638 -743 0
-638 -744 0
-638 -745 0
-638 -746 0
-638 -747 0
-638 -748 0
-638 -749 0
-638 -750 0
-638 -751 0
-638 -752 0
-638 -753 0
-638 -754 0
-638 -755 0
-638 -756 0
-638 -757 0
-638 -758 0
-638 -759 0
-638 -760 0
-638 -761 0
-638 -762 0
-638 -763 0
-638 -764 0
-638 -765 0
-638 -766 0
-638 -767 0
-638 -768 0
-638 -769 0
-638 -770 0
-638 -771 0
-638 -772 0
-638 -773 0
-638 -774 0
-638 -775 0
-638 -776 0
-638 -777 0
-638 -778 0
-638 -779 0
-638 -780 0
-638 -781 0
-638 -782 0
-638 -783 0
-638 -784 0
-638 -785 0
-638 -786 0
-638 -787 0
-638 -788 0
-638 -789 0
-638 -790 0
-638 -791 0
-638 -792 0
-638 -793 0
-638 -794 0
-638 -795 0
-638 -796 0
-638 -797 0
-638 -798 0
-638 -799 0
-638 -800 0
-638 -801 0
-638 -802 0
-638 -803 0
-638 -804 0
-638 -805 0
-638 -806 0
-638 -807 0
-638 -808 0
-638 -809 0
-638 -810 0
-638 -811 0
-638 -812 0
-639 -640 0
-639 -641 0
-639 -642 0
-639 -643 0
-639 -644 0
-639 -645 0
-639 -646 0
-639 -647 0
-639 -648 0
-639 -649 0
-639 -650 0
-639 -651 0
-639 -652 0
-639 -653 0
-639 -654 0
-639 -655 0
-639 -656 0
-639 -657 0
-639 -658 0
-639 -659 0
-639 -660 0
-639 -661 0
-639 -662 0
-639 -663 0
-639 -664 0
-639 -665 0
-639 -666 0
-639 -667 0
-639 -668 0
-639 -669 0
-639 -670 0
-639 -671 0
-639 -672 0
-639 -673 0
-639 -674 0
-639 -675 0
-639 -676 0
-639 -677 0
-639 -678 0
-639 -679 0
-639 -680 0
-639 -681 0
-639 -682 0
-639 -683 0
-639 -684 0
-639 -685 0
-639 -686 0
-639 -687 0
-639 -688 0
-639 -689 0
-639 -690 0
-639 -691 0
-639 -692 0
-639 -693 0
-639 -694 0
-639 -695 0
-639 -696 0
-639 -697 0
-639 -698 0
-639 -699 0
-639 -700 0
-639 -701 0
-639 -702 0
-639 -703 0
-639 -704 0
-639 -705 0
-639 -706 0
-639 -707 0
-639 -708 0
-639 -709 0
-639 -710 0
-639 -711 0
-639 -712 0
-639 -713 0
-639 -714 0
-639 -715 0
-639 -716 0
-639 -717 0
-639 -718 0
-639 -719 0
-639 -720 0
-639 -721 0
-639 -722 0
-639 -723 0
-639 -724 0
-639 -725 0
-639 -726 0
-639 -727 0
-639 -728 0
-639 -729 0
-639 -730 0
-639 -731 0
-639 -732 0
-639 -733 0
-639 -734 0
-639 -735 0
-639 -736 0
-639 -737 0
-639 -738 0
-639 -739 0
-639 -740 0
-639 -741 0
-639 -742 0
-639 -743 0
-639 -744 0
-639 -745 0
-639 -746 0
-639 -747 0
-639 -748 0
-639 -749 0
-639 -750 0
-639 -751 0
-639 -752 0
-639 -753 0
-639 -754 0
-639 -755 0
-639 -756 0
-639 -757 0
-639 -758 0
-639 -759 0
-639 -760 0
-639 -761 0
-639 -762 0
-639 -763 0
-639 -764 0
-639 -765 0
-639 -766 0
-639 -767 0
-639 -768 0
-639 -769 0
-639 -770 0
-639 -771 0
-639 -772 0
-639 -773 0
-639 -774 0
-639 -775 0
-639 -776 0
-639 -777 0
-639 -778 0
-639 -779 0
-639 -780 0
-639 -781 0
-639 -782 0
-639 -783 0
-639 -784 0
-639 -785 0
-639 -786 0
-639 -787 0
-639 -788 0
-639 -789 0
-639 -790 0
-639 -791 0
-639 -792 0
-639 -793 0
-639 -794 0
-639 -795 0
-639 -796 0
-639 -797 0
-639 -798 0
-639 -799 0
-639 -800 0
-639 -801 0
-639 -802 0
-639 -803 0
-639 -804 0
-639 -805 0
-639 -806 0
-639 -807 0
-639 -808 0
-639 -809 0
-639 -810 0
-639 -811 0
-639 -812 0
-640 -641 0
-640 -642 0
-640 -643 0
-640 -644 0
-640 -645 0
-640 -646 0
-640 -647 0
-640 -648 0
-640 -649 0
-640 -650 0
-640 -651 0
-640 -652 0
-640 -653 0
-640 -654 0
-640 -655 0
-640 -656 0
-640 -657 0
-640 -658 0
-640 -659 0
-640 -660 0
-640 -661 0
-640 -662 0
-640 -663 0
-640 -664 0
-640 -665 0
-640 -666 0
-640 -667 0
-640 -668 0
-640 -669 0
-640 -670 0
-640 -671 0
-640 -672 0
-640 -673 0
-640 -674 0
-640 -675 0
-640 -676 0
-640 -677 0
-640 -678 0
-640 -679 0
-640 -680 0
-640 -681 0
-640 -682 0
-640 -683 0
-640 -684 0
-640 -685 0
-640 -686 0
-640 -687 0
-640 -688 0
-640 -689 0
-640 -690 0
-640 -691 0
-640 -692 0
-640 -693 0
-640 -694 0
-640 -695 0
-640 -696 0
-640 -697 0
-640 -698 0
-640 -699 0
-640 -700 0
-640 -701 0
-640 -702 0
-640 -703 0
-640 -704 0
-640 -705 0
-640 -706 0
-640 -707 0
-640 -708 0
-640 -709 0
-640 -710 0
-640 -711 0
-640 -712 0
-640 -713 0
-640 -714 0
-640 -715 0
-640 -716 0
-640 -717 0
-640 -718 0
-640 -719 0
-640 -720 0
-640 -721 0
-640 -722 0
-640 -723 0
-640 -724 0
-640 -725 0
-640 -726 0
-640 -727 0
-640 -728 0
-640 -729 0
-640 -730 0
-640 -731 0
-640 -732 0
-640 -733 0
-640 -734 0
-640 -735 0
-640 -736 0
-640 -737 0
-640 -738 0
-640 -739 0
-640 -740 0
-640 -741 0
-640 -742 0
-640 -743 0
-640 -744 0
-640 -745 0
-640 -746 0
-640 -747 0
-640 -748 0
-640 -749 0
-640 -750 0
-640 -751 0
-640 -752 0
-640 -753 0
-640 -754 0
-640 -755 0
-640 -756 0
-640 -757 0
-640 -758 0
-640 -759 0
-640 -760 0
-640 -761 0
-640 -762 0
-640 -763 0
-640 -764 0
-640 -765 0
-640 -766 0
-640 -767 0
-640 -768 0
-640 -769 0
-640 -770 0
-640 -771 0
-640 -772 0
-640 -773 0
-640 -774 0
-640 -775 0
-640 -776 0
-640 -777 0
-640 -778 0
-640 -779 0
-640 -780 0
-640 -781 0
-640 -782 0
-640 -783 0
-640 -784 0
-640 -785 0
-640 -786 0
-640 -787 0
-640 -788 0
-640 -789 0
-640 -790 0
-640 -791 0
-640 -792 0
-640 -793 0
-640 -794 0
-640 -795 0
-640 -796 0
-640 -797 0
-640 -798 0
-640 -799 0
-640 -800 0
-640 -801 0
-640 -802 0
-640 -803 0
-640 -804 0
-640 -805 0
-640 -806 0
-640 -807 0
-640 -808 0
-640 -809 0
-640 -810 0
-640 -811 0
-640 -812 0
-641 -642 0
-641 -643 0
-641 -644 0
-641 -645 0
-641 -646 0
-641 -647 0
-641 -648 0
-641 -649 0
-641 -650 0
-641 -651 0
-641 -652 0
-641 -653 0
-641 -654 0
-641 -655 0
-641 -656 0
-641 -657 0
-641 -658 0
-641 -659 0
-641 -660 0
-641 -661 0
-641 -662 0
-641 -663 0
-641 -664 0
-641 -665 0
-641 -666 0
-641 -667 0
-641 -668 0
-641 -669 0
-641 -670 0
-641 -671 0
-641 -672 0
-641 -673 0
-641 -674 0
-641 -675 0
-641 -676 0
-641 -677 0
-641 -678 0
-641 -679 0
-641 -680 0
-641 -681 0
-641 -682 0
-641 -683 0
-641 -684 0
-641 -685 0
-641 -686 0
-641 -687 0
-641 -688 0
-641 -689 0
-641 -690 0
-641 -691 0
-641 -692 0
-641 -693 0
-641 -694 0
-641 -695 0
-641 -696 0
-641 -697 0
-641 -698 0
-641 -699 0
-641 -700 0
-641 -701 0
-641 -702 0
-641 -703 0
-641 -704 0
-641 -705 0
-641 -706 0
-641 -707 0
-641 -708 0
-641 -709 0
-641 -710 0
-641 -711 0
-641 -712 0
-641 -713 0
-641 -714 0
-641 -715 0
-641 -716 0
-641 -717 0
-641 -718 0
-641 -719 0
-641 -720 0
-641 -721 0
-641 -722 0
-641 -723 0
-641 -724 0
-641 -725 0
-641 -726 0
-641 -727 0
-641 -728 0
-641 -729 0
-641 -730 0
-641 -731 0
-641 -732 0
-641 -733 0
-641 -734 0
-641 -735 0
-641 -736 0
-641 -737 0
-641 -738 0
-641 -739 0
-641 -740 0
-641 -741 0
-641 -742 0
-641 -743 0
-641 -744 0
-641 -745 0
-641 -746 0
-641 -747 0
-641 -748 0
-641 -749 0
-641 -750 0
-641 -751 0
-641 -752 0
-641 -753 0
-641 -754 0
-641 -755 0
-641 -756 0
-641 -757 0
-641 -758 0
-641 -759 0
-641 -760 0
-641 -761 0
-641 -762 0
-641 -763 0
-641 -764 0
-641 -765 0
-641 -766 0
-641 -767 0
-641 -768 0
-641 -769 0
-641 -770 0
-641 -771 0
-641 -772 0
-641 -773 0
-641 -774 0
-641 -775 0
-641 -776 0
-641 -777 0
-641 -778 0
-641 -779 0
-641 -780 0
-641 -781 0
-641 -782 0
-641 -783 0
-641 -784 0
-641 -785 0
-641 -786 0
-641 -787 0
-641 -788 0
-641 -789 0
-641 -790 0
-641 -791 0
-641 -792 0
-641 -793 0
-641 -794 0
-641 -795 0
-641 -796 0
-641 -797 0
-641 -798 0
-641 -799 0
-641 -800 0
-641 -801 0
-641 -802 0
-641 -803 0
-641 -804 0
-641 -805 0
-641 -806 0
-641 -807 0
-641 -808 0
-641 -809 0
-641 -810 0
-641 -811 0
-641 -812 0
-642 -643 0
-642 -644 0
-642 -645 0
-642 -646 0
-642 -647 0
-642 -648 0
-642 -649 0
-642 -650 0
-642 -651 0
-642 -652 0
-642 -653 0
-642 -654 0
-642 -655 0
-642 -656 0
-642 -657 0
-642 -658 0
-642 -659 0
-642 -660 0
-642 -661 0
-642 -662 0
-642 -663 0
-642 -664 0
-642 -665 0
-642 -666 0
-642 -667 0
-642 -668 0
-642 -669 0
-642 -670 0
-642 -671 0
-642 -672 0
-642 -673 0
-642 -674 0
-642 -675 0
-642 -676 0
-642 -677 0
-642 -678 0
-642 -679 0
-642 -680 0
-642 -681 0
-642 -682 0
-642 -683 0
-642 -684 0
-642 -685 0
-642 -686 0
-642 -687 0
-642 -688 0
-642 -689 0
-642 -690 0
-642 -691 0
-642 -692 0
-642 -693 0
-642 -694 0
-642 -695 0
-642 -696 0
-642 -697 0
-642 -698 0
-642 -699 0
-642 -700 0
-642 -701 0
-642 -702 0
-642 -703 0
-642 -704 0
-642 -705 0
-642 -706 0
-642 -707 0
-642 -708 0
-642 -709 0
-642 -710 0
-642 -711 0
-642 -712 0
-642 -713 0
-642 -714 0
-642 -715 0
-642 -716 0
-642 -717 0
-642 -718 0
-642 -719 0
-642 -720 0
-642 -721 0
-642 -722 0
-642 -723 0
-642 -724 0
-642 -725 0
-642 -726 0
-642 -727 0
-642 -728 0
-642 -729 0
-642 -730 0
-642 -731 0
-642 -732 0
-642 -733 0
-642 -734 0
-642 -735 0
-642 -736 0
-642 -737 0
-642 -738 0
-642 -739 0
-642 -740 0
-642 -741 0
-642 -742 0
-642 -743 0
-642 -744 0
-642 -745 0
-642 -746 0
-642 -747 0
-642 -748 0
-642 -749 0
-642 -750 0
-642 -751 0
-642 -752 0
-642 -753 0
-642 -754 0
-642 -755 0
-642 -756 0
-642 -757 0
-642 -758 0
-642 -759 0
-642 -760 0
-642 -761 0
-642 -762 0
-642 -763 0
-642 -764 0
-642 -765 0
-642 -766 0
-642 -767 0
-642 -768 0
-642 -769 0
-642 -770 0
-642 -771 0
-642 -772 0
-642 -773 0
-642 -774 0
-642 -775 0
-642 -776 0
-642 -777 0
-642 -778 0
-642 -779 0
-642 -780 0
-642 -781 0
-642 -782 0
-642 -783 0
-642 -784 0
-642 -785 0
-642 -786 0
-642 -787 0
-642 -788 0
-642 -789 0
-642 -790 0
-642 -791 0
-642 -792 0
-642 -793 0
-642 -794 0
-642 -795 0
-642 -796 0
-642 -797 0
-642 -798 0
-642 -799 0
-642 -800 0
-642 -801 0
-642 -802 0
-642 -803 0
-642 -804 0
-642 -805 0
-642 -806 0
-642 -807 0
-642 -808 0
-642 -809 0
-642 -810 0
-642 -811 0
-642 -812 0
-643 -644 0
-643 -645 0
-643 -646 0
-643 -647 0
-643 -648 0
-643 -649 0
-643 -650 0
-643 -651 0
-643 -652 0
-643 -653 0
-643 -654 0
-643 -655 0
-643 -656 0
-643 -657 0
-643 -658 0
-643 -659 0
-643 -660 0
-643 -661 0
-643 -662 0
-643 -663 0
-643 -664 0
-643 -665 0
-643 -666 0
-643 -667 0
-643 -668 0
-643 -669 0
-643 -670 0
-643 -671 0
-643 -672 0
-643 -673 0
-643 -674 0
-643 -675 0
-643 -676 0
-643 -677 0
-643 -678 0
-643 -679 0
-643 -680 0
-643 -681 0
-643 -682 0
-643 -683 0
-643 -684 0
-643 -685 0
-643 -686 0
-643 -687 0
-643 -688 0
-643 -689 0
-643 -690 0
-643 -691 0
-643 -692 0
-643 -693 0
-643 -694 0
-643 -695 0
-643 -696 0
-643 -697 0
-643 -698 0
-643 -699 0
-643 -700 0
-643 -701 0
-643 -702 0
-643 -703 0
-643 -704 0
-643 -705 0
-643 -706 0
-643 -707 0
-643 -708 0
-643 -709 0
-643 -710 0
-643 -711 0
-643 -712 0
-643 -713 0
-643 -714 0
-643 -715 0
-643 -716 0
-643 -717 0
-643 -718 0
-643 -719 0
-643 -720 0
-643 -721 0
-643 -722 0
-643 -723 0
-643 -724 0
-643 -725 0
-643 -726 0
-643 -727 0
-643 -728 0
-643 -729 0
-643 -730 0
-643 -731 0
-643 -732 0
-643 -733 0
-643 -734 0
-643 -735 0
-643 -736 0
-643 -737 0
-643 -738 0
-643 -739 0
-643 -740 0
-643 -741 0
-643 -742 0
-643 -743 0
-643 -744 0
-643 -745 0
-643 -746 0
-643 -747 0
-643 -748 0
-643 -749 0
-643 -750 0
-643 -751 0
-643 -752 0
-643 -753 0
-643 -754 0
-643 -755 0
-643 -756 0
-643 -757 0
-643 -758 0
-643 -759 0
-643 -760 0
-643 -761 0
-643 -762 0
-643 -763 0
-643 -764 0
-643 -765 0
-643 -766 0
-643 -767 0
-643 -768 0
-643 -769 0
-643 -770 0
-643 -771 0
-643 -772 0
-643 -773 0
-643 -774 0
-643 -775 0
-643 -776 0
-643 -777 0
-643 -778 0
-643 -779 0
-643 -780 0
-643 -781 0
-643 -782 0
-643 -783 0
-643 -784 0
-643 -785 0
-643 -786 0
-643 -787 0
-643 -788 0
-643 -789 0
-643 -790 0
-643 -791 0
-643 -792 0
-643 -793 0
-643 -794 0
-643 -795 0
-643 -796 0
-643 -797 0
-643 -798 0
-643 -799 0
-643 -800 0
-643 -801 0
-643 -802 0
-643 -803 0
-643 -804 0
-643 -805 0
-643 -806 0
-643 -807 0
-643 -808 0
-643 -809 0
-643 -810 0
-643 -811 0
-643 -812 0
-644 -645 0
-644 -646 0
-644 -647 0
-644 -648 0
-644 -649 0
-644 -650 0
-644 -651 0
-644 -652 0
-644 -653 0
-644 -654 0
-644 -655 0
-644 -656 0
-644 -657 0
-644 -658 0
-644 -659 0
-644 -660 0
-644 -661 0
-644 -662 0
-644 -663 0
-644 -664 0
-644 -665 0
-644 -666 0
-644 -667 0
-644 -668 0
-644 -669 0
-644 -670 0
-644 -671 0
-644 -672 0
-644 -673 0
-644 -674 0
-644 -675 0
-644 -676 0
-644 -677 0
-644 -678 0
-644 -679 0
-644 -680 0
-644 -681 0
-644 -682 0
-644 -683 0
-644 -684 0
-644 -685 0
-644 -686 0
-644 -687 0
-644 -688 0
-644 -689 0
-644 -690 0
-644 -691 0
-644 -692 0
-644 -693 0
-644 -694 0
-644 -695 0
-644 -696 0
-644 -697 0
-644 -698 0
-644 -699 0
-644 -700 0
-644 -701 0
-644 -702 0
-644 -703 0
-644 -704 0
-644 -705 0
-644 -706 0
-644 -707 0
-644 -708 0
-644 -709 0
-644 -710 0
-644 -711 0
-644 -712 0
-644 -713 0
-644 -714 0
-644 -715 0
-644 -716 0
-644 -717 0
-644 -718 0
-644 -719 0
-644 -720 0
-644 -721 0
-644 -722 0
-644 -723 0
-644 -724 0
-644 -725 0
-644 -726 0
-644 -727 0
-644 -728 0
-644 -729 0
-644 -730 0
-644 -731 0
-644 -732 0
-644 -733 0
-644 -734 0
-644 -735 0
-644 -736 0
-644 -737 0
-644 -738 0
-644 -739 0
-644 -740 0
-644 -741 0
-644 -742 0
-644 -743 0
-644 -744 0
-644 -745 0
-644 -746 0
-644 -747 0
-644 -748 0
-644 -749 0
-644 -750 0
-644 -751 0
-644 -752 0
-644 -753 0
-644 -754 0
-644 -755 0
-644 -756 0
-644 -757 0
-644 -758 0
-644 -759 0
-644 -760 0
-644 -761 0
-644 -762 0
-644 -763 0
-644 -764 0
-644 -765 0
-644 -766 0
-644 -767 0
-644 -768 0
-644 -769 0
-644 -770 0
-644 -771 0
-644 -772 0
-644 -773 0
-644 -774 0
-644 -775 0
-644 -776 0
-644 -777 0
-644 -778 0
-644 -779 0
-644 -780 0
-644 -781 0
-644 -782 0
-644 -783 0
-644 -784 0
-644 -785 0
-644 -786 0
-644 -787 0
-644 -788 0
-644 -789 0
-644 -790 0
-644 -791 0
-644 -792 0
-644 -793 0
-644 -794 0
-644 -795 0
-644 -796 0
-644 -797 0
-644 -798 0
-644 -799 0
-644 -800 0
-644 -801 0
-644 -802 0
-644 -803 0
-644 -804 0
-644 -805 0
-644 -806 0
-644 -807 0
-644 -808 0
-644 -809 0
-644 -810 0
-644 -811 0
-644 -812 0
-645 -646 0
-645 -647 0
-645 -648 0
-645 -649 0
-645 -650 0
-645 -651 0
-645 -652 0
-645 -653 0
-645 -654 0
-645 -655 0
-645 -656 0
-645 -657 0
-645 -658 0
-645 -659 0
-645 -660 0
-645 -661 0
-645 -662 0
-645 -663 0
-645 -664 0
-645 -665 0
-645 -666 0
-645 -667 0
-645 -668 0
-645 -669 0
-645 -670 0
-645 -671 0
-645 -672 0
-645 -673 0
-645 -674 0
-645 -675 0
-645 -676 0
-645 -677 0
-645 -678 0
-645 -679 0
-645 -680 0
-645 -681 0
-645 -682 0
-645 -683 0
-645 -684 0
-645 -685 0
-645 -686 0
-645 -687 0
-645 -688 0
-645 -689 0
-645 -690 0
-645 -691 0
-645 -692 0
-645 -693 0
-645 -694 0
-645 -695 0
-645 -696 0
-645 -697 0
-645 -698 0
-645 -699 0
-645 -700 0
-645 -701 0
-645 -702 0
-645 -703 0
-645 -704 0
-645 -705 0
-645 -706 0
-645 -707 0
-645 -708 0
-645 -709 0
-645 -710 0
-645 -711 0
-645 -712 0
-645 -713 0
-645 -714 0
-645 -715 0
-645 -716 0
-645 -717 0
-645 -718 0
-645 -719 0
-645 -720 0
-645 -721 0
-645 -722 0
-645 -723 0
-645 -724 0
-645 -725 0
-645 -726 0
-645 -727 0
-645 -728 0
-645 -729 0
-645 -730 0
-645 -731 0
-645 -732 0
-645 -733 0
-645 -734 0
-645 -735 0
-645 -736 0
-645 -737 0
-645 -738 0
-645 -739 0
-645 -740 0
-645 -741 0
-645 -742 0
-645 -743 0
-645 -744 0
-645 -745 0
-645 -746 0
-645 -747 0
-645 -748 0
-645 -749 0
-645 -750 0
-645 -751 0
-645 -752 0
-645 -753 0
-645 -754 0
-645 -755 0
-645 -756 0
-645 -757 0
-645 -758 0
-645 -759 0
-645 -760 0
-645 -761 0
-645 -762 0
-645 -763 0
-645 -764 0
-645 -765 0
-645 -766 0
-645 -767 0
-645 -768 0
-645 -769 0
-645 -770 0
-645 -771 0
-645 -772 0
-645 -773 0
-645 -774 0
-645 -775 0
-645 -776 0
-645 -777 0
-645 -778 0
-645 -779 0
-645 -780 0
-645 -781 0
-645 -782 0
-645 -783 0
-645 -784 0
-645 -785 0
-645 -786 0
-645 -787 0
-645 -788 0
-645 -789 0
-645 -790 0
-645 -791 0
-645 -792 0
-645 -793 0
-645 -794 0
-645 -795 0
-645 -796 0
-645 -797 0
-645 -798 0
-645 -799 0
-645 -800 0
-645 -801 0
-645 -802 0
-645 -803 0
-645 -804 0
-645 -805 0
-645 -806 0
-645 -807 0
-645 -808 0
-645 -809 0
-645 -810 0
-645 -811 0
-645 -812 0
-646 -647 0
-646 -648 0
-646 -649 0
-646 -650 0
-646 -651 0
-646 -652 0
-646 -653 0
-646 -654 0
-646 -655 0
-646 -656 0
-646 -657 0
-646 -658 0
-646 -659 0
-646 -660 0
-646 -661 0
-646 -662 0
-646 -663 0
-646 -664 0
-646 -665 0
-646 -666 0
-646 -667 0
-646 -668 0
-646 -669 0
-646 -670 0
-646 -671 0
-646 -672 0
-646 -673 0
-646 -674 0
-646 -675 0
-646 -676 0
-646 -677 0
-646 -678 0
-646 -679 0
-646 -680 0
-646 -681 0
-646 -682 0
-646 -683 0
-646 -684 0
-646 -685 0
-646 -686 0
-646 -687 0
-646 -688 0
-646 -689 0
-646 -690 0
-646 -691 0
-646 -692 0
-646 -693 0
-646 -694 0
-646 -695 0
-646 -696 0
-646 -697 0
-646 -698 0
-646 -699 0
-646 -700 0
-646 -701 0
-646 -702 0
-646 -703 0
-646 -704 0
-646 -705 0
-646 -706 0
-646 -707 0
-646 -708 0
-646 -709 0
-646 -710 0
-646 -711 0
-646 -712 0
-646 -713 0
-646 -714 0
-646 -715 0
-646 -716 0
-646 -717 0
-646 -718 0
-646 -719 0
-646 -720 0
-646 -721 0
-646 -722 0
-646 -723 0
-646 -724 0
-646 -725 0
-646 -726 0
-646 -727 0
-646 -728 0
-646 -729 0
-646 -730 0
-646 -731 0
-646 -732 0
-646 -733 0
-646 -734 0
-646 -735 0
-646 -736 0
-646 -737 0
-646 -738 0
-646 -739 0
-646 -740 0
-646 -741 0
-646 -742 0
-646 -743 0
-646 -744 0
-646 -745 0
-646 -746 0
-646 -747 0
-646 -748 0
-646 -749 0
-646 -750 0
-646 -751 0
-646 -752 0
-646 -753 0
-646 -754 0
-646 -755 0
-646 -756 0
-646 -757 0
-646 -758 0
-646 -759 0
-646 -760 0
-646 -761 0
-646 -762 0
-646 -763 0
-646 -764 0
-646 -765 0
-646 -766 0
-646 -767 0
-646 -768 0
-646 -769 0
-646 -770 0
-646 -771 0
-646 -772 0
-646 -773 0
-646 -774 0
-646 -775 0
-646 -776 0
-646 -777 0
-646 -778 0
-646 -779 0
-646 -780 0
-646 -781 0
-646 -782 0
-646 -783 0
-646 -784 0
-646 -785 0
-646 -786 0
-646 -787 0
-646 -788 0
-646 -789 0
-646 -790 0
-646 -791 0
-646 -792 0
-646 -793 0
-646 -794 0
-646 -795 0
-646 -796 0
-646 -797 0
-646 -798 0
-646 -799 0
-646 -800 0
-646 -801 0
-646 -802 0
-646 -803 0
-646 -804 0
-646 -805 0
-646 -806 0
-646 -807 0
-646 -808 0
-646 -809 0
-646 -810 0
-646 -811 0
-646 -812 0
-647 -648 0
-647 -649 0
-647 -650 0
-647 -651 0
-647 -652 0
-647 -653 0
-647 -654 0
-647 -655 0
-647 -656 0
-647 -657 0
-647 -658 0
-647 -659 0
-647 -660 0
-647 -661 0
-647 -662 0
-647 -663 0
-647 -664 0
-647 -665 0
-647 -666 0
-647 -667 0
-647 -668 0
-647 -669 0
-647 -670 0
-647 -671 0
-647 -672 0
-647 -673 0
-647 -674 0
-647 -675 0
-647 -676 0
-647 -677 0
-647 -678 0
-647 -679 0
-647 -680 0
-647 -681 0
-647 -682 0
-647 -683 0
-647 -684 0
-647 -685 0
-647 -686 0
-647 -687 0
-647 -688 0
-647 -689 0
-647 -690 0
-647 -691 0
-647 -692 0
-647 -693 0
-647 -694 0
-647 -695 0
-647 -696 0
-647 -697 0
-647 -698 0
-647 -699 0
-647 -700 0
-647 -701 0
-647 -702 0
-647 -703 0
-647 -704 0
-647 -705 0
-647 -706 0
-647 -707 0
-647 -708 0
-647 -709 0
-647 -710 0
-647 -711 0
-647 -712 0
-647 -713 0
-647 -714 0
-647 -715 0
-647 -716 0
-647 -717 0
-647 -718 0
-647 -719 0
-647 -720 0
-647 -721 0
-647 -722 0
-647 -723 0
-647 -724 0
-647 -725 0
-647 -726 0
-647 -727 0
-647 -728 0
-647 -729 0
-647 -730 0
-647 -731 0
-647 -732 0
-647 -733 0
-647 -734 0
-647 -735 0
-647 -736 0
-647 -737 0
-647 -738 0
-647 -739 0
-647 -740 0
-647 -741 0
-647 -742 0
-647 -743 0
-647 -744 0
-647 -745 0
-647 -746 0
-647 -747 0
-647 -748 0
-647 -749 0
-647 -750 0
-647 -751 0
-647 -752 0
-647 -753 0
-647 -754 0
-647 -755 0
-647 -756 0
-647 -757 0
-647 -758 0
-647 -759 0
-647 -760 0
-647 -761 0
-647 -762 0
-647 -763 0
-647 -764 0
-647 -765 0
-647 -766 0
-647 -767 0
-647 -768 0
-647 -769 0
-647 -770 0
-647 -771 0
-647 -772 0
-647 -773 0
-647 -774 0
-647 -775 0
-647 -776 0
-647 -777 0
-647 -778 0
-647 -779 0
-647 -780 0
-647 -781 0
-647 -782 0
-647 -783 0
-647 -784 0
-647 -785 0
-647 -786 0
-647 -787 0
-647 -788 0
-647 -789 0
-647 -790 0
-647 -791 0
-647 -792 0
-647 -793 0
-647 -794 0
-647 -795 0
-647 -796 0
-647 -797 0
-647 -798 0
-647 -799 0
-647 -800 0
-647 -801 0
-647 -802 0
-647 -803 0
-647 -804 0
-647 -805 0
-647 -806 0
-647 -807 0
-647 -808 0
-647 -809 0
-647 -810 0
-647 -811 0
-647 -812 0
-648 -649 0
-648 -650 0
-648 -651 0
-648 -652 0
-648 -653 0
-648 -654 0
-648 -655 0
-648 -656 0
-648 -657 0
-648 -658 0
-648 -659 0
-648 -660 0
-648 -661 0
-648 -662 0
-648 -663 0
-648 -664 0
-648 -665 0
-648 -666 0
-648 -667 0
-648 -668 0
-648 -669 0
-648 -670 0
-648 -671 0
-648 -672 0
-648 -673 0
-648 -674 0
-648 -675 0
-648 -676 0
-648 -677 0
-648 -678 0
-648 -679 0
-648 -680 0
-648 -681 0
-648 -682 0
-648 -683 0
-648 -684 0
-648 -685 0
-648 -686 0
-648 -687 0
-648 -688 0
-648 -689 0
-648 -690 0
-648 -691 0
-648 -692 0
-648 -693 0
-648 -694 0
-648 -695 0
-648 -696 0
-648 -697 0
-648 -698 0
-648 -699 0
-648 -700 0
-648 -701 0
-648 -702 0
-648 -703 0
-648 -704 0
-648 -705 0
-648 -706 0
-648 -707 0
-648 -708 0
-648 -709 0
-648 -710 0
-648 -711 0
-648 -712 0
-648 -713 0
-648 -714 0
-648 -715 0
-648 -716 0
-648 -717 0
-648 -718 0
-648 -719 0
-648 -720 0
-648 -721 0
-648 -722 0
-648 -723 0
-648 -724 0
-648 -725 0
-648 -726 0
-648 -727 0
-648 -728 0
-648 -729 0
-648 -730 0
-648 -731 0
-648 -732 0
-648 -733 0
-648 -734 0
-648 -735 0
-648 -736 0
-648 -737 0
-648 -738 0
-648 -739 0
-648 -740 0
-648 -741 0
-648 -742 0
-648 -743 0
-648 -744 0
-648 -745 0
-648 -746 0
-648 -747 0
-648 -748 0
-648 -749 0
-648 -750 0
-648 -751 0
-648 -752 0
-648 -753 0
-648 -754 0
-648 -755 0
-648 -756 0
-648 -757 0
-648 -758 0
-648 -759 0
-648 -760 0
-648 -761 0
-648 -762 0
-648 -763 0
-648 -764 0
-648 -765 0
-648 -766 0
-648 -767 0
-648 -768 0
-648 -769 0
-648 -770 0
-648 -771 0
-648 -772 0
-648 -773 0
-648 -774 0
-648 -775 0
-648 -776 0
-648 -777 0
-648 -778 0
-648 -779 0
-648 -780 0
-648 -781 0
-648 -782 0
-648 -783 0
-648 -784 0
-648 -785 0
-648 -786 0
-648 -787 0
-648 -788 0
-648 -789 0
-648 -790 0
-648 -791 0
-648 -792 0
-648 -793 0
-648 -794 0
-648 -795 0
-648 -796 0
-648 -797 0
-648 -798 0
-648 -799 0
-648 -800 0
-648 -801 0
-648 -802 0
-648 -803 0
-648 -804 0
-648 -805 0
-648 -806 0
-648 -807 0
-648 -808 0
-648 -809 0
-648 -810 0
-648 -811 0
-648 -812 0
-649 -650 0
-649 -651 0
-649 -652 0
-649 -653 0
-649 -654 0
-649 -655 0
-649 -656 0
-649 -657 0
-649 -658 0
-649 -659 0
-649 -660 0
-649 -661 0
-649 -662 0
-649 -663 0
-649 -664 0
-649 -665 0
-649 -666 0
-649 -667 0
-649 -668 0
-649 -669 0
-649 -670 0
-649 -671 0
-649 -672 0
-649 -673 0
-649 -674 0
-649 -675 0
-649 -676 0
-649 -677 0
-649 -678 0
-649 -679 0
-649 -680 0
-649 -681 0
-649 -682 0
-649 -683 0
-649 -684 0
-649 -685 0
-649 -686 0
-649 -687 0
-649 -688 0
-649 -689 0
-649 -690 0
-649 -691 0
-649 -692 0
-649 -693 0
-649 -694 0
-649 -695 0
-649 -696 0
-649 -697 0
-649 -698 0
-649 -699 0
-649 -700 0
-649 -701 0
-649 -702 0
-649 -703 0
-649 -704 0
-649 -705 0
-649 -706 0
-649 -707 0
-649 -708 0
-649 -709 0
-649 -710 0
-649 -711 0
-649 -712 0
-649 -713 0
-649 -714 0
-649 -715 0
-649 -716 0
-649 -717 0
-649 -718 0
-649 -719 0
-649 -720 0
-649 -721 0
-649 -722 0
-649 -723 0
-649 -724 0
-649 -725 0
-649 -726 0
-649 -727 0
-649 -728 0
-649 -729 0
-649 -730 0
-649 -731 0
-649 -732 0
-649 -733 0
-649 -734 0
-649 -735 0
-649 -736 0
-649 -737 0
-649 -738 0
-649 -739 0
-649 -740 0
-649 -741 0
-649 -742 0
-649 -743 0
-649 -744 0
-649 -745 0
-649 -746 0
-649 -747 0
-649 -748 0
-649 -749 0
-649 -750 0
-649 -751 0
-649 -752 0
-649 -753 0
-649 -754 0
-649 -755 0
-649 -756 0
-649 -757 0
-649 -758 0
-649 -759 0
-649 -760 0
-649 -761 0
-649 -762 0
-649 -763 0
-649 -764 0
-649 -765 0
-649 -766 0
-649 -767 0
-649 -768 0
-649 -769 0
-649 -770 0
-649 -771 0
-649 -772 0
-649 -773 0
-649 -774 0
-649 -775 0
-649 -776 0
-649 -777 0
-649 -778 0
-649 -779 0
-649 -780 0
-649 -781 0
-649 -782 0
-649 -783 0
-649 -784 0
-649 -785 0
-649 -786 0
-649 -787 0
-649 -788 0
-649 -789 0
-649 -790 0
-649 -791 0
-649 -792 0
-649 -793 0
-649 -794 0
-649 -795 0
-649 -796 0
-649 -797 0
-649 -798 0
-649 -799 0
-649 -800 0
-649 -801 0
-649 -802 0
-649 -803 0
-649 -804 0
-649 -805 0
-649 -806 0
-649 -807 0
-649 -808 0
-649 -809 0
-649 -810 0
-649 -811 0
-649 -812 0
-650 -651 0
-650 -652 0
-650 -653 0
-650 -654 0
-650 -655 0
-650 -656 0
-650 -657 0
-650 -658 0
-650 -659 0
-650 -660 0
-650 -661 0
-650 -662 0
-650 -663 0
-650 -664 0
-650 -665 0
-650 -666 0
-650 -667 0
-650 -668 0
-650 -669 0
-650 -670 0
-650 -671 0
-650 -672 0
-650 -673 0
-650 -674 0
-650 -675 0
-650 -676 0
-650 -677 0
-650 -678 0
-650 -679 0
-650 -680 0
-650 -681 0
-650 -682 0
-650 -683 0
-650 -684 0
-650 -685 0
-650 -686 0
-650 -687 0
-650 -688 0
-650 -689 0
-650 -690 0
-650 -691 0
-650 -692 0
-650 -693 0
-650 -694 0
-650 -695 0
-650 -696 0
-650 -697 0
-650 -698 0
-650 -699 0
-650 -700 0
-650 -701 0
-650 -702 0
-650 -703 0
-650 -704 0
-650 -705 0
-650 -706 0
-650 -707 0
-650 -708 0
-650 -709 0
-650 -710 0
-650 -711 0
-650 -712 0
-650 -713 0
-650 -714 0
-650 -715 0
-650 -716 0
-650 -717 0
-650 -718 0
-650 -719 0
-650 -720 0
-650 -721 0
-650 -722 0
-650 -723 0
-650 -724 0
-650 -725 0
-650 -726 0
-650 -727 0
-650 -728 0
-650 -729 0
-650 -730 0
-650 -731 0
-650 -732 0
-650 -733 0
-650 -734 0
-650 -735 0
-650 -736 0
-650 -737 0
-650 -738 0
-650 -739 0
-650 -740 0
-650 -741 0
-650 -742 0
-650 -743 0
-650 -744 0
-650 -745 0
-650 -746 0
-650 -747 0
-650 -748 0
-650 -749 0
-650 -750 0
-650 -751 0
-650 -752 0
-650 -753 0
-650 -754 0
-650 -755 0
-650 -756 0
-650 -757 0
-650 -758 0
-650 -759 0
-650 -760 0
-650 -761 0
-650 -762 0
-650 -763 0
-650 -764 0
-650 -765 0
-650 -766 0
-650 -767 0
-650 -768 0
-650 -769 0
-650 -770 0
-650 -771 0
-650 -772 0
-650 -773 0
-650 -774 0
-650 -775 0
-650 -776 0
-650 -777 0
-650 -778 0
-650 -779 0
-650 -780 0
-650 -781 0
-650 -782 0
-650 -783 0
-650 -784 0
-650 -785 0
-650 -786 0
-650 -787 0
-650 -788 0
-650 -789 0
-650 -790 0
-650 -791 0
-650 -792 0
-650 -793 0
-650 -794 0
-650 -795 0
-650 -796 0
-650 -797 0
-650 -798 0
-650 -799 0
-650 -800 0
-650 -801 0
-650 -802 0
-650 -803 0
-650 -804 0
-650 -805 0
-650 -806 0
-650 -807 0
-650 -808 0
-650 -809 0
-650 -810 0
-650 -811 0
-650 -812 0
-651 -652 0
-651 -653 0
-651 -654 0
-651 -655 0
-651 -656 0
-651 -657 0
-651 -658 0
-651 -659 0
-651 -660 0
-651 -661 0
-651 -662 0
-651 -663 0
-651 -664 0
-651 -665 0
-651 -666 0
-651 -667 0
-651 -668 0
-651 -669 0
-651 -670 0
-651 -671 0
-651 -672 0
-651 -673 0
-651 -674 0
-651 -675 0
-651 -676 0
-651 -677 0
-651 -678 0
-651 -679 0
-651 -680 0
-651 -681 0
-651 -682 0
-651 -683 0
-651 -684 0
-651 -685 0
-651 -686 0
-651 -687 0
-651 -688 0
-651 -689 0
-651 -690 0
-651 -691 0
-651 -692 0
-651 -693 0
-651 -694 0
-651 -695 0
-651 -696 0
-651 -697 0
-651 -698 0
-651 -699 0
-651 -700 0
-651 -701 0
-651 -702 0
-651 -703 0
-651 -704 0
-651 -705 0
-651 -706 0
-651 -707 0
-651 -708 0
-651 -709 0
-651 -710 0
-651 -711 0
-651 -712 0
-651 -713 0
-651 -714 0
-651 -715 0
-651 -716 0
-651 -717 0
-651 -718 0
-651 -719 0
-651 -720 0
-651 -721 0
-651 -722 0
-651 -723 0
-651 -724 0
-651 -725 0
-651 -726 0
-651 -727 0
-651 -728 0
-651 -729 0
-651 -730 0
-651 -731 0
-651 -732 0
-651 -733 0
-651 -734 0
-651 -735 0
-651 -736 0
-651 -737 0
-651 -738 0
-651 -739 0
-651 -740 0
-651 -741 0
-651 -742 0
-651 -743 0
-651 -744 0
-651 -745 0
-651 -746 0
-651 -747 0
-651 -748 0
-651 -749 0
-651 -750 0
-651 -751 0
-651 -752 0
-651 -753 0
-651 -754 0
-651 -755 0
-651 -756 0
-651 -757 0
-651 -758 0
-651 -759 0
-651 -760 0
-651 -761 0
-651 -762 0
-651 -763 0
-651 -764 0
-651 -765 0
-651 -766 0
-651 -767 0
-651 -768 0
-651 -769 0
-651 -770 0
-651 -771 0
-651 -772 0
-651 -773 0
-651 -774 0
-651 -775 0
-651 -776 0
-651 -777 0
-651 -778 0
-651 -779 0
-651 -780 0
-651 -781 0
-651 -782 0
-651 -783 0
-651 -784 0
-651 -785 0
-651 -786 0
-651 -787 0
-651 -788 0
-651 -789 0
-651 -790 0
-651 -791 0
-651 -792 0
-651 -793 0
-651 -794 0
-651 -795 0
-651 -796 0
-651 -797 0
-651 -798 0
-651 -799 0
-651 -800 0
-651 -801 0
-651 -802 0
-651 -803 0
-651 -804 0
-651 -805 0
-651 -806 0
-651 -807 0
-651 -808 0
-651 -809 0
-651 -810 0
-651 -811 0
-651 -812 0
-652 -653 0
-652 -654 0
-652 -655 0
-652 -656 0
-652 -657 0
-652 -658 0
-652 -659 0
-652 -660 0
-652 -661 0
-652 -662 0
-652 -663 0
-652 -664 0
-652 -665 0
-652 -666 0
-652 -667 0
-652 -668 0
-652 -669 0
-652 -670 0
-652 -671 0
-652 -672 0
-652 -673 0
-652 -674 0
-652 -675 0
-652 -676 0
-652 -677 0
-652 -678 0
-652 -679 0
-652 -680 0
-652 -681 0
-652 -682 0
-652 -683 0
-652 -684 0
-652 -685 0
-652 -686 0
-652 -687 0
-652 -688 0
-652 -689 0
-652 -690 0
-652 -691 0
-652 -692 0
-652 -693 0
-652 -694 0
-652 -695 0
-652 -696 0
-652 -697 0
-652 -698 0
-652 -699 0
-652 -700 0
-652 -701 0
-652 -702 0
-652 -703 0
-652 -704 0
-652 -705 0
-652 -706 0
-652 -707 0
-652 -708 0
-652 -709 0
-652 -710 0
-652 -711 0
-652 -712 0
-652 -713 0
-652 -714 0
-652 -715 0
-652 -716 0
-652 -717 0
-652 -718 0
-652 -719 0
-652 -720 0
-652 -721 0
-652 -722 0
-652 -723 0
-652 -724 0
-652 -725 0
-652 -726 0
-652 -727 0
-652 -728 0
-652 -729 0
-652 -730 0
-652 -731 0
-652 -732 0
-652 -733 0
-652 -734 0
-652 -735 0
-652 -736 0
-652 -737 0
-652 -738 0
-652 -739 0
-652 -740 0
-652 -741 0
-652 -742 0
-652 -743 0
-652 -744 0
-652 -745 0
-652 -746 0
-652 -747 0
-652 -748 0
-652 -749 0
-652 -750 0
-652 -751 0
-652 -752 0
-652 -753 0
-652 -754 0
-652 -755 0
-652 -756 0
-652 -757 0
-652 -758 0
-652 -759 0
-652 -760 0
-652 -761 0
-652 -762 0
-652 -763 0
-652 -764 0
-652 -765 0
-652 -766 0
-652 -767 0
-652 -768 0
-652 -769 0
-652 -770 0
-652 -771 0
-652 -772 0
-652 -773 0
-652 -774 0
-652 -775 0
-652 -776 0
-652 -777 0
-652 -778 0
-652 -779 0
-652 -780 0
-652 -781 0
-652 -782 0
-652 -783 0
-652 -784 0
-652 -785 0
-652 -786 0
-652 -787 0
-652 -788 0
-652 -789 0
-652 -790 0
-652 -791 0
-652 -792 0
-652 -793 0
-652 -794 0
-652 -795 0
-652 -796 0
-652 -797 0
-652 -798 0
-652 -799 0
-652 -800 0
-652 -801 0
-652 -802 0
-652 -803 0
-652 -804 0
-652 -805 0
-652 -806 0
-652 -807 0
-652 -808 0
-652 -809 0
-652 -810 0
-652 -811 0
-652 -812 0
-653 -654 0
-653 -655 0
-653 -656 0
-653 -657 0
-653 -658 0
-653 -659 0
-653 -660 0
-653 -661 0
-653 -662 0
-653 -663 0
-653 -664 0
-653 -665 0
-653 -666 0
-653 -667 0
-653 -668 0
-653 -669 0
-653 -670 0
-653 -671 0
-653 -672 0
-653 -673 0
-653 -674 0
-653 -675 0
-653 -676 0
-653 -677 0
-653 -678 0
-653 -679 0
-653 -680 0
-653 -681 0
-653 -682 0
-653 -683 0
-653 -684 0
-653 -685 0
-653 -686 0
-653 -687 0
-653 -688 0
-653 -689 0
-653 -690 0
-653 -691 0
-653 -692 0
-653 -693 0
-653 -694 0
-653 -695 0
-653 -696 0
-653 -697 0
-653 -698 0
-653 -699 0
-653 -700 0
-653 -701 0
-653 -702 0
-653 -703 0
-653 -704 0
-653 -705 0
-653 -706 0
-653 -707 0
-653 -708 0
-653 -709 0
-653 -710 0
-653 -711 0
-653 -712 0
-653 -713 0
-653 -714 0
-653 -715 0
-653 -716 0
-653 -717 0
-653 -718 0
-653 -719 0
-653 -720 0
-653 -721 0
-653 -722 0
-653 -723 0
-653 -724 0
-653 -725 0
-653 -726 0
-653 -727 0
-653 -728 0
-653 -729 0
-653 -730 0
-653 -731 0
-653 -732 0
-653 -733 0
-653 -734 0
-653 -735 0
-653 -736 0
-653 -737 0
-653 -738 0
-653 -739 0
-653 -740 0
-653 -741 0
-653 -742 0
-653 -743 0
-653 -744 0
-653 -745 0
-653 -746 0
-653 -747 0
-653 -748 0
-653 -749 0
-653 -750 0
-653 -751 0
-653 -752 0
-653 -753 0
-653 -754 0
-653 -755 0
-653 -756 0
-653 -757 0
-653 -758 0
-653 -759 0
-653 -760 0
-653 -761 0
-653 -762 0
-653 -763 0
-653 -764 0
-653 -765 0
-653 -766 0
-653 -767 0
-653 -768 0
-653 -769 0
-653 -770 0
-653 -771 0
-653 -772 0
-653 -773 0
-653 -774 0
-653 -775 0
-653 -776 0
-653 -777 0
-653 -778 0
-653 -779 0
-653 -780 0
-653 -781 0
-653 -782 0
-653 -783 0
-653 -784 0
-653 -785 0
-653 -786 0
-653 -787 0
-653 -788 0
-653 -789 0
-653 -790 0
-653 -791 0
-653 -792 0
-653 -793 0
-653 -794 0
-653 -795 0
-653 -796 0
-653 -797 0
-653 -798 0
-653 -799 0
-653 -800 0
-653 -801 0
-653 -802 0
-653 -803 0
-653 -804 0
-653 -805 0
-653 -806 0
-653 -807 0
-653 -808 0
-653 -809 0
-653 -810 0
-653 -811 0
-653 -812 0
-654 -655 0
-654 -656 0
-654 -657 0
-654 -658 0
-654 -659 0
-654 -660 0
-654 -661 0
-654 -662 0
-654 -663 0
-654 -664 0
-654 -665 0
-654 -666 0
-654 -667 0
-654 -668 0
-654 -669 0
-654 -670 0
-654 -671 0
-654 -672 0
-654 -673 0
-654 -674 0
-654 -675 0
-654 -676 0
-654 -677 0
-654 -678 0
-654 -679 0
-654 -680 0
-654 -681 0
-654 -682 0
-654 -683 0
-654 -684 0
-654 -685 0
-654 -686 0
-654 -687 0
-654 -688 0
-654 -689 0
-654 -690 0
-654 -691 0
-654 -692 0
-654 -693 0
-654 -694 0
-654 -695 0
-654 -696 0
-654 -697 0
-654 -698 0
-654 -699 0
-654 -700 0
-654 -701 0
-654 -702 0
-654 -703 0
-654 -704 0
-654 -705 0
-654 -706 0
-654 -707 0
-654 -708 0
-654 -709 0
-654 -710 0
-654 -711 0
-654 -712 0
-654 -713 0
-654 -714 0
-654 -715 0
-654 -716 0
-654 -717 0
-654 -718 0
-654 -719 0
-654 -720 0
-654 -721 0
-654 -722 0
-654 -723 0
-654 -724 0
-654 -725 0
-654 -726 0
-654 -727 0
-654 -728 0
-654 -729 0
-654 -730 0
-654 -731 0
-654 -732 0
-654 -733 0
-654 -734 0
-654 -735 0
-654 -736 0
-654 -737 0
-654 -738 0
-654 -739 0
-654 -740 0
-654 -741 0
-654 -742 0
-654 -743 0
-654 -744 0
-654 -745 0
-654 -746 0
-654 -747 0
-654 -748 0
-654 -749 0
-654 -750 0
-654 -751 0
-654 -752 0
-654 -753 0
-654 -754 0
-654 -755 0
-654 -756 0
-654 -757 0
-654 -758 0
-654 -759 0
-654 -760 0
-654 -761 0
-654 -762 0
-654 -763 0
-654 -764 0
-654 -765 0
-654 -766 0
-654 -767 0
-654 -768 0
-654 -769 0
-654 -770 0
-654 -771 0
-654 -772 0
-654 -773 0
-654 -774 0
-654 -775 0
-654 -776 0
-654 -777 0
-654 -778 0
-654 -779 0
-654 -780 0
-654 -781 0
-654 -782 0
-654 -783 0
-654 -784 0
-654 -785 0
-654 -786 0
-654 -787 0
-654 -788 0
-654 -789 0
-654 -790 0
-654 -791 0
-654 -792 0
-654 -793 0
-654 -794 0
-654 -795 0
-654 -796 0
-654 -797 0
-654 -798 0
-654 -799 0
-654 -800 0
-654 -801 0
-654 -802 0
-654 -803 0
-654 -804 0
-654 -805 0
-654 -806 0
-654 -807 0
-654 -808 0
-654 -809 0
-654 -810 0
-654 -811 0
-654 -812 0
-655 -656 0
-655 -657 0
-655 -658 0
-655 -659 0
-655 -660 0
-655 -661 0
-655 -662 0
-655 -663 0
-655 -664 0
-655 -665 0
-655 -666 0
-655 -667 0
-655 -668 0
-655 -669 0
-655 -670 0
-655 -671 0
-655 -672 0
-655 -673 0
-655 -674 0
-655 -675 0
-655 -676 0
-655 -677 0
-655 -678 0
-655 -679 0
-655 -680 0
-655 -681 0
-655 -682 0
-655 -683 0
-655 -684 0
-655 -685 0
-655 -686 0
-655 -687 0
-655 -688 0
-655 -689 0
-655 -690 0
-655 -691 0
-655 -692 0
-655 -693 0
-655 -694 0
-655 -695 0
-655 -696 0
-655 -697 0
-655 -698 0
-655 -699 0
-655 -700 0
-655 -701 0
-655 -702 0
-655 -703 0
-655 -704 0
-655 -705 0
-655 -706 0
-655 -707 0
-655 -708 0
-655 -709 0
-655 -710 0
-655 -711 0
-655 -712 0
-655 -713 0
-655 -714 0
-655 -715 0
-655 -716 0
-655 -717 0
-655 -718 0
-655 -719 0
-655 -720 0
-655 -721 0
-655 -722 0
-655 -723 0
-655 -724 0
-655 -725 0
-655 -726 0
-655 -727 0
-655 -728 0
-655 -729 0
-655 -730 0
-655 -731 0
-655 -732 0
-655 -733 0
-655 -734 0
-655 -735 0
-655 -736 0
-655 -737 0
-655 -738 0
-655 -739 0
-655 -740 0
-655 -741 0
-655 -742 0
-655 -743 0
-655 -744 0
-655 -745 0
-655 -746 0
-655 -747 0
-655 -748 0
-655 -749 0
-655 -750 0
-655 -751 0
-655 -752 0
-655 -753 0
-655 -754 0
-655 -755 0
-655 -756 0
-655 -757 0
-655 -758 0
-655 -759 0
-655 -760 0
-655 -761 0
-655 -762 0
-655 -763 0
-655 -764 0
-655 -765 0
-655 -766 0
-655 -767 0
-655 -768 0
-655 -769 0
-655 -770 0
-655 -771 0
-655 -772 0
-655 -773 0
-655 -774 0
-655 -775 0
-655 -776 0
-655 -777 0
-655 -778 0
-655 -779 0
-655 -780 0
-655 -781 0
-655 -782 0
-655 -783 0
-655 -784 0
-655 -785 0
-655 -786 0
-655 -787 0
-655 -788 0
-655 -789 0
-655 -790 0
-655 -791 0
-655 -792 0
-655 -793 0
-655 -794 0
-655 -795 0
-655 -796 0
-655 -797 0
-655 -798 0
-655 -799 0
-655 -800 0
-655 -801 0
-655 -802 0
-655 -803 0
-655 -804 0
-655 -805 0
-655 -806 0
-655 -807 0
-655 -808 0
-655 -809 0
-655 -810 0
-655 -811 0
-655 -812 0
-656 -657 0
-656 -658 0
-656 -659 0
-656 -660 0
-656 -661 0
-656 -662 0
-656 -663 0
-656 -664 0
-656 -665 0
-656 -666 0
-656 -667 0
-656 -668 0
-656 -669 0
-656 -670 0
-656 -671 0
-656 -672 0
-656 -673 0
-656 -674 0
-656 -675 0
-656 -676 0
-656 -677 0
-656 -678 0
-656 -679 0
-656 -680 0
-656 -681 0
-656 -682 0
-656 -683 0
-656 -684 0
-656 -685 0
-656 -686 0
-656 -687 0
-656 -688 0
-656 -689 0
-656 -690 0
-656 -691 0
-656 -692 0
-656 -693 0
-656 -694 0
-656 -695 0
-656 -696 0
-656 -697 0
-656 -698 0
-656 -699 0
-656 -700 0
-656 -701 0
-656 -702 0
-656 -703 0
-656 -704 0
-656 -705 0
-656 -706 0
-656 -707 0
-656 -708 0
-656 -709 0
-656 -710 0
-656 -711 0
-656 -712 0
-656 -713 0
-656 -714 0
-656 -715 0
-656 -716 0
-656 -717 0
-656 -718 0
-656 -719 0
-656 -720 0
-656 -721 0
-656 -722 0
-656 -723 0
-656 -724 0
-656 -725 0
-656 -726 0
-656 -727 0
-656 -728 0
-656 -729 0
-656 -730 0
-656 -731 0
-656 -732 0
-656 -733 0
-656 -734 0
-656 -735 0
-656 -736 0
-656 -737 0
-656 -738 0
-656 -739 0
-656 -740 0
-656 -741 0
-656 -742 0
-656 -743 0
-656 -744 0
-656 -745 0
-656 -746 0
-656 -747 0
-656 -748 0
-656 -749 0
-656 -750 0
-656 -751 0
-656 -752 0
-656 -753 0
-656 -754 0
-656 -755 0
-656 -756 0
-656 -757 0
-656 -758 0
-656 -759 0
-656 -760 0
-656 -761 0
-656 -762 0
-656 -763 0
-656 -764 0
-656 -765 0
-656 -766 0
-656 -767 0
-656 -768 0
-656 -769 0
-656 -770 0
-656 -771 0
-656 -772 0
-656 -773 0
-656 -774 0
-656 -775 0
-656 -776 0
-656 -777 0
-656 -778 0
-656 -779 0
-656 -780 0
-656 -781 0
-656 -782 0
-656 -783 0
-656 -784 0
-656 -785 0
-656 -786 0
-656 -787 0
-656 -788 0
-656 -789 0
-656 -790 0
-656 -791 0
-656 -792 0
-656 -793 0
-656 -794 0
-656 -795 0
-656 -796 0
-656 -797 0
-656 -798 0
-656 -799 0
-656 -800 0
-656 -801 0
-656 -802 0
-656 -803 0
-656 -804 0
-656 -805 0
-656 -806 0
-656 -807 0
-656 -808 0
-656 -809 0
-656 -810 0
-656 -811 0
-656 -812 0
-657 -658 0
-657 -659 0
-657 -660 0
-657 -661 0
-657 -662 0
-657 -663 0
-657 -664 0
-657 -665 0
-657 -666 0
-657 -667 0
-657 -668 0
-657 -669 0
-657 -670 0
-657 -671 0
-657 -672 0
-657 -673 0
-657 -674 0
-657 -675 0
-657 -676 0
-657 -677 0
-657 -678 0
-657 -679 0
-657 -680 0
-657 -681 0
-657 -682 0
-657 -683 0
-657 -684 0
-657 -685 0
-657 -686 0
-657 -687 0
-657 -688 0
-657 -689 0
-657 -690 0
-657 -691 0
-657 -692 0
-657 -693 0
-657 -694 0
-657 -695 0
-657 -696 0
-657 -697 0
-657 -698 0
-657 -699 0
-657 -700 0
-657 -701 0
-657 -702 0
-657 -703 0
-657 -704 0
-657 -705 0
-657 -706 0
-657 -707 0
-657 -708 0
-657 -709 0
-657 -710 0
-657 -711 0
-657 -712 0
-657 -713 0
-657 -714 0
-657 -715 0
-657 -716 0
-657 -717 0
-657 -718 0
-657 -719 0
-657 -720 0
-657 -721 0
-657 -722 0
-657 -723 0
-657 -724 0
-657 -725 0
-657 -726 0
-657 -727 0
-657 -728 0
-657 -729 0
-657 -730 0
-657 -731 0
-657 -732 0
-657 -733 0
-657 -734 0
-657 -735 0
-657 -736 0
-657 -737 0
-657 -738 0
-657 -739 0
-657 -740 0
-657 -741 0
-657 -742 0
-657 -743 0
-657 -744 0
-657 -745 0
-657 -746 0
-657 -747 0
-657 -748 0
-657 -749 0
-657 -750 0
-657 -751 0
-657 -752 0
-657 -753 0
-657 -754 0
-657 -755 0
-657 -756 0
-657 -757 0
-657 -758 0
-657 -759 0
-657 -760 0
-657 -761 0
-657 -762 0
-657 -763 0
-657 -764 0
-657 -765 0
-657 -766 0
-657 -767 0
-657 -768 0
-657 -769 0
-657 -770 0
-657 -771 0
-657 -772 0
-657 -773 0
-657 -774 0
-657 -775 0
-657 -776 0
-657 -777 0
-657 -778 0
-657 -779 0
-657 -780 0
-657 -781 0
-657 -782 0
-657 -783 0
-657 -784 0
-657 -785 0
-657 -786 0
-657 -787 0
-657 -788 0
-657 -789 0
-657 -790 0
-657 -791 0
-657 -792 0
-657 -793 0
-657 -794 0
-657 -795 0
-657 -796 0
-657 -797 0
-657 -798 0
-657 -799 0
-657 -800 0
-657 -801 0
-657 -802 0
-657 -803 0
-657 -804 0
-657 -805 0
-657 -806 0
-657 -807 0
-657 -808 0
-657 -809 0
-657 -810 0
-657 -811 0
-657 -812 0
-658 -659 0
-658 -660 0
-658 -661 0
-658 -662 0
-658 -663 0
-658 -664 0
-658 -665 0
-658 -666 0
-658 -667 0
-658 -668 0
-658 -669 0
-658 -670 0
-658 -671 0
-658 -672 0
-658 -673 0
-658 -674 0
-658 -675 0
-658 -676 0
-658 -677 0
-658 -678 0
-658 -679 0
-658 -680 0
-658 -681 0
-658 -682 0
-658 -683 0
-658 -684 0
-658 -685 0
-658 -686 0
-658 -687 0
-658 -688 0
-658 -689 0
-658 -690 0
-658 -691 0
-658 -692 0
-658 -693 0
-658 -694 0
-658 -695 0
-658 -696 0
-658 -697 0
-658 -698 0
-658 -699 0
-658 -700 0
-658 -701 0
-658 -702 0
-658 -703 0
-658 -704 0
-658 -705 0
-658 -706 0
-658 -707 0
-658 -708 0
-658 -709 0
-658 -710 0
-658 -711 0
-658 -712 0
-658 -713 0
-658 -714 0
-658 -715 0
-658 -716 0
-658 -717 0
-658 -718 0
-658 -719 0
-658 -720 0
-658 -721 0
-658 -722 0
-658 -723 0
-658 -724 0
-658 -725 0
-658 -726 0
-658 -727 0
-658 -728 0
-658 -729 0
-658 -730 0
-658 -731 0
-658 -732 0
-658 -733 0
-658 -734 0
-658 -735 0
-658 -736 0
-658 -737 0
-658 -738 0
-658 -739 0
-658 -740 0
-658 -741 0
-658 -742 0
-658 -743 0
-658 -744 0
-658 -745 0
-658 -746 0
-658 -747 0
-658 -748 0
-658 -749 0
-658 -750 0
-658 -751 0
-658 -752 0
-658 -753 0
-658 -754 0
-658 -755 0
-658 -756 0
-658 -757 0
-658 -758 0
-658 -759 0
-658 -760 0
-658 -761 0
-658 -762 0
-658 -763 0
-658 -764 0
-658 -765 0
-658 -766 0
-658 -767 0
-658 -768 0
-658 -769 0
-658 -770 0
-658 -771 0
-658 -772 0
-658 -773 0
-658 -774 0
-658 -775 0
-658 -776 0
-658 -777 0
-658 -778 0
-658 -779 0
-658 -780 0
-658 -781 0
-658 -782 0
-658 -783 0
-658 -784 0
-658 -785 0
-658 -786 0
-658 -787 0
-658 -788 0
-658 -789 0
-658 -790 0
-658 -791 0
-658 -792 0
-658 -793 0
-658 -794 0
-658 -795 0
-658 -796 0
-658 -797 0
-658 -798 0
-658 -799 0
-658 -800 0
-658 -801 0
-658 -802 0
-658 -803 0
-658 -804 0
-658 -805 0
-658 -806 0
-658 -807 0
-658 -808 0
-658 -809 0
-658 -810 0
-658 -811 0
-658 -812 0
-659 -660 0
-659 -661 0
-659 -662 0
-659 -663 0
-659 -664 0
-659 -665 0
-659 -666 0
-659 -667 0
-659 -668 0
-659 -669 0
-659 -670 0
-659 -671 0
-659 -672 0
-659 -673 0
-659 -674 0
-659 -675 0
-659 -676 0
-659 -677 0
-659 -678 0
-659 -679 0
-659 -680 0
-659 -681 0
-659 -682 0
-659 -683 0
-659 -684 0
-659 -685 0
-659 -686 0
-659 -687 0
-659 -688 0
-659 -689 0
-659 -690 0
-659 -691 0
-659 -692 0
-659 -693 0
-659 -694 0
-659 -695 0
-659 -696 0
-659 -697 0
-659 -698 0
-659 -699 0
-659 -700 0
-659 -701 0
-659 -702 0
-659 -703 0
-659 -704 0
-659 -705 0
-659 -706 0
-659 -707 0
-659 -708 0
-659 -709 0
-659 -710 0
-659 -711 0
-659 -712 0
-659 -713 0
-659 -714 0
-659 -715 0
-659 -716 0
-659 -717 0
-659 -718 0
-659 -719 0
-659 -720 0
-659 -721 0
-659 -722 0
-659 -723 0
-659 -724 0
-659 -725 0
-659 -726 0
-659 -727 0
-659 -728 0
-659 -729 0
-659 -730 0
-659 -731 0
-659 -732 0
-659 -733 0
-659 -734 0
-659 -735 0
-659 -736 0
-659 -737 0
-659 -738 0
-659 -739 0
-659 -740 0
-659 -741 0
-659 -742 0
-659 -743 0
-659 -744 0
-659 -745 0
-659 -746 0
-659 -747 0
-659 -748 0
-659 -749 0
-659 -750 0
-659 -751 0
-659 -752 0
-659 -753 0
-659 -754 0
-659 -755 0
-659 -756 0
-659 -757 0
-659 -758 0
-659 -759 0
-659 -760 0
-659 -761 0
-659 -762 0
-659 -763 0
-659 -764 0
-659 -765 0
-659 -766 0
-659 -767 0
-659 -768 0
-659 -769 0
-659 -770 0
-659 -771 0
-659 -772 0
-659 -773 0
-659 -774 0
-659 -775 0
-659 -776 0
-659 -777 0
-659 -778 0
-659 -779 0
-659 -780 0
-659 -781 0
-659 -782 0
-659 -783 0
-659 -784 0
-659 -785 0
-659 -786 0
-659 -787 0
-659 -788 0
-659 -789 0
-659 -790 0
-659 -791 0
-659 -792 0
-659 -793 0
-659 -794 0
-659 -795 0
-659 -796 0
-659 -797 0
-659 -798 0
-659 -799 0
-659 -800 0
-659 -801 0
-659 -802 0
-659 -803 0
-659 -804 0
-659 -805 0
-659 -806 0
-659 -807 0
-659 -808 0
-659 -809 0
-659 -810 0
-659 -811 0
-659 -812 0
-660 -661 0
-660 -662 0
-660 -663 0
-660 -664 0
-660 -665 0
-660 -666 0
-660 -667 0
-660 -668 0
-660 -669 0
-660 -670 0
-660 -671 0
-660 -672 0
-660 -673 0
-660 -674 0
-660 -675 0
-660 -676 0
-660 -677 0
-660 -678 0
-660 -679 0
-660 -680 0
-660 -681 0
-660 -682 0
-660 -683 0
-660 -684 0
-660 -685 0
-660 -686 0
-660 -687 0
-660 -688 0
-660 -689 0
-660 -690 0
-660 -691 0
-660 -692 0
-660 -693 0
-660 -694 0
-660 -695 0
-660 -696 0
-660 -697 0
-660 -698 0
-660 -699 0
-660 -700 0
-660 -701 0
-660 -702 0
-660 -703 0
-660 -704 0
-660 -705 0
-660 -706 0
-660 -707 0
-660 -708 0
-660 -709 0
-660 -710 0
-660 -711 0
-660 -712 0
-660 -713 0
-660 -714 0
-660 -715 0
-660 -716 0
-660 -717 0
-660 -718 0
-660 -719 0
-660 -720 0
-660 -721 0
-660 -722 0
-660 -723 0
-660 -724 0
-660 -725 0
-660 -726 0
-660 -727 0
-660 -728 0
-660 -729 0
-660 -730 0
-660 -731 0
-660 -732 0
-660 -733 0
-660 -734 0
-660 -735 0
-660 -736 0
-660 -737 0
-660 -738 0
-660 -739 0
-660 -740 0
-660 -741 0
-660 -742 0
-660 -743 0
-660 -744 0
-660 -745 0
-660 -746 0
-660 -747 0
-660 -748 0
-660 -749 0
-660 -750 0
-660 -751 0
-660 -752 0
-660 -753 0
-660 -754 0
-660 -755 0
-660 -756 0
-660 -757 0
-660 -758 0
-660 -759 0
-660 -760 0
-660 -761 0
-660 -762 0
-660 -763 0
-660 -764 0
-660 -765 0
-660 -766 0
-660 -767 0
-660 -768 0
-660 -769 0
-660 -770 0
-660 -771 0
-660 -772 0
-660 -773 0
-660 -774 0
-660 -775 0
-660 -776 0
-660 -777 0
-660 -778 0
-660 -779 0
-660 -780 0
-660 -781 0
-660 -782 0
-660 -783 0
-660 -784 0
-660 -785 0
-660 -786 0
-660 -787 0
-660 -788 0
-660 -789 0
-660 -790 0
-660 -791 0
-660 -792 0
-660 -793 0
-660 -794 0
-660 -795 0
-660 -796 0
-660 -797 0
-660 -798 0
-660 -799 0
-660 -800 0
-660 -801 0
-660 -802 0
-660 -803 0
-660 -804 0
-660 -805 0
-660 -806 0
-660 -807 0
-660 -808 0
-660 -809 0
-660 -810 0
-660 -811 0
-660 -812 0
-661 -662 0
-661 -663 0
-661 -664 0
-661 -665 0
-661 -666 0
-661 -667 0
-661 -668 0
-661 -669 0
-661 -670 0
-661 -671 0
-661 -672 0
-661 -673 0
-661 -674 0
-661 -675 0
-661 -676 0
-661 -677 0
-661 -678 0
-661 -679 0
-661 -680 0
-661 -681 0
-661 -682 0
-661 -683 0
-661 -684 0
-661 -685 0
-661 -686 0
-661 -687 0
-661 -688 0
-661 -689 0
-661 -690 0
-661 -691 0
-661 -692 0
-661 -693 0
-661 -694 0
-661 -695 0
-661 -696 0
-661 -697 0
-661 -698 0
-661 -699 0
-661 -700 0
-661 -701 0
-661 -702 0
-661 -703 0
-661 -704 0
-661 -705 0
-661 -706 0
-661 -707 0
-661 -708 0
-661 -709 0
-661 -710 0
-661 -711 0
-661 -712 0
-661 -713 0
-661 -714 0
-661 -715 0
-661 -716 0
-661 -717 0
-661 -718 0
-661 -719 0
-661 -720 0
-661 -721 0
-661 -722 0
-661 -723 0
-661 -724 0
-661 -725 0
-661 -726 0
-661 -727 0
-661 -728 0
-661 -729 0
-661 -730 0
-661 -731 0
-661 -732 0
-661 -733 0
-661 -734 0
-661 -735 0
-661 -736 0
-661 -737 0
-661 -738 0
-661 -739 0
-661 -740 0
-661 -741 0
-661 -742 0
-661 -743 0
-661 -744 0
-661 -745 0
-661 -746 0
-661 -747 0
-661 -748 0
-661 -749 0
-661 -750 0
-661 -751 0
-661 -752 0
-661 -753 0
-661 -754 0
-661 -755 0
-661 -756 0
-661 -757 0
-661 -758 0
-661 -759 0
-661 -760 0
-661 -761 0
-661 -762 0
-661 -763 0
-661 -764 0
-661 -765 0
-661 -766 0
-661 -767 0
-661 -768 0
-661 -769 0
-661 -770 0
-661 -771 0
-661 -772 0
-661 -773 0
-661 -774 0
-661 -775 0
-661 -776 0
-661 -777 0
-661 -778 0
-661 -779 0
-661 -780 0
-661 -781 0
-661 -782 0
-661 -783 0
-661 -784 0
-661 -785 0
-661 -786 0
-661 -787 0
-661 -788 0
-661 -789 0
-661 -790 0
-661 -791 0
-661 -792 0
-661 -793 0
-661 -794 0
-661 -795 0
-661 -796 0
-661 -797 0
-661 -798 0
-661 -799 0
-661 -800 0
-661 -801 0
-661 -802 0
-661 -803 0
-661 -804 0
-661 -805 0
-661 -806 0
-661 -807 0
-661 -808 0
-661 -809 0
-661 -810 0
-661 -811 0
-661 -812 0
-662 -663 0
-662 -664 0
-662 -665 0
-662 -666 0
-662 -667 0
-662 -668 0
-662 -669 0
-662 -670 0
-662 -671 0
-662 -672 0
-662 -673 0
-662 -674 0
-662 -675 0
-662 -676 0
-662 -677 0
-662 -678 0
-662 -679 0
-662 -680 0
-662 -681 0
-662 -682 0
-662 -683 0
-662 -684 0
-662 -685 0
-662 -686 0
-662 -687 0
-662 -688 0
-662 -689 0
-662 -690 0
-662 -691 0
-662 -692 0
-662 -693 0
-662 -694 0
-662 -695 0
-662 -696 0
-662 -697 0
-662 -698 0
-662 -699 0
-662 -700 0
-662 -701 0
-662 -702 0
-662 -703 0
-662 -704 0
-662 -705 0
-662 -706 0
-662 -707 0
-662 -708 0
-662 -709 0
-662 -710 0
-662 -711 0
-662 -712 0
-662 -713 0
-662 -714 0
-662 -715 0
-662 -716 0
-662 -717 0
-662 -718 0
-662 -719 0
-662 -720 0
-662 -721 0
-662 -722 0
-662 -723 0
-662 -724 0
-662 -725 0
-662 -726 0
-662 -727 0
-662 -728 0
-662 -729 0
-662 -730 0
-662 -731 0
-662 -732 0
-662 -733 0
-662 -734 0
-662 -735 0
-662 -736 0
-662 -737 0
-662 -738 0
-662 -739 0
-662 -740 0
-662 -741 0
-662 -742 0
-662 -743 0
-662 -744 0
-662 -745 0
-662 -746 0
-662 -747 0
-662 -748 0
-662 -749 0
-662 -750 0
-662 -751 0
-662 -752 0
-662 -753 0
-662 -754 0
-662 -755 0
-662 -756 0
-662 -757 0
-662 -758 0
-662 -759 0
-662 -760 0
-662 -761 0
-662 -762 0
-662 -763 0
-662 -764 0
-662 -765 0
-662 -766 0
-662 -767 0
-662 -768 0
-662 -769 0
-662 -770 0
-662 -771 0
-662 -772 0
-662 -773 0
-662 -774 0
-662 -775 0
-662 -776 0
-662 -777 0
-662 -778 0
-662 -779 0
-662 -780 0
-662 -781 0
-662 -782 0
-662 -783 0
-662 -784 0
-662 -785 0
-662 -786 0
-662 -787 0
-662 -788 0
-662 -789 0
-662 -790 0
-662 -791 0
-662 -792 0
-662 -793 0
-662 -794 0
-662 -795 0
-662 -796 0
-662 -797 0
-662 -798 0
-662 -799 0
-662 -800 0
-662 -801 0
-662 -802 0
-662 -803 0
-662 -804 0
-662 -805 0
-662 -806 0
-662 -807 0
-662 -808 0
-662 -809 0
-662 -810 0
-662 -811 0
-662 -812 0
-663 -664 0
-663 -665 0
-663 -666 0
-663 -667 0
-663 -668 0
-663 -669 0
-663 -670 0
-663 -671 0
-663 -672 0
-663 -673 0
-663 -674 0
-663 -675 0
-663 -676 0
-663 -677 0
-663 -678 0
-663 -679 0
-663 -680 0
-663 -681 0
-663 -682 0
-663 -683 0
-663 -684 0
-663 -685 0
-663 -686 0
-663 -687 0
-663 -688 0
-663 -689 0
-663 -690 0
-663 -691 0
-663 -692 0
-663 -693 0
-663 -694 0
-663 -695 0
-663 -696 0
-663 -697 0
-663 -698 0
-663 -699 0
-663 -700 0
-663 -701 0
-663 -702 0
-663 -703 0
-663 -704 0
-663 -705 0
-663 -706 0
-663 -707 0
-663 -708 0
-663 -709 0
-663 -710 0
-663 -711 0
-663 -712 0
-663 -713 0
-663 -714 0
-663 -715 0
-663 -716 0
-663 -717 0
-663 -718 0
-663 -719 0
-663 -720 0
-663 -721 0
-663 -722 0
-663 -723 0
-663 -724 0
-663 -725 0
-663 -726 0
-663 -727 0
-663 -728 0
-663 -729 0
-663 -730 0
-663 -731 0
-663 -732 0
-663 -733 0
-663 -734 0
-663 -735 0
-663 -736 0
-663 -737 0
-663 -738 0
-663 -739 0
-663 -740 0
-663 -741 0
-663 -742 0
-663 -743 0
-663 -744 0
-663 -745 0
-663 -746 0
-663 -747 0
-663 -748 0
-663 -749 0
-663 -750 0
-663 -751 0
-663 -752 0
-663 -753 0
-663 -754 0
-663 -755 0
-663 -756 0
-663 -757 0
-663 -758 0
-663 -759 0
-663 -760 0
-663 -761 0
-663 -762 0
-663 -763 0
-663 -764 0
-663 -765 0
-663 -766 0
-663 -767 0
-663 -768 0
-663 -769 0
-663 -770 0
-663 -771 0
-663 -772 0
-663 -773 0
-663 -774 0
-663 -775 0
-663 -776 0
-663 -777 0
-663 -778 0
-663 -779 0
-663 -780 0
-663 -781 0
-663 -782 0
-663 -783 0
-663 -784 0
-663 -785 0
-663 -786 0
-663 -787 0
-663 -788 0
-663 -789 0
-663 -790 0
-663 -791 0
-663 -792 0
-663 -793 0
-663 -794 0
-663 -795 0
-663 -796 0
-663 -797 0
-663 -798 0
-663 -799 0
-663 -800 0
-663 -801 0
-663 -802 0
-663 -803 0
-663 -804 0
-663 -805 0
-663 -806 0
-663 -807 0
-663 -808 0
-663 -809 0
-663 -810 0
-663 -811 0
-663 -812 0
-664 -665 0
-664 -666 0
-664 -667 0
-664 -668 0
-664 -669 0
-664 -670 0
-664 -671 0
-664 -672 0
-664 -673 0
-664 -674 0
-664 -675 0
-664 -676 0
-664 -677 0
-664 -678 0
-664 -679 0
-664 -680 0
-664 -681 0
-664 -682 0
-664 -683 0
-664 -684 0
-664 -685 0
-664 -686 0
-664 -687 0
-664 -688 0
-664 -689 0
-664 -690 0
-664 -691 0
-664 -692 0
-664 -693 0
-664 -694 0
-664 -695 0
-664 -696 0
-664 -697 0
-664 -698 0
-664 -699 0
-664 -700 0
-664 -701 0
-664 -702 0
-664 -703 0
-664 -704 0
-664 -705 0
-664 -706 0
-664 -707 0
-664 -708 0
-664 -709 0
-664 -710 0
-664 -711 0
-664 -712 0
-664 -713 0
-664 -714 0
-664 -715 0
-664 -716 0
-664 -717 0
-664 -718 0
-664 -719 0
-664 -720 0
-664 -721 0
-664 -722 0
-664 -723 0
-664 -724 0
-664 -725 0
-664 -726 0
-664 -727 0
-664 -728 0
-664 -729 0
-664 -730 0
-664 -731 0
-664 -732 0
-664 -733 0
-664 -734 0
-664 -735 0
-664 -736 0
-664 -737 0
-664 -738 0
-664 -739 0
-664 -740 0
-664 -741 0
-664 -742 0
-664 -743 0
-664 -744 0
-664 -745 0
-664 -746 0
-664 -747 0
-664 -748 0
-664 -749 0
-664 -750 0
-664 -751 0
-664 -752 0
-664 -753 0
-664 -754 0
-664 -755 0
-664 -756 0
-664 -757 0
-664 -758 0
-664 -759 0
-664 -760 0
-664 -761 0
-664 -762 0
-664 -763 0
-664 -764 0
-664 -765 0
-664 -766 0
-664 -767 0
-664 -768 0
-664 -769 0
-664 -770 0
-664 -771 0
-664 -772 0
-664 -773 0
-664 -774 0
-664 -775 0
-664 -776 0
-664 -777 0
-664 -778 0
-664 -779 0
-664 -780 0
-664 -781 0
-664 -782 0
-664 -783 0
-664 -784 0
-664 -785 0
-664 -786 0
-664 -787 0
-664 -788 0
-664 -789 0
-664 -790 0
-664 -791 0
-664 -792 0
-664 -793 0
-664 -794 0
-664 -795 0
-664 -796 0
-664 -797 0
-664 -798 0
-664 -799 0
-664 -800 0
-664 -801 0
-664 -802 0
-664 -803 0
-664 -804 0
-664 -805 0
-664 -806 0
-664 -807 0
-664 -808 0
-664 -809 0
-664 -810 0
-664 -811 0
-664 -812 0
-665 -666 0
-665 -667 0
-665 -668 0
-665 -669 0
-665 -670 0
-665 -671 0
-665 -672 0
-665 -673 0
-665 -674 0
-665 -675 0
-665 -676 0
-665 -677 0
-665 -678 0
-665 -679 0
-665 -680 0
-665 -681 0
-665 -682 0
-665 -683 0
-665 -684 0
-665 -685 0
-665 -686 0
-665 -687 0
-665 -688 0
-665 -689 0
-665 -690 0
-665 -691 0
-665 -692 0
-665 -693 0
-665 -694 0
-665 -695 0
-665 -696 0
-665 -697 0
-665 -698 0
-665 -699 0
-665 -700 0
-665 -701 0
-665 -702 0
-665 -703 0
-665 -704 0
-665 -705 0
-665 -706 0
-665 -707 0
-665 -708 0
-665 -709 0
-665 -710 0
-665 -711 0
-665 -712 0
-665 -713 0
-665 -714 0
-665 -715 0
-665 -716 0
-665 -717 0
-665 -718 0
-665 -719 0
-665 -720 0
-665 -721 0
-665 -722 0
-665 -723 0
-665 -724 0
-665 -725 0
-665 -726 0
-665 -727 0
-665 -728 0
-665 -729 0
-665 -730 0
-665 -731 0
-665 -732 0
-665 -733 0
-665 -734 0
-665 -735 0
-665 -736 0
-665 -737 0
-665 -738 0
-665 -739 0
-665 -740 0
-665 -741 0
-665 -742 0
-665 -743 0
-665 -744 0
-665 -745 0
-665 -746 0
-665 -747 0
-665 -748 0
-665 -749 0
-665 -750 0
-665 -751 0
-665 -752 0
-665 -753 0
-665 -754 0
-665 -755 0
-665 -756 0
-665 -757 0
-665 -758 0
-665 -759 0
-665 -760 0
-665 -761 0
-665 -762 0
-665 -763 0
-665 -764 0
-665 -765 0
-665 -766 0
-665 -767 0
-665 -768 0
-665 -769 0
-665 -770 0
-665 -771 0
-665 -772 0
-665 -773 0
-665 -774 0
-665 -775 0
-665 -776 0
-665 -777 0
-665 -778 0
-665 -779 0
-665 -780 0
-665 -781 0
-665 -782 0
-665 -783 0
-665 -784 0
-665 -785 0
-665 -786 0
-665 -787 0
-665 -788 0
-665 -789 0
-665 -790 0
-665 -791 0
-665 -792 0
-665 -793 0
-665 -794 0
-665 -795 0
-665 -796 0
-665 -797 0
-665 -798 0
-665 -799 0
-665 -800 0
-665 -801 0
-665 -802 0
-665 -803 0
-665 -804 0
-665 -805 0
-665 -806 0
-665 -807 0
-665 -808 0
-665 -809 0
-665 -810 0
-665 -811 0
-665 -812 0
-666 -667 0
-666 -668 0
-666 -669 0
-666 -670 0
-666 -671 0
-666 -672 0
-666 -673 0
-666 -674 0
-666 -675 0
-666 -676 0
-666 -677 0
-666 -678 0
-666 -679 0
-666 -680 0
-666 -681 0
-666 -682 0
-666 -683 0
-666 -684 0
-666 -685 0
-666 -686 0
-666 -687 0
-666 -688 0
-666 -689 0
-666 -690 0
-666 -691 0
-666 -692 0
-666 -693 0
-666 -694 0
-666 -695 0
-666 -696 0
-666 -697 0
-666 -698 0
-666 -699 0
-666 -700 0
-666 -701 0
-666 -702 0
-666 -703 0
-666 -704 0
-666 -705 0
-666 -706 0
-666 -707 0
-666 -708 0
-666 -709 0
-666 -710 0
-666 -711 0
-666 -712 0
-666 -713 0
-666 -714 0
-666 -715 0
-666 -716 0
-666 -717 0
-666 -718 0
-666 -719 0
-666 -720 0
-666 -721 0
-666 -722 0
-666 -723 0
-666 -724 0
-666 -725 0
-666 -726 0
-666 -727 0
-666 -728 0
-666 -729 0
-666 -730 0
-666 -731 0
-666 -732 0
-666 -733 0
-666 -734 0
-666 -735 0
-666 -736 0
-666 -737 0
-666 -738 0
-666 -739 0
-666 -740 0
-666 -741 0
-666 -742 0
-666 -743 0
-666 -744 0
-666 -745 0
-666 -746 0
-666 -747 0
-666 -748 0
-666 -749 0
-666 -750 0
-666 -751 0
-666 -752 0
-666 -753 0
-666 -754 0
-666 -755 0
-666 -756 0
-666 -757 0
-666 -758 0
-666 -759 0
-666 -760 0
-666 -761 0
-666 -762 0
-666 -763 0
-666 -764 0
-666 -765 0
-666 -766 0
-666 -767 0
-666 -768 0
-666 -769 0
-666 -770 0
-666 -771 0
-666 -772 0
-666 -773 0
-666 -774 0
-666 -775 0
-666 -776 0
-666 -777 0
-666 -778 0
-666 -779 0
-666 -780 0
-666 -781 0
-666 -782 0
-666 -783 0
-666 -784 0
-666 -785 0
-666 -786 0
-666 -787 0
-666 -788 0
-666 -789 0
-666 -790 0
-666 -791 0
-666 -792 0
-666 -793 0
-666 -794 0
-666 -795 0
-666 -796 0
-666 -797 0
-666 -798 0
-666 -799 0
-666 -800 0
-666 -801 0
-666 -802 0
-666 -803 0
-666 -804 0
-666 -805 0
-666 -806 0
-666 -807 0
-666 -808 0
-666 -809 0
-666 -810 0
-666 -811 0
-666 -812 0
-667 -668 0
-667 -669 0
-667 -670 0
-667 -671 0
-667 -672 0
-667 -673 0
-667 -674 0
-667 -675 0
-667 -676 0
-667 -677 0
-667 -678 0
-667 -679 0
-667 -680 0
-667 -681 0
-667 -682 0
-667 -683 0
-667 -684 0
-667 -685 0
-667 -686 0
-667 -687 0
-667 -688 0
-667 -689 0
-667 -690 0
-667 -691 0
-667 -692 0
-667 -693 0
-667 -694 0
-667 -695 0
-667 -696 0
-667 -697 0
-667 -698 0
-667 -699 0
-667 -700 0
-667 -701 0
-667 -702 0
-667 -703 0
-667 -704 0
-667 -705 0
-667 -706 0
-667 -707 0
-667 -708 0
-667 -709 0
-667 -710 0
-667 -711 0
-667 -712 0
-667 -713 0
-667 -714 0
-667 -715 0
-667 -716 0
-667 -717 0
-667 -718 0
-667 -719 0
-667 -720 0
-667 -721 0
-667 -722 0
-667 -723 0
-667 -724 0
-667 -725 0
-667 -726 0
-667 -727 0
-667 -728 0
-667 -729 0
-667 -730 0
-667 -731 0
-667 -732 0
-667 -733 0
-667 -734 0
-667 -735 0
-667 -736 0
-667 -737 0
-667 -738 0
-667 -739 0
-667 -740 0
-667 -741 0
-667 -742 0
-667 -743 0
-667 -744 0
-667 -745 0
-667 -746 0
-667 -747 0
-667 -748 0
-667 -749 0
-667 -750 0
-667 -751 0
-667 -752 0
-667 -753 0
-667 -754 0
-667 -755 0
-667 -756 0
-667 -757 0
-667 -758 0
-667 -759 0
-667 -760 0
-667 -761 0
-667 -762 0
-667 -763 0
-667 -764 0
-667 -765 0
-667 -766 0
-667 -767 0
-667 -768 0
-667 -769 0
-667 -770 0
-667 -771 0
-667 -772 0
-667 -773 0
-667 -774 0
-667 -775 0
-667 -776 0
-667 -777 0
-667 -778 0
-667 -779 0
-667 -780 0
-667 -781 0
-667 -782 0
-667 -783 0
-667 -784 0
-667 -785 0
-667 -786 0
-667 -787 0
-667 -788 0
-667 -789 0
-667 -790 0
-667 -791 0
-667 -792 0
-667 -793 0
-667 -794 0
-667 -795 0
-667 -796 0
-667 -797 0
-667 -798 0
-667 -799 0
-667 -800 0
-667 -801 0
-667 -802 0
-667 -803 0
-667 -804 0
-667 -805 0
-667 -806 0
-667 -807 0
-667 -808 0
-667 -809 0
-667 -810 0
-667 -811 0
-667 -812 0
-668 -669 0
-668 -670 0
-668 -671 0
-668 -672 0
-668 -673 0
-668 -674 0
-668 -675 0
-668 -676 0
-668 -677 0
-668 -678 0
-668 -679 0
-668 -680 0
-668 -681 0
-668 -682 0
-668 -683 0
-668 -684 0
-668 -685 0
-668 -686 0
-668 -687 0
-668 -688 0
-668 -689 0
-668 -690 0
-668 -691 0
-668 -692 0
-668 -693 0
-668 -694 0
-668 -695 0
-668 -696 0
-668 -697 0
-668 -698 0
-668 -699 0
-668 -700 0
-668 -701 0
-668 -702 0
-668 -703 0
-668 -704 0
-668 -705 0
-668 -706 0
-668 -707 0
-668 -708 0
-668 -709 0
-668 -710 0
-668 -711 0
-668 -712 0
-668 -713 0
-668 -714 0
-668 -715 0
-668 -716 0
-668 -717 0
-668 -718 0
-668 -719 0
-668 -720 0
-668 -721 0
-668 -722 0
-668 -723 0
-668 -724 0
-668 -725 0
-668 -726 0
-668 -727 0
-668 -728 0
-668 -729 0
-668 -730 0
-668 -731 0
-668 -732 0
-668 -733 0
-668 -734 0
-668 -735 0
-668 -736 0
-668 -737 0
-668 -738 0
-668 -739 0
-668 -740 0
-668 -741 0
-668 -742 0
-668 -743 0
-668 -744 0
-668 -745 0
-668 -746 0
-668 -747 0
-668 -748 0
-668 -749 0
-668 -750 0
-668 -751 0
-668 -752 0
-668 -753 0
-668 -754 0
-668 -755 0
-668 -756 0
-668 -757 0
-668 -758 0
-668 -759 0
-668 -760 0
-668 -761 0
-668 -762 0
-668 -763 0
-668 -764 0
-668 -765 0
-668 -766 0
-668 -767 0
-668 -768 0
-668 -769 0
-668 -770 0
-668 -771 0
-668 -772 0
-668 -773 0
-668 -774 0
-668 -775 0
-668 -776 0
-668 -777 0
-668 -778 0
-668 -779 0
-668 -780 0
-668 -781 0
-668 -782 0
-668 -783 0
-668 -784 0
-668 -785 0
-668 -786 0
-668 -787 0
-668 -788 0
-668 -789 0
-668 -790 0
-668 -791 0
-668 -792 0
-668 -793 0
-668 -794 0
-668 -795 0
-668 -796 0
-668 -797 0
-668 -798 0
-668 -799 0
-668 -800 0
-668 -801 0
-668 -802 0
-668 -803 0
-668 -804 0
-668 -805 0
-668 -806 0
-668 -807 0
-668 -808 0
-668 -809 0
-668 -810 0
-668 -811 0
-668 -812 0
-669 -670 0
-669 -671 0
-669 -672 0
-669 -673 0
-669 -674 0
-669 -675 0
-669 -676 0
-669 -677 0
-669 -678 0
-669 -679 0
-669 -680 0
-669 -681 0
-669 -682 0
-669 -683 0
-669 -684 0
-669 -685 0
-669 -686 0
-669 -687 0
-669 -688 0
-669 -689 0
-669 -690 0
-669 -691 0
-669 -692 0
-669 -693 0
-669 -694 0
-669 -695 0
-669 -696 0
-669 -697 0
-669 -698 0
-669 -699 0
-669 -700 0
-669 -701 0
-669 -702 0
-669 -703 0
-669 -704 0
-669 -705 0
-669 -706 0
-669 -707 0
-669 -708 0
-669 -709 0
-669 -710 0
-669 -711 0
-669 -712 0
-669 -713 0
-669 -714 0
-669 -715 0
-669 -716 0
-669 -717 0
-669 -718 0
-669 -719 0
-669 -720 0
-669 -721 0
-669 -722 0
-669 -723 0
-669 -724 0
-669 -725 0
-669 -726 0
-669 -727 0
-669 -728 0
-669 -729 0
-669 -730 0
-669 -731 0
-669 -732 0
-669 -733 0
-669 -734 0
-669 -735 0
-669 -736 0
-669 -737 0
-669 -738 0
-669 -739 0
-669 -740 0
-669 -741 0
-669 -742 0
-669 -743 0
-669 -744 0
-669 -745 0
-669 -746 0
-669 -747 0
-669 -748 0
-669 -749 0
-669 -750 0
-669 -751 0
-669 -752 0
-669 -753 0
-669 -754 0
-669 -755 0
-669 -756 0
-669 -757 0
-669 -758 0
-669 -759 0
-669 -760 0
-669 -761 0
-669 -762 0
-669 -763 0
-669 -764 0
-669 -765 0
-669 -766 0
-669 -767 0
-669 -768 0
-669 -769 0
-669 -770 0
-669 -771 0
-669 -772 0
-669 -773 0
-669 -774 0
-669 -775 0
-669 -776 0
-669 -777 0
-669 -778 0
-669 -779 0
-669 -780 0
-669 -781 0
-669 -782 0
-669 -783 0
-669 -784 0
-669 -785 0
-669 -786 0
-669 -787 0
-669 -788 0
-669 -789 0
-669 -790 0
-669 -791 0
-669 -792 0
-669 -793 0
-669 -794 0
-669 -795 0
-669 -796 0
-669 -797 0
-669 -798 0
-669 -799 0
-669 -800 0
-669 -801 0
-669 -802 0
-669 -803 0
-669 -804 0
-669 -805 0
-669 -806 0
-669 -807 0
-669 -808 0
-669 -809 0
-669 -810 0
-669 -811 0
-669 -812 0
-670 -671 0
-670 -672 0
-670 -673 0
-670 -674 0
-670 -675 0
-670 -676 0
-670 -677 0
-670 -678 0
-670 -679 0
-670 -680 0
-670 -681 0
-670 -682 0
-670 -683 0
-670 -684 0
-670 -685 0
-670 -686 0
-670 -687 0
-670 -688 0
-670 -689 0
-670 -690 0
-670 -691 0
-670 -692 0
-670 -693 0
-670 -694 0
-670 -695 0
-670 -696 0
-670 -697 0
-670 -698 0
-670 -699 0
-670 -700 0
-670 -701 0
-670 -702 0
-670 -703 0
-670 -704 0
-670 -705 0
-670 -706 0
-670 -707 0
-670 -708 0
-670 -709 0
-670 -710 0
-670 -711 0
-670 -712 0
-670 -713 0
-670 -714 0
-670 -715 0
-670 -716 0
-670 -717 0
-670 -718 0
-670 -719 0
-670 -720 0
-670 -721 0
-670 -722 0
-670 -723 0
-670 -724 0
-670 -725 0
-670 -726 0
-670 -727 0
-670 -728 0
-670 -729 0
-670 -730 0
-670 -731 0
-670 -732 0
-670 -733 0
-670 -734 0
-670 -735 0
-670 -736 0
-670 -737 0
-670 -738 0
-670 -739 0
-670 -740 0
-670 -741 0
-670 -742 0
-670 -743 0
-670 -744 0
-670 -745 0
-670 -746 0
-670 -747 0
-670 -748 0
-670 -749 0
-670 -750 0
-670 -751 0
-670 -752 0
-670 -753 0
-670 -754 0
-670 -755 0
-670 -756 0
-670 -757 0
-670 -758 0
-670 -759 0
-670 -760 0
-670 -761 0
-670 -762 0
-670 -763 0
-670 -764 0
-670 -765 0
-670 -766 0
-670 -767 0
-670 -768 0
-670 -769 0
-670 -770 0
-670 -771 0
-670 -772 0
-670 -773 0
-670 -774 0
-670 -775 0
-670 -776 0
-670 -777 0
-670 -778 0
-670 -779 0
-670 -780 0
-670 -781 0
-670 -782 0
-670 -783 0
-670 -784 0
-670 -785 0
-670 -786 0
-670 -787 0
-670 -788 0
-670 -789 0
-670 -790 0
-670 -791 0
-670 -792 0
-670 -793 0
-670 -794 0
-670 -795 0
-670 -796 0
-670 -797 0
-670 -798 0
-670 -799 0
-670 -800 0
-670 -801 0
-670 -802 0
-670 -803 0
-670 -804 0
-670 -805 0
-670 -806 0
-670 -807 0
-670 -808 0
-670 -809 0
-670 -810 0
-670 -811 0
-670 -812 0
-671 -672 0
-671 -673 0
-671 -674 0
-671 -675 0
-671 -676 0
-671 -677 0
-671 -678 0
-671 -679 0
-671 -680 0
-671 -681 0
-671 -682 0
-671 -683 0
-671 -684 0
-671 -685 0
-671 -686 0
-671 -687 0
-671 -688 0
-671 -689 0
-671 -690 0
-671 -691 0
-671 -692 0
-671 -693 0
-671 -694 0
-671 -695 0
-671 -696 0
-671 -697 0
-671 -698 0
-671 -699 0
-671 -700 0
-671 -701 0
-671 -702 0
-671 -703 0
-671 -704 0
-671 -705 0
-671 -706 0
-671 -707 0
-671 -708 0
-671 -709 0
-671 -710 0
-671 -711 0
-671 -712 0
-671 -713 0
-671 -714 0
-671 -715 0
-671 -716 0
-671 -717 0
-671 -718 0
-671 -719 0
-671 -720 0
-671 -721 0
-671 -722 0
-671 -723 0
-671 -724 0
-671 -725 0
-671 -726 0
-671 -727 0
-671 -728 0
-671 -729 0
-671 -730 0
-671 -731 0
-671 -732 0
-671 -733 0
-671 -734 0
-671 -735 0
-671 -736 0
-671 -737 0
-671 -738 0
-671 -739 0
-671 -740 0
-671 -741 0
-671 -742 0
-671 -743 0
-671 -744 0
-671 -745 0
-671 -746 0
-671 -747 0
-671 -748 0
-671 -749 0
-671 -750 0
-671 -751 0
-671 -752 0
-671 -753 0
-671 -754 0
-671 -755 0
-671 -756 0
-671 -757 0
-671 -758 0
-671 -759 0
-671 -760 0
-671 -761 0
-671 -762 0
-671 -763 0
-671 -764 0
-671 -765 0
-671 -766 0
-671 -767 0
-671 -768 0
-671 -769 0
-671 -770 0
-671 -771 0
-671 -772 0
-671 -773 0
-671 -774 0
-671 -775 0
-671 -776 0
-671 -777 0
-671 -778 0
-671 -779 0
-671 -780 0
-671 -781 0
-671 -782 0
-671 -783 0
-671 -784 0
-671 -785 0
-671 -786 0
-671 -787 0
-671 -788 0
-671 -789 0
-671 -790 0
-671 -791 0
-671 -792 0
-671 -793 0
-671 -794 0
-671 -795 0
-671 -796 0
-671 -797 0
-671 -798 0
-671 -799 0
-671 -800 0
-671 -801 0
-671 -802 0
-671 -803 0
-671 -804 0
-671 -805 0
-671 -806 0
-671 -807 0
-671 -808 0
-671 -809 0
-671 -810 0
-671 -811 0
-671 -812 0
-672 -673 0
-672 -674 0
-672 -675 0
-672 -676 0
-672 -677 0
-672 -678 0
-672 -679 0
-672 -680 0
-672 -681 0
-672 -682 0
-672 -683 0
-672 -684 0
-672 -685 0
-672 -686 0
-672 -687 0
-672 -688 0
-672 -689 0
-672 -690 0
-672 -691 0
-672 -692 0
-672 -693 0
-672 -694 0
-672 -695 0
-672 -696 0
-672 -697 0
-672 -698 0
-672 -699 0
-672 -700 0
-672 -701 0
-672 -702 0
-672 -703 0
-672 -704 0
-672 -705 0
-672 -706 0
-672 -707 0
-672 -708 0
-672 -709 0
-672 -710 0
-672 -711 0
-672 -712 0
-672 -713 0
-672 -714 0
-672 -715 0
-672 -716 0
-672 -717 0
-672 -718 0
-672 -719 0
-672 -720 0
-672 -721 0
-672 -722 0
-672 -723 0
-672 -724 0
-672 -725 0
-672 -726 0
-672 -727 0
-672 -728 0
-672 -729 0
-672 -730 0
-672 -731 0
-672 -732 0
-672 -733 0
-672 -734 0
-672 -735 0
-672 -736 0
-672 -737 0
-672 -738 0
-672 -739 0
-672 -740 0
-672 -741 0
-672 -742 0
-672 -743 0
-672 -744 0
-672 -745 0
-672 -746 0
-672 -747 0
-672 -748 0
-672 -749 0
-672 -750 0
-672 -751 0
-672 -752 0
-672 -753 0
-672 -754 0
-672 -755 0
-672 -756 0
-672 -757 0
-672 -758 0
-672 -759 0
-672 -760 0
-672 -761 0
-672 -762 0
-672 -763 0
-672 -764 0
-672 -765 0
-672 -766 0
-672 -767 0
-672 -768 0
-672 -769 0
-672 -770 0
-672 -771 0
-672 -772 0
-672 -773 0
-672 -774 0
-672 -775 0
-672 -776 0
-672 -777 0
-672 -778 0
-672 -779 0
-672 -780 0
-672 -781 0
-672 -782 0
-672 -783 0
-672 -784 0
-672 -785 0
-672 -786 0
-672 -787 0
-672 -788 0
-672 -789 0
-672 -790 0
-672 -791 0
-672 -792 0
-672 -793 0
-672 -794 0
-672 -795 0
-672 -796 0
-672 -797 0
-672 -798 0
-672 -799 0
-672 -800 0
-672 -801 0
-672 -802 0
-672 -803 0
-672 -804 0
-672 -805 0
-672 -806 0
-672 -807 0
-672 -808 0
-672 -809 0
-672 -810 0
-672 -811 0
-672 -812 0
-673 -674 0
-673 -675 0
-673 -676 0
-673 -677 0
-673 -678 0
-673 -679 0
-673 -680 0
-673 -681 0
-673 -682 0
-673 -683 0
-673 -684 0
-673 -685 0
-673 -686 0
-673 -687 0
-673 -688 0
-673 -689 0
-673 -690 0
-673 -691 0
-673 -692 0
-673 -693 0
-673 -694 0
-673 -695 0
-673 -696 0
-673 -697 0
-673 -698 0
-673 -699 0
-673 -700 0
-673 -701 0
-673 -702 0
-673 -703 0
-673 -704 0
-673 -705 0
-673 -706 0
-673 -707 0
-673 -708 0
-673 -709 0
-673 -710 0
-673 -711 0
-673 -712 0
-673 -713 0
-673 -714 0
-673 -715 0
-673 -716 0
-673 -717 0
-673 -718 0
-673 -719 0
-673 -720 0
-673 -721 0
-673 -722 0
-673 -723 0
-673 -724 0
-673 -725 0
-673 -726 0
-673 -727 0
-673 -728 0
-673 -729 0
-673 -730 0
-673 -731 0
-673 -732 0
-673 -733 0
-673 -734 0
-673 -735 0
-673 -736 0
-673 -737 0
-673 -738 0
-673 -739 0
-673 -740 0
-673 -741 0
-673 -742 0
-673 -743 0
-673 -744 0
-673 -745 0
-673 -746 0
-673 -747 0
-673 -748 0
-673 -749 0
-673 -750 0
-673 -751 0
-673 -752 0
-673 -753 0
-673 -754 0
-673 -755 0
-673 -756 0
-673 -757 0
-673 -758 0
-673 -759 0
-673 -760 0
-673 -761 0
-673 -762 0
-673 -763 0
-673 -764 0
-673 -765 0
-673 -766 0
-673 -767 0
-673 -768 0
-673 -769 0
-673 -770 0
-673 -771 0
-673 -772 0
-673 -773 0
-673 -774 0
-673 -775 0
-673 -776 0
-673 -777 0
-673 -778 0
-673 -779 0
-673 -780 0
-673 -781 0
-673 -782 0
-673 -783 0
-673 -784 0
-673 -785 0
-673 -786 0
-673 -787 0
-673 -788 0
-673 -789 0
-673 -790 0
-673 -791 0
-673 -792 0
-673 -793 0
-673 -794 0
-673 -795 0
-673 -796 0
-673 -797 0
-673 -798 0
-673 -799 0
-673 -800 0
-673 -801 0
-673 -802 0
-673 -803 0
-673 -804 0
-673 -805 0
-673 -806 0
-673 -807 0
-673 -808 0
-673 -809 0
-673 -810 0
-673 -811 0
-673 -812 0
-674 -675 0
-674 -676 0
-674 -677 0
-674 -678 0
-674 -679 0
-674 -680 0
-674 -681 0
-674 -682 0
-674 -683 0
-674 -684 0
-674 -685 0
-674 -686 0
-674 -687 0
-674 -688 0
-674 -689 0
-674 -690 0
-674 -691 0
-674 -692 0
-674 -693 0
-674 -694 0
-674 -695 0
-674 -696 0
-674 -697 0
-674 -698 0
-674 -699 0
-674 -700 0
-674 -701 0
-674 -702 0
-674 -703 0
-674 -704 0
-674 -705 0
-674 -706 0
-674 -707 0
-674 -708 0
-674 -709 0
-674 -710 0
-674 -711 0
-674 -712 0
-674 -713 0
-674 -714 0
-674 -715 0
-674 -716 0
-674 -717 0
-674 -718 0
-674 -719 0
-674 -720 0
-674 -721 0
-674 -722 0
-674 -723 0
-674 -724 0
-674 -725 0
-674 -726 0
-674 -727 0
-674 -728 0
-674 -729 0
-674 -730 0
-674 -731 0
-674 -732 0
-674 -733 0
-674 -734 0
-674 -735 0
-674 -736 0
-674 -737 0
-674 -738 0
-674 -739 0
-674 -740 0
-674 -741 0
-674 -742 0
-674 -743 0
-674 -744 0
-674 -745 0
-674 -746 0
-674 -747 0
-674 -748 0
-674 -749 0
-674 -750 0
-674 -751 0
-674 -752 0
-674 -753 0
-674 -754 0
-674 -755 0
-674 -756 0
-674 -757 0
-674 -758 0
-674 -759 0
-674 -760 0
-674 -761 0
-674 -762 0
-674 -763 0
-674 -764 0
-674 -765 0
-674 -766 0
-674 -767 0
-674 -768 0
-674 -769 0
-674 -770 0
-674 -771 0
-674 -772 0
-674 -773 0
-674 -774 0
-674 -775 0
-674 -776 0
-674 -777 0
-674 -778 0
-674 -779 0
-674 -780 0
-674 -781 0
-674 -782 0
-674 -783 0
-674 -784 0
-674 -785 0
-674 -786 0
-674 -787 0
-674 -788 0
-674 -789 0
-674 -790 0
-674 -791 0
-674 -792 0
-674 -793 0
-674 -794 0
-674 -795 0
-674 -796 0
-674 -797 0
-674 -798 0
-674 -799 0
-674 -800 0
-674 -801 0
-674 -802 0
-674 -803 0
-674 -804 0
-674 -805 0
-674 -806 0
-674 -807 0
-674 -808 0
-674 -809 0
-674 -810 0
-674 -811 0
-674 -812 0
-675 -676 0
-675 -677 0
-675 -678 0
-675 -679 0
-675 -680 0
-675 -681 0
-675 -682 0
-675 -683 0
-675 -684 0
-675 -685 0
-675 -686 0
-675 -687 0
-675 -688 0
-675 -689 0
-675 -690 0
-675 -691 0
-675 -692 0
-675 -693 0
-675 -694 0
-675 -695 0
-675 -696 0
-675 -697 0
-675 -698 0
-675 -699 0
-675 -700 0
-675 -701 0
-675 -702 0
-675 -703 0
-675 -704 0
-675 -705 0
-675 -706 0
-675 -707 0
-675 -708 0
-675 -709 0
-675 -710 0
-675 -711 0
-675 -712 0
-675 -713 0
-675 -714 0
-675 -715 0
-675 -716 0
-675 -717 0
-675 -718 0
-675 -719 0
-675 -720 0
-675 -721 0
-675 -722 0
-675 -723 0
-675 -724 0
-675 -725 0
-675 -726 0
-675 -727 0
-675 -728 0
-675 -729 0
-675 -730 0
-675 -731 0
-675 -732 0
-675 -733 0
-675 -734 0
-675 -735 0
-675 -736 0
-675 -737 0
-675 -738 0
-675 -739 0
-675 -740 0
-675 -741 0
-675 -742 0
-675 -743 0
-675 -744 0
-675 -745 0
-675 -746 0
-675 -747 0
-675 -748 0
-675 -749 0
-675 -750 0
-675 -751 0
-675 -752 0
-675 -753 0
-675 -754 0
-675 -755 0
-675 -756 0
-675 -757 0
-675 -758 0
-675 -759 0
-675 -760 0
-675 -761 0
-675 -762 0
-675 -763 0
-675 -764 0
-675 -765 0
-675 -766 0
-675 -767 0
-675 -768 0
-675 -769 0
-675 -770 0
-675 -771 0
-675 -772 0
-675 -773 0
-675 -774 0
-675 -775 0
-675 -776 0
-675 -777 0
-675 -778 0
-675 -779 0
-675 -780 0
-675 -781 0
-675 -782 0
-675 -783 0
-675 -784 0
-675 -785 0
-675 -786 0
-675 -787 0
-675 -788 0
-675 -789 0
-675 -790 0
-675 -791 0
-675 -792 0
-675 -793 0
-675 -794 0
-675 -795 0
-675 -796 0
-675 -797 0
-675 -798 0
-675 -799 0
-675 -800 0
-675 -801 0
-675 -802 0
-675 -803 0
-675 -804 0
-675 -805 0
-675 -806 0
-675 -807 0
-675 -808 0
-675 -809 0
-675 -810 0
-675 -811 0
-675 -812 0
-676 -677 0
-676 -678 0
-676 -679 0
-676 -680 0
-676 -681 0
-676 -682 0
-676 -683 0
-676 -684 0
-676 -685 0
-676 -686 0
-676 -687 0
-676 -688 0
-676 -689 0
-676 -690 0
-676 -691 0
-676 -692 0
-676 -693 0
-676 -694 0
-676 -695 0
-676 -696 0
-676 -697 0
-676 -698 0
-676 -699 0
-676 -700 0
-676 -701 0
-676 -702 0
-676 -703 0
-676 -704 0
-676 -705 0
-676 -706 0
-676 -707 0
-676 -708 0
-676 -709 0
-676 -710 0
-676 -711 0
-676 -712 0
-676 -713 0
-676 -714 0
-676 -715 0
-676 -716 0
-676 -717 0
-676 -718 0
-676 -719 0
-676 -720 0
-676 -721 0
-676 -722 0
-676 -723 0
-676 -724 0
-676 -725 0
-676 -726 0
-676 -727 0
-676 -728 0
-676 -729 0
-676 -730 0
-676 -731 0
-676 -732 0
-676 -733 0
-676 -734 0
-676 -735 0
-676 -736 0
-676 -737 0
-676 -738 0
-676 -739 0
-676 -740 0
-676 -741 0
-676 -742 0
-676 -743 0
-676 -744 0
-676 -745 0
-676 -746 0
-676 -747 0
-676 -748 0
-676 -749 0
-676 -750 0
-676 -751 0
-676 -752 0
-676 -753 0
-676 -754 0
-676 -755 0
-676 -756 0
-676 -757 0
-676 -758 0
-676 -759 0
-676 -760 0
-676 -761 0
-676 -762 0
-676 -763 0
-676 -764 0
-676 -765 0
-676 -766 0
-676 -767 0
-676 -768 0
-676 -769 0
-676 -770 0
-676 -771 0
-676 -772 0
-676 -773 0
-676 -774 0
-676 -775 0
-676 -776 0
-676 -777 0
-676 -778 0
-676 -779 0
-676 -780 0
-676 -781 0
-676 -782 0
-676 -783 0
-676 -784 0
-676 -785 0
-676 -786 0
-676 -787 0
-676 -788 0
-676 -789 0
-676 -790 0
-676 -791 0
-676 -792 0
-676 -793 0
-676 -794 0
-676 -795 0
-676 -796 0
-676 -797 0
-676 -798 0
-676 -799 0
-676 -800 0
-676 -801 0
-676 -802 0
-676 -803 0
-676 -804 0
-676 -805 0
-676 -806 0
-676 -807 0
-676 -808 0
-676 -809 0
-676 -810 0
-676 -811 0
-676 -812 0
-677 -678 0
-677 -679 0
-677 -680 0
-677 -681 0
-677 -682 0
-677 -683 0
-677 -684 0
-677 -685 0
-677 -686 0
-677 -687 0
-677 -688 0
-677 -689 0
-677 -690 0
-677 -691 0
-677 -692 0
-677 -693 0
-677 -694 0
-677 -695 0
-677 -696 0
-677 -697 0
-677 -698 0
-677 -699 0
-677 -700 0
-677 -701 0
-677 -702 0
-677 -703 0
-677 -704 0
-677 -705 0
-677 -706 0
-677 -707 0
-677 -708 0
-677 -709 0
-677 -710 0
-677 -711 0
-677 -712 0
-677 -713 0
-677 -714 0
-677 -715 0
-677 -716 0
-677 -717 0
-677 -718 0
-677 -719 0
-677 -720 0
-677 -721 0
-677 -722 0
-677 -723 0
-677 -724 0
-677 -725 0
-677 -726 0
-677 -727 0
-677 -728 0
-677 -729 0
-677 -730 0
-677 -731 0
-677 -732 0
-677 -733 0
-677 -734 0
-677 -735 0
-677 -736 0
-677 -737 0
-677 -738 0
-677 -739 0
-677 -740 0
-677 -741 0
-677 -742 0
-677 -743 0
-677 -744 0
-677 -745 0
-677 -746 0
-677 -747 0
-677 -748 0
-677 -749 0
-677 -750 0
-677 -751 0
-677 -752 0
-677 -753 0
-677 -754 0
-677 -755 0
-677 -756 0
-677 -757 0
-677 -758 0
-677 -759 0
-677 -760 0
-677 -761 0
-677 -762 0
-677 -763 0
-677 -764 0
-677 -765 0
-677 -766 0
-677 -767 0
-677 -768 0
-677 -769 0
-677 -770 0
-677 -771 0
-677 -772 0
-677 -773 0
-677 -774 0
-677 -775 0
-677 -776 0
-677 -777 0
-677 -778 0
-677 -779 0
-677 -780 0
-677 -781 0
-677 -782 0
-677 -783 0
-677 -784 0
-677 -785 0
-677 -786 0
-677 -787 0
-677 -788 0
-677 -789 0
-677 -790 0
-677 -791 0
-677 -792 0
-677 -793 0
-677 -794 0
-677 -795 0
-677 -796 0
-677 -797 0
-677 -798 0
-677 -799 0
-677 -800 0
-677 -801 0
-677 -802 0
-677 -803 0
-677 -804 0
-677 -805 0
-677 -806 0
-677 -807 0
-677 -808 0
-677 -809 0
-677 -810 0
-677 -811 0
-677 -812 0
-678 -679 0
-678 -680 0
-678 -681 0
-678 -682 0
-678 -683 0
-678 -684 0
-678 -685 0
-678 -686 0
-678 -687 0
-678 -688 0
-678 -689 0
-678 -690 0
-678 -691 0
-678 -692 0
-678 -693 0
-678 -694 0
-678 -695 0
-678 -696 0
-678 -697 0
-678 -698 0
-678 -699 0
-678 -700 0
-678 -701 0
-678 -702 0
-678 -703 0
-678 -704 0
-678 -705 0
-678 -706 0
-678 -707 0
-678 -708 0
-678 -709 0
-678 -710 0
-678 -711 0
-678 -712 0
-678 -713 0
-678 -714 0
-678 -715 0
-678 -716 0
-678 -717 0
-678 -718 0
-678 -719 0
-678 -720 0
-678 -721 0
-678 -722 0
-678 -723 0
-678 -724 0
-678 -725 0
-678 -726 0
-678 -727 0
-678 -728 0
-678 -729 0
-678 -730 0
-678 -731 0
-678 -732 0
-678 -733 0
-678 -734 0
-678 -735 0
-678 -736 0
-678 -737 0
-678 -738 0
-678 -739 0
-678 -740 0
-678 -741 0
-678 -742 0
-678 -743 0
-678 -744 0
-678 -745 0
-678 -746 0
-678 -747 0
-678 -748 0
-678 -749 0
-678 -750 0
-678 -751 0
-678 -752 0
-678 -753 0
-678 -754 0
-678 -755 0
-678 -756 0
-678 -757 0
-678 -758 0
-678 -759 0
-678 -760 0
-678 -761 0
-678 -762 0
-678 -763 0
-678 -764 0
-678 -765 0
-678 -766 0
-678 -767 0
-678 -768 0
-678 -769 0
-678 -770 0
-678 -771 0
-678 -772 0
-678 -773 0
-678 -774 0
-678 -775 0
-678 -776 0
-678 -777 0
-678 -778 0
-678 -779 0
-678 -780 0
-678 -781 0
-678 -782 0
-678 -783 0
-678 -784 0
-678 -785 0
-678 -786 0
-678 -787 0
-678 -788 0
-678 -789 0
-678 -790 0
-678 -791 0
-678 -792 0
-678 -793 0
-678 -794 0
-678 -795 0
-678 -796 0
-678 -797 0
-678 -798 0
-678 -799 0
-678 -800 0
-678 -801 0
-678 -802 0
-678 -803 0
-678 -804 0
-678 -805 0
-678 -806 0
-678 -807 0
-678 -808 0
-678 -809 0
-678 -810 0
-678 -811 0
-678 -812 0
-679 -680 0
-679 -681 0
-679 -682 0
-679 -683 0
-679 -684 0
-679 -685 0
-679 -686 0
-679 -687 0
-679 -688 0
-679 -689 0
-679 -690 0
-679 -691 0
-679 -692 0
-679 -693 0
-679 -694 0
-679 -695 0
-679 -696 0
-679 -697 0
-679 -698 0
-679 -699 0
-679 -700 0
-679 -701 0
-679 -702 0
-679 -703 0
-679 -704 0
-679 -705 0
-679 -706 0
-679 -707 0
-679 -708 0
-679 -709 0
-679 -710 0
-679 -711 0
-679 -712 0
-679 -713 0
-679 -714 0
-679 -715 0
-679 -716 0
-679 -717 0
-679 -718 0
-679 -719 0
-679 -720 0
-679 -721 0
-679 -722 0
-679 -723 0
-679 -724 0
-679 -725 0
-679 -726 0
-679 -727 0
-679 -728 0
-679 -729 0
-679 -730 0
-679 -731 0
-679 -732 0
-679 -733 0
-679 -734 0
-679 -735 0
-679 -736 0
-679 -737 0
-679 -738 0
-679 -739 0
-679 -740 0
-679 -741 0
-679 -742 0
-679 -743 0
-679 -744 0
-679 -745 0
-679 -746 0
-679 -747 0
-679 -748 0
-679 -749 0
-679 -750 0
-679 -751 0
-679 -752 0
-679 -753 0
-679 -754 0
-679 -755 0
-679 -756 0
-679 -757 0
-679 -758 0
-679 -759 0
-679 -760 0
-679 -761 0
-679 -762 0
-679 -763 0
-679 -764 0
-679 -765 0
-679 -766 0
-679 -767 0
-679 -768 0
-679 -769 0
-679 -770 0
-679 -771 0
-679 -772 0
-679 -773 0
-679 -774 0
-679 -775 0
-679 -776 0
-679 -777 0
-679 -778 0
-679 -779 0
-679 -780 0
-679 -781 0
-679 -782 0
-679 -783 0
-679 -784 0
-679 -785 0
-679 -786 0
-679 -787 0
-679 -788 0
-679 -789 0
-679 -790 0
-679 -791 0
-679 -792 0
-679 -793 0
-679 -794 0
-679 -795 0
-679 -796 0
-679 -797 0
-679 -798 0
-679 -799 0
-679 -800 0
-679 -801 0
-679 -802 0
-679 -803 0
-679 -804 0
-679 -805 0
-679 -806 0
-679 -807 0
-679 -808 0
-679 -809 0
-679 -810 0
-679 -811 0
-679 -812 0
-680 -681 0
-680 -682 0
-680 -683 0
-680 -684 0
-680 -685 0
-680 -686 0
-680 -687 0
-680 -688 0
-680 -689 0
-680 -690 0
-680 -691 0
-680 -692 0
-680 -693 0
-680 -694 0
-680 -695 0
-680 -696 0
-680 -697 0
-680 -698 0
-680 -699 0
-680 -700 0
-680 -701 0
-680 -702 0
-680 -703 0
-680 -704 0
-680 -705 0
-680 -706 0
-680 -707 0
-680 -708 0
-680 -709 0
-680 -710 0
-680 -711 0
-680 -712 0
-680 -713 0
-680 -714 0
-680 -715 0
-680 -716 0
-680 -717 0
-680 -718 0
-680 -719 0
-680 -720 0
-680 -721 0
-680 -722 0
-680 -723 0
-680 -724 0
-680 -725 0
-680 -726 0
-680 -727 0
-680 -728 0
-680 -729 0
-680 -730 0
-680 -731 0
-680 -732 0
-680 -733 0
-680 -734 0
-680 -735 0
-680 -736 0
-680 -737 0
-680 -738 0
-680 -739 0
-680 -740 0
-680 -741 0
-680 -742 0
-680 -743 0
-680 -744 0
-680 -745 0
-680 -746 0
-680 -747 0
-680 -748 0
-680 -749 0
-680 -750 0
-680 -751 0
-680 -752 0
-680 -753 0
-680 -754 0
-680 -755 0
-680 -756 0
-680 -757 0
-680 -758 0
-680 -759 0
-680 -760 0
-680 -761 0
-680 -762 0
-680 -763 0
-680 -764 0
-680 -765 0
-680 -766 0
-680 -767 0
-680 -768 0
-680 -769 0
-680 -770 0
-680 -771 0
-680 -772 0
-680 -773 0
-680 -774 0
-680 -775 0
-680 -776 0
-680 -777 0
-680 -778 0
-680 -779 0
-680 -780 0
-680 -781 0
-680 -782 0
-680 -783 0
-680 -784 0
-680 -785 0
-680 -786 0
-680 -787 0
-680 -788 0
-680 -789 0
-680 -790 0
-680 -791 0
-680 -792 0
-680 -793 0
-680 -794 0
-680 -795 0
-680 -796 0
-680 -797 0
-680 -798 0
-680 -799 0
-680 -800 0
-680 -801 0
-680 -802 0
-680 -803 0
-680 -804 0
-680 -805 0
-680 -806 0
-680 -807 0
-680 -808 0
-680 -809 0
-680 -810 0
-680 -811 0
-680 -812 0
-681 -682 0
-681 -683 0
-681 -684 0
-681 -685 0
-681 -686 0
-681 -687 0
-681 -688 0
-681 -689 0
-681 -690 0
-681 -691 0
-681 -692 0
-681 -693 0
-681 -694 0
-681 -695 0
-681 -696 0
-681 -697 0
-681 -698 0
-681 -699 0
-681 -700 0
-681 -701 0
-681 -702 0
-681 -703 0
-681 -704 0
-681 -705 0
-681 -706 0
-681 -707 0
-681 -708 0
-681 -709 0
-681 -710 0
-681 -711 0
-681 -712 0
-681 -713 0
-681 -714 0
-681 -715 0
-681 -716 0
-681 -717 0
-681 -718 0
-681 -719 0
-681 -720 0
-681 -721 0
-681 -722 0
-681 -723 0
-681 -724 0
-681 -725 0
-681 -726 0
-681 -727 0
-681 -728 0
-681 -729 0
-681 -730 0
-681 -731 0
-681 -732 0
-681 -733 0
-681 -734 0
-681 -735 0
-681 -736 0
-681 -737 0
-681 -738 0
-681 -739 0
-681 -740 0
-681 -741 0
-681 -742 0
-681 -743 0
-681 -744 0
-681 -745 0
-681 -746 0
-681 -747 0
-681 -748 0
-681 -749 0
-681 -750 0
-681 -751 0
-681 -752 0
-681 -753 0
-681 -754 0
-681 -755 0
-681 -756 0
-681 -757 0
-681 -758 0
-681 -759 0
-681 -760 0
-681 -761 0
-681 -762 0
-681 -763 0
-681 -764 0
-681 -765 0
-681 -766 0
-681 -767 0
-681 -768 0
-681 -769 0
-681 -770 0
-681 -771 0
-681 -772 0
-681 -773 0
-681 -774 0
-681 -775 0
-681 -776 0
-681 -777 0
-681 -778 0
-681 -779 0
-681 -780 0
-681 -781 0
-681 -782 0
-681 -783 0
-681 -784 0
-681 -785 0
-681 -786 0
-681 -787 0
-681 -788 0
-681 -789 0
-681 -790 0
-681 -791 0
-681 -792 0
-681 -793 0
-681 -794 0
-681 -795 0
-681 -796 0
-681 -797 0
-681 -798 0
-681 -799 0
-681 -800 0
-681 -801 0
-681 -802 0
-681 -803 0
-681 -804 0
-681 -805 0
-681 -806 0
-681 -807 0
-681 -808 0
-681 -809 0
-681 -810 0
-681 -811 0
-681 -812 0
-682 -683 0
-682 -684 0
-682 -685 0
-682 -686 0
-682 -687 0
-682 -688 0
-682 -689 0
-682 -690 0
-682 -691 0
-682 -692 0
-682 -693 0
-682 -694 0
-682 -695 0
-682 -696 0
-682 -697 0
-682 -698 0
-682 -699 0
-682 -700 0
-682 -701 0
-682 -702 0
-682 -703 0
-682 -704 0
-682 -705 0
-682 -706 0
-682 -707 0
-682 -708 0
-682 -709 0
-682 -710 0
-682 -711 0
-682 -712 0
-682 -713 0
-682 -714 0
-682 -715 0
-682 -716 0
-682 -717 0
-682 -718 0
-682 -719 0
-682 -720 0
-682 -721 0
-682 -722 0
-682 -723 0
-682 -724 0
-682 -725 0
-682 -726 0
-682 -727 0
-682 -728 0
-682 -729 0
-682 -730 0
-682 -731 0
-682 -732 0
-682 -733 0
-682 -734 0
-682 -735 0
-682 -736 0
-682 -737 0
-682 -738 0
-682 -739 0
-682 -740 0
-682 -741 0
-682 -742 0
-682 -743 0
-682 -744 0
-682 -745 0
-682 -746 0
-682 -747 0
-682 -748 0
-682 -749 0
-682 -750 0
-682 -751 0
-682 -752 0
-682 -753 0
-682 -754 0
-682 -755 0
-682 -756 0
-682 -757 0
-682 -758 0
-682 -759 0
-682 -760 0
-682 -761 0
-682 -762 0
-682 -763 0
-682 -764 0
-682 -765 0
-682 -766 0
-682 -767 0
-682 -768 0
-682 -769 0
-682 -770 0
-682 -771 0
-682 -772 0
-682 -773 0
-682 -774 0
-682 -775 0
-682 -776 0
-682 -777 0
-682 -778 0
-682 -779 0
-682 -780 0
-682 -781 0
-682 -782 0
-682 -783 0
-682 -784 0
-682 -785 0
-682 -786 0
-682 -787 0
-682 -788 0
-682 -789 0
-682 -790 0
-682 -791 0
-682 -792 0
-682 -793 0
-682 -794 0
-682 -795 0
-682 -796 0
-682 -797 0
-682 -798 0
-682 -799 0
-682 -800 0
-682 -801 0
-682 -802 0
-682 -803 0
-682 -804 0
-682 -805 0
-682 -806 0
-682 -807 0
-682 -808 0
-682 -809 0
-682 -810 0
-682 -811 0
-682 -812 0
-683 -684 0
-683 -685 0
-683 -686 0
-683 -687 0
-683 -688 0
-683 -689 0
-683 -690 0
-683 -691 0
-683 -692 0
-683 -693 0
-683 -694 0
-683 -695 0
-683 -696 0
-683 -697 0
-683 -698 0
-683 -699 0
-683 -700 0
-683 -701 0
-683 -702 0
-683 -703 0
-683 -704 0
-683 -705 0
-683 -706 0
-683 -707 0
-683 -708 0
-683 -709 0
-683 -710 0
-683 -711 0
-683 -712 0
-683 -713 0
-683 -714 0
-683 -715 0
-683 -716 0
-683 -717 0
-683 -718 0
-683 -719 0
-683 -720 0
-683 -721 0
-683 -722 0
-683 -723 0
-683 -724 0
-683 -725 0
-683 -726 0
-683 -727 0
-683 -728 0
-683 -729 0
-683 -730 0
-683 -731 0
-683 -732 0
-683 -733 0
-683 -734 0
-683 -735 0
-683 -736 0
-683 -737 0
-683 -738 0
-683 -739 0
-683 -740 0
-683 -741 0
-683 -742 0
-683 -743 0
-683 -744 0
-683 -745 0
-683 -746 0
-683 -747 0
-683 -748 0
-683 -749 0
-683 -750 0
-683 -751 0
-683 -752 0
-683 -753 0
-683 -754 0
-683 -755 0
-683 -756 0
-683 -757 0
-683 -758 0
-683 -759 0
-683 -760 0
-683 -761 0
-683 -762 0
-683 -763 0
-683 -764 0
-683 -765 0
-683 -766 0
-683 -767 0
-683 -768 0
-683 -769 0
-683 -770 0
-683 -771 0
-683 -772 0
-683 -773 0
-683 -774 0
-683 -775 0
-683 -776 0
-683 -777 0
-683 -778 0
-683 -779 0
-683 -780 0
-683 -781 0
-683 -782 0
-683 -783 0
-683 -784 0
-683 -785 0
-683 -786 0
-683 -787 0
-683 -788 0
-683 -789 0
-683 -790 0
-683 -791 0
-683 -792 0
-683 -793 0
-683 -794 0
-683 -795 0
-683 -796 0
-683 -797 0
-683 -798 0
-683 -799 0
-683 -800 0
-683 -801 0
-683 -802 0
-683 -803 0
-683 -804 0
-683 -805 0
-683 -806 0
-683 -807 0
-683 -808 0
-683 -809 0
-683 -810 0
-683 -811 0
-683 -812 0
-684 -685 0
-684 -686 0
-684 -687 0
-684 -688 0
-684 -689 0
-684 -690 0
-684 -691 0
-684 -692 0
-684 -693 0
-684 -694 0
-684 -695 0
-684 -696 0
-684 -697 0
-684 -698 0
-684 -699 0
-684 -700 0
-684 -701 0
-684 -702 0
-684 -703 0
-684 -704 0
-684 -705 0
-684 -706 0
-684 -707 0
-684 -708 0
-684 -709 0
-684 -710 0
-684 -711 0
-684 -712 0
-684 -713 0
-684 -714 0
-684 -715 0
-684 -716 0
-684 -717 0
-684 -718 0
-684 -719 0
-684 -720 0
-684 -721 0
-684 -722 0
-684 -723 0
-684 -724 0
-684 -725 0
-684 -726 0
-684 -727 0
-684 -728 0
-684 -729 0
-684 -730 0
-684 -731 0
-684 -732 0
-684 -733 0
-684 -734 0
-684 -735 0
-684 -736 0
-684 -737 0
-684 -738 0
-684 -739 0
-684 -740 0
-684 -741 0
-684 -742 0
-684 -743 0
-684 -744 0
-684 -745 0
-684 -746 0
-684 -747 0
-684 -748 0
-684 -749 0
-684 -750 0
-684 -751 0
-684 -752 0
-684 -753 0
-684 -754 0
-684 -755 0
-684 -756 0
-684 -757 0
-684 -758 0
-684 -759 0
-684 -760 0
-684 -761 0
-684 -762 0
-684 -763 0
-684 -764 0
-684 -765 0
-684 -766 0
-684 -767 0
-684 -768 0
-684 -769 0
-684 -770 0
-684 -771 0
-684 -772 0
-684 -773 0
-684 -774 0
-684 -775 0
-684 -776 0
-684 -777 0
-684 -778 0
-684 -779 0
-684 -780 0
-684 -781 0
-684 -782 0
-684 -783 0
-684 -784 0
-684 -785 0
-684 -786 0
-684 -787 0
-684 -788 0
-684 -789 0
-684 -790 0
-684 -791 0
-684 -792 0
-684 -793 0
-684 -794 0
-684 -795 0
-684 -796 0
-684 -797 0
-684 -798 0
-684 -799 0
-684 -800 0
-684 -801 0
-684 -802 0
-684 -803 0
-684 -804 0
-684 -805 0
-684 -806 0
-684 -807 0
-684 -808 0
-684 -809 0
-684 -810 0
-684 -811 0
-684 -812 0
-685 -686 0
-685 -687 0
-685 -688 0
-685 -689 0
-685 -690 0
-685 -691 0
-685 -692 0
-685 -693 0
-685 -694 0
-685 -695 0
-685 -696 0
-685 -697 0
-685 -698 0
-685 -699 0
-685 -700 0
-685 -701 0
-685 -702 0
-685 -703 0
-685 -704 0
-685 -705 0
-685 -706 0
-685 -707 0
-685 -708 0
-685 -709 0
-685 -710 0
-685 -711 0
-685 -712 0
-685 -713 0
-685 -714 0
-685 -715 0
-685 -716 0
-685 -717 0
-685 -718 0
-685 -719 0
-685 -720 0
-685 -721 0
-685 -722 0
-685 -723 0
-685 -724 0
-685 -725 0
-685 -726 0
-685 -727 0
-685 -728 0
-685 -729 0
-685 -730 0
-685 -731 0
-685 -732 0
-685 -733 0
-685 -734 0
-685 -735 0
-685 -736 0
-685 -737 0
-685 -738 0
-685 -739 0
-685 -740 0
-685 -741 0
-685 -742 0
-685 -743 0
-685 -744 0
-685 -745 0
-685 -746 0
-685 -747 0
-685 -748 0
-685 -749 0
-685 -750 0
-685 -751 0
-685 -752 0
-685 -753 0
-685 -754 0
-685 -755 0
-685 -756 0
-685 -757 0
-685 -758 0
-685 -759 0
-685 -760 0
-685 -761 0
-685 -762 0
-685 -763 0
-685 -764 0
-685 -765 0
-685 -766 0
-685 -767 0
-685 -768 0
-685 -769 0
-685 -770 0
-685 -771 0
-685 -772 0
-685 -773 0
-685 -774 0
-685 -775 0
-685 -776 0
-685 -777 0
-685 -778 0
-685 -779 0
-685 -780 0
-685 -781 0
-685 -782 0
-685 -783 0
-685 -784 0
-685 -785 0
-685 -786 0
-685 -787 0
-685 -788 0
-685 -789 0
-685 -790 0
-685 -791 0
-685 -792 0
-685 -793 0
-685 -794 0
-685 -795 0
-685 -796 0
-685 -797 0
-685 -798 0
-685 -799 0
-685 -800 0
-685 -801 0
-685 -802 0
-685 -803 0
-685 -804 0
-685 -805 0
-685 -806 0
-685 -807 0
-685 -808 0
-685 -809 0
-685 -810 0
-685 -811 0
-685 -812 0
-686 -687 0
-686 -688 0
-686 -689 0
-686 -690 0
-686 -691 0
-686 -692 0
-686 -693 0
-686 -694 0
-686 -695 0
-686 -696 0
-686 -697 0
-686 -698 0
-686 -699 0
-686 -700 0
-686 -701 0
-686 -702 0
-686 -703 0
-686 -704 0
-686 -705 0
-686 -706 0
-686 -707 0
-686 -708 0
-686 -709 0
-686 -710 0
-686 -711 0
-686 -712 0
-686 -713 0
-686 -714 0
-686 -715 0
-686 -716 0
-686 -717 0
-686 -718 0
-686 -719 0
-686 -720 0
-686 -721 0
-686 -722 0
-686 -723 0
-686 -724 0
-686 -725 0
-686 -726 0
-686 -727 0
-686 -728 0
-686 -729 0
-686 -730 0
-686 -731 0
-686 -732 0
-686 -733 0
-686 -734 0
-686 -735 0
-686 -736 0
-686 -737 0
-686 -738 0
-686 -739 0
-686 -740 0
-686 -741 0
-686 -742 0
-686 -743 0
-686 -744 0
-686 -745 0
-686 -746 0
-686 -747 0
-686 -748 0
-686 -749 0
-686 -750 0
-686 -751 0
-686 -752 0
-686 -753 0
-686 -754 0
-686 -755 0
-686 -756 0
-686 -757 0
-686 -758 0
-686 -759 0
-686 -760 0
-686 -761 0
-686 -762 0
-686 -763 0
-686 -764 0
-686 -765 0
-686 -766 0
-686 -767 0
-686 -768 0
-686 -769 0
-686 -770 0
-686 -771 0
-686 -772 0
-686 -773 0
-686 -774 0
-686 -775 0
-686 -776 0
-686 -777 0
-686 -778 0
-686 -779 0
-686 -780 0
-686 -781 0
-686 -782 0
-686 -783 0
-686 -784 0
-686 -785 0
-686 -786 0
-686 -787 0
-686 -788 0
-686 -789 0
-686 -790 0
-686 -791 0
-686 -792 0
-686 -793 0
-686 -794 0
-686 -795 0
-686 -796 0
-686 -797 0
-686 -798 0
-686 -799 0
-686 -800 0
-686 -801 0
-686 -802 0
-686 -803 0
-686 -804 0
-686 -805 0
-686 -806 0
-686 -807 0
-686 -808 0
-686 -809 0
-686 -810 0
-686 -811 0
-686 -812 0
-687 -688 0
-687 -689 0
-687 -690 0
-687 -691 0
-687 -692 0
-687 -693 0
-687 -694 0
-687 -695 0
-687 -696 0
-687 -697 0
-687 -698 0
-687 -699 0
-687 -700 0
-687 -701 0
-687 -702 0
-687 -703 0
-687 -704 0
-687 -705 0
-687 -706 0
-687 -707 0
-687 -708 0
-687 -709 0
-687 -710 0
-687 -711 0
-687 -712 0
-687 -713 0
-687 -714 0
-687 -715 0
-687 -716 0
-687 -717 0
-687 -718 0
-687 -719 0
-687 -720 0
-687 -721 0
-687 -722 0
-687 -723 0
-687 -724 0
-687 -725 0
-687 -726 0
-687 -727 0
-687 -728 0
-687 -729 0
-687 -730 0
-687 -731 0
-687 -732 0
-687 -733 0
-687 -734 0
-687 -735 0
-687 -736 0
-687 -737 0
-687 -738 0
-687 -739 0
-687 -740 0
-687 -741 0
-687 -742 0
-687 -743 0
-687 -744 0
-687 -745 0
-687 -746 0
-687 -747 0
-687 -748 0
-687 -749 0
-687 -750 0
-687 -751 0
-687 -752 0
-687 -753 0
-687 -754 0
-687 -755 0
-687 -756 0
-687 -757 0
-687 -758 0
-687 -759 0
-687 -760 0
-687 -761 0
-687 -762 0
-687 -763 0
-687 -764 0
-687 -765 0
-687 -766 0
-687 -767 0
-687 -768 0
-687 -769 0
-687 -770 0
-687 -771 0
-687 -772 0
-687 -773 0
-687 -774 0
-687 -775 0
-687 -776 0
-687 -777 0
-687 -778 0
-687 -779 0
-687 -780 0
-687 -781 0
-687 -782 0
-687 -783 0
-687 -784 0
-687 -785 0
-687 -786 0
-687 -787 0
-687 -788 0
-687 -789 0
-687 -790 0
-687 -791 0
-687 -792 0
-687 -793 0
-687 -794 0
-687 -795 0
-687 -796 0
-687 -797 0
-687 -798 0
-687 -799 0
-687 -800 0
-687 -801 0
-687 -802 0
-687 -803 0
-687 -804 0
-687 -805 0
-687 -806 0
-687 -807 0
-687 -808 0
-687 -809 0
-687 -810 0
-687 -811 0
-687 -812 0
-688 -689 0
-688 -690 0
-688 -691 0
-688 -692 0
-688 -693 0
-688 -694 0
-688 -695 0
-688 -696 0
-688 -697 0
-688 -698 0
-688 -699 0
-688 -700 0
-688 -701 0
-688 -702 0
-688 -703 0
-688 -704 0
-688 -705 0
-688 -706 0
-688 -707 0
-688 -708 0
-688 -709 0
-688 -710 0
-688 -711 0
-688 -712 0
-688 -713 0
-688 -714 0
-688 -715 0
-688 -716 0
-688 -717 0
-688 -718 0
-688 -719 0
-688 -720 0
-688 -721 0
-688 -722 0
-688 -723 0
-688 -724 0
-688 -725 0
-688 -726 0
-688 -727 0
-688 -728 0
-688 -729 0
-688 -730 0
-688 -731 0
-688 -732 0
-688 -733 0
-688 -734 0
-688 -735 0
-688 -736 0
-688 -737 0
-688 -738 0
-688 -739 0
-688 -740 0
-688 -741 0
-688 -742 0
-688 -743 0
-688 -744 0
-688 -745 0
-688 -746 0
-688 -747 0
-688 -748 0
-688 -749 0
-688 -750 0
-688 -751 0
-688 -752 0
-688 -753 0
-688 -754 0
-688 -755 0
-688 -756 0
-688 -757 0
-688 -758 0
-688 -759 0
-688 -760 0
-688 -761 0
-688 -762 0
-688 -763 0
-688 -764 0
-688 -765 0
-688 -766 0
-688 -767 0
-688 -768 0
-688 -769 0
-688 -770 0
-688 -771 0
-688 -772 0
-688 -773 0
-688 -774 0
-688 -775 0
-688 -776 0
-688 -777 0
-688 -778 0
-688 -779 0
-688 -780 0
-688 -781 0
-688 -782 0
-688 -783 0
-688 -784 0
-688 -785 0
-688 -786 0
-688 -787 0
-688 -788 0
-688 -789 0
-688 -790 0
-688 -791 0
-688 -792 0
-688 -793 0
-688 -794 0
-688 -795 0
-688 -796 0
-688 -797 0
-688 -798 0
-688 -799 0
-688 -800 0
-688 -801 0
-688 -802 0
-688 -803 0
-688 -804 0
-688 -805 0
-688 -806 0
-688 -807 0
-688 -808 0
-688 -809 0
-688 -810 0
-688 -811 0
-688 -812 0
-689 -690 0
-689 -691 0
-689 -692 0
-689 -693 0
-689 -694 0
-689 -695 0
-689 -696 0
-689 -697 0
-689 -698 0
-689 -699 0
-689 -700 0
-689 -701 0
-689 -702 0
-689 -703 0
-689 -704 0
-689 -705 0
-689 -706 0
-689 -707 0
-689 -708 0
-689 -709 0
-689 -710 0
-689 -711 0
-689 -712 0
-689 -713 0
-689 -714 0
-689 -715 0
-689 -716 0
-689 -717 0
-689 -718 0
-689 -719 0
-689 -720 0
-689 -721 0
-689 -722 0
-689 -723 0
-689 -724 0
-689 -725 0
-689 -726 0
-689 -727 0
-689 -728 0
-689 -729 0
-689 -730 0
-689 -731 0
-689 -732 0
-689 -733 0
-689 -734 0
-689 -735 0
-689 -736 0
-689 -737 0
-689 -738 0
-689 -739 0
-689 -740 0
-689 -741 0
-689 -742 0
-689 -743 0
-689 -744 0
-689 -745 0
-689 -746 0
-689 -747 0
-689 -748 0
-689 -749 0
-689 -750 0
-689 -751 0
-689 -752 0
-689 -753 0
-689 -754 0
-689 -755 0
-689 -756 0
-689 -757 0
-689 -758 0
-689 -759 0
-689 -760 0
-689 -761 0
-689 -762 0
-689 -763 0
-689 -764 0
-689 -765 0
-689 -766 0
-689 -767 0
-689 -768 0
-689 -769 0
-689 -770 0
-689 -771 0
-689 -772 0
-689 -773 0
-689 -774 0
-689 -775 0
-689 -776 0
-689 -777 0
-689 -778 0
-689 -779 0
-689 -780 0
-689 -781 0
-689 -782 0
-689 -783 0
-689 -784 0
-689 -785 0
-689 -786 0
-689 -787 0
-689 -788 0
-689 -789 0
-689 -790 0
-689 -791 0
-689 -792 0
-689 -793 0
-689 -794 0
-689 -795 0
-689 -796 0
-689 -797 0
-689 -798 0
-689 -799 0
-689 -800 0
-689 -801 0
-689 -802 0
-689 -803 0
-689 -804 0
-689 -805 0
-689 -806 0
-689 -807 0
-689 -808 0
-689 -809 0
-689 -810 0
-689 -811 0
-689 -812 0
-690 -691 0
-690 -692 0
-690 -693 0
-690 -694 0
-690 -695 0
-690 -696 0
-690 -697 0
-690 -698 0
-690 -699 0
-690 -700 0
-690 -701 0
-690 -702 0
-690 -703 0
-690 -704 0
-690 -705 0
-690 -706 0
-690 -707 0
-690 -708 0
-690 -709 0
-690 -710 0
-690 -711 0
-690 -712 0
-690 -713 0
-690 -714 0
-690 -715 0
-690 -716 0
-690 -717 0
-690 -718 0
-690 -719 0
-690 -720 0
-690 -721 0
-690 -722 0
-690 -723 0
-690 -724 0
-690 -725 0
-690 -726 0
-690 -727 0
-690 -728 0
-690 -729 0
-690 -730 0
-690 -731 0
-690 -732 0
-690 -733 0
-690 -734 0
-690 -735 0
-690 -736 0
-690 -737 0
-690 -738 0
-690 -739 0
-690 -740 0
-690 -741 0
-690 -742 0
-690 -743 0
-690 -744 0
-690 -745 0
-690 -746 0
-690 -747 0
-690 -748 0
-690 -749 0
-690 -750 0
-690 -751 0
-690 -752 0
-690 -753 0
-690 -754 0
-690 -755 0
-690 -756 0
-690 -757 0
-690 -758 0
-690 -759 0
-690 -760 0
-690 -761 0
-690 -762 0
-690 -763 0
-690 -764 0
-690 -765 0
-690 -766 0
-690 -767 0
-690 -768 0
-690 -769 0
-690 -770 0
-690 -771 0
-690 -772 0
-690 -773 0
-690 -774 0
-690 -775 0
-690 -776 0
-690 -777 0
-690 -778 0
-690 -779 0
-690 -780 0
-690 -781 0
-690 -782 0
-690 -783 0
-690 -784 0
-690 -785 0
-690 -786 0
-690 -787 0
-690 -788 0
-690 -789 0
-690 -790 0
-690 -791 0
-690 -792 0
-690 -793 0
-690 -794 0
-690 -795 0
-690 -796 0
-690 -797 0
-690 -798 0
-690 -799 0
-690 -800 0
-690 -801 0
-690 -802 0
-690 -803 0
-690 -804 0
-690 -805 0
-690 -806 0
-690 -807 0
-690 -808 0
-690 -809 0
-690 -810 0
-690 -811 0
-690 -812 0
-691 -692 0
-691 -693 0
-691 -694 0
-691 -695 0
-691 -696 0
-691 -697 0
-691 -698 0
-691 -699 0
-691 -700 0
-691 -701 0
-691 -702 0
-691 -703 0
-691 -704 0
-691 -705 0
-691 -706 0
-691 -707 0
-691 -708 0
-691 -709 0
-691 -710 0
-691 -711 0
-691 -712 0
-691 -713 0
-691 -714 0
-691 -715 0
-691 -716 0
-691 -717 0
-691 -718 0
-691 -719 0
-691 -720 0
-691 -721 0
-691 -722 0
-691 -723 0
-691 -724 0
-691 -725 0
-691 -726 0
-691 -727 0
-691 -728 0
-691 -729 0
-691 -730 0
-691 -731 0
-691 -732 0
-691 -733 0
-691 -734 0
-691 -735 0
-691 -736 0
-691 -737 0
-691 -738 0
-691 -739 0
-691 -740 0
-691 -741 0
-691 -742 0
-691 -743 0
-691 -744 0
-691 -745 0
-691 -746 0
-691 -747 0
-691 -748 0
-691 -749 0
-691 -750 0
-691 -751 0
-691 -752 0
-691 -753 0
-691 -754 0
-691 -755 0
-691 -756 0
-691 -757 0
-691 -758 0
-691 -759 0
-691 -760 0
-691 -761 0
-691 -762 0
-691 -763 0
-691 -764 0
-691 -765 0
-691 -766 0
-691 -767 0
-691 -768 0
-691 -769 0
-691 -770 0
-691 -771 0
-691 -772 0
-691 -773 0
-691 -774 0
-691 -775 0
-691 -776 0
-691 -777 0
-691 -778 0
-691 -779 0
-691 -780 0
-691 -781 0
-691 -782 0
-691 -783 0
-691 -784 0
-691 -785 0
-691 -786 0
-691 -787 0
-691 -788 0
-691 -789 0
-691 -790 0
-691 -791 0
-691 -792 0
-691 -793 0
-691 -794 0
-691 -795 0
-691 -796 0
-691 -797 0
-691 -798 0
-691 -799 0
-691 -800 0
-691 -801 0
-691 -802 0
-691 -803 0
-691 -804 0
-691 -805 0
-691 -806 0
-691 -807 0
-691 -808 0
-691 -809 0
-691 -810 0
-691 -811 0
-691 -812 0
-692 -693 0
-692 -694 0
-692 -695 0
-692 -696 0
-692 -697 0
-692 -698 0
-692 -699 0
-692 -700 0
-692 -701 0
-692 -702 0
-692 -703 0
-692 -704 0
-692 -705 0
-692 -706 0
-692 -707 0
-692 -708 0
-692 -709 0
-692 -710 0
-692 -711 0
-692 -712 0
-692 -713 0
-692 -714 0
-692 -715 0
-692 -716 0
-692 -717 0
-692 -718 0
-692 -719 0
-692 -720 0
-692 -721 0
-692 -722 0
-692 -723 0
-692 -724 0
-692 -725 0
-692 -726 0
-692 -727 0
-692 -728 0
-692 -729 0
-692 -730 0
-692 -731 0
-692 -732 0
-692 -733 0
-692 -734 0
-692 -735 0
-692 -736 0
-692 -737 0
-692 -738 0
-692 -739 0
-692 -740 0
-692 -741 0
-692 -742 0
-692 -743 0
-692 -744 0
-692 -745 0
-692 -746 0
-692 -747 0
-692 -748 0
-692 -749 0
-692 -750 0
-692 -751 0
-692 -752 0
-692 -753 0
-692 -754 0
-692 -755 0
-692 -756 0
-692 -757 0
-692 -758 0
-692 -759 0
-692 -760 0
-692 -761 0
-692 -762 0
-692 -763 0
-692 -764 0
-692 -765 0
-692 -766 0
-692 -767 0
-692 -768 0
-692 -769 0
-692 -770 0
-692 -771 0
-692 -772 0
-692 -773 0
-692 -774 0
-692 -775 0
-692 -776 0
-692 -777 0
-692 -778 0
-692 -779 0
-692 -780 0
-692 -781 0
-692 -782 0
-692 -783 0
-692 -784 0
-692 -785 0
-692 -786 0
-692 -787 0
-692 -788 0
-692 -789 0
-692 -790 0
-692 -791 0
-692 -792 0
-692 -793 0
-692 -794 0
-692 -795 0
-692 -796 0
-692 -797 0
-692 -798 0
-692 -799 0
-692 -800 0
-692 -801 0
-692 -802 0
-692 -803 0
-692 -804 0
-692 -805 0
-692 -806 0
-692 -807 0
-692 -808 0
-692 -809 0
-692 -810 0
-692 -811 0
-692 -812 0
-693 -694 0
-693 -695 0
-693 -696 0
-693 -697 0
-693 -698 0
-693 -699 0
-693 -700 0
-693 -701 0
-693 -702 0
-693 -703 0
-693 -704 0
-693 -705 0
-693 -706 0
-693 -707 0
-693 -708 0
-693 -709 0
-693 -710 0
-693 -711 0
-693 -712 0
-693 -713 0
-693 -714 0
-693 -715 0
-693 -716 0
-693 -717 0
-693 -718 0
-693 -719 0
-693 -720 0
-693 -721 0
-693 -722 0
-693 -723 0
-693 -724 0
-693 -725 0
-693 -726 0
-693 -727 0
-693 -728 0
-693 -729 0
-693 -730 0
-693 -731 0
-693 -732 0
-693 -733 0
-693 -734 0
-693 -735 0
-693 -736 0
-693 -737 0
-693 -738 0
-693 -739 0
-693 -740 0
-693 -741 0
-693 -742 0
-693 -743 0
-693 -744 0
-693 -745 0
-693 -746 0
-693 -747 0
-693 -748 0
-693 -749 0
-693 -750 0
-693 -751 0
-693 -752 0
-693 -753 0
-693 -754 0
-693 -755 0
-693 -756 0
-693 -757 0
-693 -758 0
-693 -759 0
-693 -760 0
-693 -761 0
-693 -762 0
-693 -763 0
-693 -764 0
-693 -765 0
-693 -766 0
-693 -767 0
-693 -768 0
-693 -769 0
-693 -770 0
-693 -771 0
-693 -772 0
-693 -773 0
-693 -774 0
-693 -775 0
-693 -776 0
-693 -777 0
-693 -778 0
-693 -779 0
-693 -780 0
-693 -781 0
-693 -782 0
-693 -783 0
-693 -784 0
-693 -785 0
-693 -786 0
-693 -787 0
-693 -788 0
-693 -789 0
-693 -790 0
-693 -791 0
-693 -792 0
-693 -793 0
-693 -794 0
-693 -795 0
-693 -796 0
-693 -797 0
-693 -798 0
-693 -799 0
-693 -800 0
-693 -801 0
-693 -802 0
-693 -803 0
-693 -804 0
-693 -805 0
-693 -806 0
-693 -807 0
-693 -808 0
-693 -809 0
-693 -810 0
-693 -811 0
-693 -812 0
-694 -695 0
-694 -696 0
-694 -697 0
-694 -698 0
-694 -699 0
-694 -700 0
-694 -701 0
-694 -702 0
-694 -703 0
-694 -704 0
-694 -705 0
-694 -706 0
-694 -707 0
-694 -708 0
-694 -709 0
-694 -710 0
-694 -711 0
-694 -712 0
-694 -713 0
-694 -714 0
-694 -715 0
-694 -716 0
-694 -717 0
-694 -718 0
-694 -719 0
-694 -720 0
-694 -721 0
-694 -722 0
-694 -723 0
-694 -724 0
-694 -725 0
-694 -726 0
-694 -727 0
-694 -728 0
-694 -729 0
-694 -730 0
-694 -731 0
-694 -732 0
-694 -733 0
-694 -734 0
-694 -735 0
-694 -736 0
-694 -737 0
-694 -738 0
-694 -739 0
-694 -740 0
-694 -741 0
-694 -742 0
-694 -743 0
-694 -744 0
-694 -745 0
-694 -746 0
-694 -747 0
-694 -748 0
-694 -749 0
-694 -750 0
-694 -751 0
-694 -752 0
-694 -753 0
-694 -754 0
-694 -755 0
-694 -756 0
-694 -757 0
-694 -758 0
-694 -759 0
-694 -760 0
-694 -761 0
-694 -762 0
-694 -763 0
-694 -764 0
-694 -765 0
-694 -766 0
-694 -767 0
-694 -768 0
-694 -769 0
-694 -770 0
-694 -771 0
-694 -772 0
-694 -773 0
-694 -774 0
-694 -775 0
-694 -776 0
-694 -777 0
-694 -778 0
-694 -779 0
-694 -780 0
-694 -781 0
-694 -782 0
-694 -783 0
-694 -784 0
-694 -785 0
-694 -786 0
-694 -787 0
-694 -788 0
-694 -789 0
-694 -790 0
-694 -791 0
-694 -792 0
-694 -793 0
-694 -794 0
-694 -795 0
-694 -796 0
-694 -797 0
-694 -798 0
-694 -799 0
-694 -800 0
-694 -801 0
-694 -802 0
-694 -803 0
-694 -804 0
-694 -805 0
-694 -806 0
-694 -807 0
-694 -808 0
-694 -809 0
-694 -810 0
-694 -811 0
-694 -812 0
-695 -696 0
-695 -697 0
-695 -698 0
-695 -699 0
-695 -700 0
-695 -701 0
-695 -702 0
-695 -703 0
-695 -704 0
-695 -705 0
-695 -706 0
-695 -707 0
-695 -708 0
-695 -709 0
-695 -710 0
-695 -711 0
-695 -712 0
-695 -713 0
-695 -714 0
-695 -715 0
-695 -716 0
-695 -717 0
-695 -718 0
-695 -719 0
-695 -720 0
-695 -721 0
-695 -722 0
-695 -723 0
-695 -724 0
-695 -725 0
-695 -726 0
-695 -727 0
-695 -728 0
-695 -729 0
-695 -730 0
-695 -731 0
-695 -732 0
-695 -733 0
-695 -734 0
-695 -735 0
-695 -736 0
-695 -737 0
-695 -738 0
-695 -739 0
-695 -740 0
-695 -741 0
-695 -742 0
-695 -743 0
-695 -744 0
-695 -745 0
-695 -746 0
-695 -747 0
-695 -748 0
-695 -749 0
-695 -750 0
-695 -751 0
-695 -752 0
-695 -753 0
-695 -754 0
-695 -755 0
-695 -756 0
-695 -757 0
-695 -758 0
-695 -759 0
-695 -760 0
-695 -761 0
-695 -762 0
-695 -763 0
-695 -764 0
-695 -765 0
-695 -766 0
-695 -767 0
-695 -768 0
-695 -769 0
-695 -770 0
-695 -771 0
-695 -772 0
-695 -773 0
-695 -774 0
-695 -775 0
-695 -776 0
-695 -777 0
-695 -778 0
-695 -779 0
-695 -780 0
-695 -781 0
-695 -782 0
-695 -783 0
-695 -784 0
-695 -785 0
-695 -786 0
-695 -787 0
-695 -788 0
-695 -789 0
-695 -790 0
-695 -791 0
-695 -792 0
-695 -793 0
-695 -794 0
-695 -795 0
-695 -796 0
-695 -797 0
-695 -798 0
-695 -799 0
-695 -800 0
-695 -801 0
-695 -802 0
-695 -803 0
-695 -804 0
-695 -805 0
-695 -806 0
-695 -807 0
-695 -808 0
-695 -809 0
-695 -810 0
-695 -811 0
-695 -812 0
-696 -697 0
-696 -698 0
-696 -699 0
-696 -700 0
-696 -701 0
-696 -702 0
-696 -703 0
-696 -704 0
-696 -705 0
-696 -706 0
-696 -707 0
-696 -708 0
-696 -709 0
-696 -710 0
-696 -711 0
-696 -712 0
-696 -713 0
-696 -714 0
-696 -715 0
-696 -716 0
-696 -717 0
-696 -718 0
-696 -719 0
-696 -720 0
-696 -721 0
-696 -722 0
-696 -723 0
-696 -724 0
-696 -725 0
-696 -726 0
-696 -727 0
-696 -728 0
-696 -729 0
-696 -730 0
-696 -731 0
-696 -732 0
-696 -733 0
-696 -734 0
-696 -735 0
-696 -736 0
-696 -737 0
-696 -738 0
-696 -739 0
-696 -740 0
-696 -741 0
-696 -742 0
-696 -743 0
-696 -744 0
-696 -745 0
-696 -746 0
-696 -747 0
-696 -748 0
-696 -749 0
-696 -750 0
-696 -751 0
-696 -752 0
-696 -753 0
-696 -754 0
-696 -755 0
-696 -756 0
-696 -757 0
-696 -758 0
-696 -759 0
-696 -760 0
-696 -761 0
-696 -762 0
-696 -763 0
-696 -764 0
-696 -765 0
-696 -766 0
-696 -767 0
-696 -768 0
-696 -769 0
-696 -770 0
-696 -771 0
-696 -772 0
-696 -773 0
-696 -774 0
-696 -775 0
-696 -776 0
-696 -777 0
-696 -778 0
-696 -779 0
-696 -780 0
-696 -781 0
-696 -782 0
-696 -783 0
-696 -784 0
-696 -785 0
-696 -786 0
-696 -787 0
-696 -788 0
-696 -789 0
-696 -790 0
-696 -791 0
-696 -792 0
-696 -793 0
-696 -794 0
-696 -795 0
-696 -796 0
-696 -797 0
-696 -798 0
-696 -799 0
-696 -800 0
-696 -801 0
-696 -802 0
-696 -803 0
-696 -804 0
-696 -805 0
-696 -806 0
-696 -807 0
-696 -808 0
-696 -809 0
-696 -810 0
-696 -811 0
-696 -812 0
-697 -698 0
-697 -699 0
-697 -700 0
-697 -701 0
-697 -702 0
-697 -703 0
-697 -704 0
-697 -705 0
-697 -706 0
-697 -707 0
-697 -708 0
-697 -709 0
-697 -710 0
-697 -711 0
-697 -712 0
-697 -713 0
-697 -714 0
-697 -715 0
-697 -716 0
-697 -717 0
-697 -718 0
-697 -719 0
-697 -720 0
-697 -721 0
-697 -722 0
-697 -723 0
-697 -724 0
-697 -725 0
-697 -726 0
-697 -727 0
-697 -728 0
-697 -729 0
-697 -730 0
-697 -731 0
-697 -732 0
-697 -733 0
-697 -734 0
-697 -735 0
-697 -736 0
-697 -737 0
-697 -738 0
-697 -739 0
-697 -740 0
-697 -741 0
-697 -742 0
-697 -743 0
-697 -744 0
-697 -745 0
-697 -746 0
-697 -747 0
-697 -748 0
-697 -749 0
-697 -750 0
-697 -751 0
-697 -752 0
-697 -753 0
-697 -754 0
-697 -755 0
-697 -756 0
-697 -757 0
-697 -758 0
-697 -759 0
-697 -760 0
-697 -761 0
-697 -762 0
-697 -763 0
-697 -764 0
-697 -765 0
-697 -766 0
-697 -767 0
-697 -768 0
-697 -769 0
-697 -770 0
-697 -771 0
-697 -772 0
-697 -773 0
-697 -774 0
-697 -775 0
-697 -776 0
-697 -777 0
-697 -778 0
-697 -779 0
-697 -780 0
-697 -781 0
-697 -782 0
-697 -783 0
-697 -784 0
-697 -785 0
-697 -786 0
-697 -787 0
-697 -788 0
-697 -789 0
-697 -790 0
-697 -791 0
-697 -792 0
-697 -793 0
-697 -794 0
-697 -795 0
-697 -796 0
-697 -797 0
-697 -798 0
-697 -799 0
-697 -800 0
-697 -801 0
-697 -802 0
-697 -803 0
-697 -804 0
-697 -805 0
-697 -806 0
-697 -807 0
-697 -808 0
-697 -809 0
-697 -810 0
-697 -811 0
-697 -812 0
-698 -699 0
-698 -700 0
-698 -701 0
-698 -702 0
-698 -703 0
-698 -704 0
-698 -705 0
-698 -706 0
-698 -707 0
-698 -708 0
-698 -709 0
-698 -710 0
-698 -711 0
-698 -712 0
-698 -713 0
-698 -714 0
-698 -715 0
-698 -716 0
-698 -717 0
-698 -718 0
-698 -719 0
-698 -720 0
-698 -721 0
-698 -722 0
-698 -723 0
-698 -724 0
-698 -725 0
-698 -726 0
-698 -727 0
-698 -728 0
-698 -729 0
-698 -730 0
-698 -731 0
-698 -732 0
-698 -733 0
-698 -734 0
-698 -735 0
-698 -736 0
-698 -737 0
-698 -738 0
-698 -739 0
-698 -740 0
-698 -741 0
-698 -742 0
-698 -743 0
-698 -744 0
-698 -745 0
-698 -746 0
-698 -747 0
-698 -748 0
-698 -749 0
-698 -750 0
-698 -751 0
-698 -752 0
-698 -753 0
-698 -754 0
-698 -755 0
-698 -756 0
-698 -757 0
-698 -758 0
-698 -759 0
-698 -760 0
-698 -761 0
-698 -762 0
-698 -763 0
-698 -764 0
-698 -765 0
-698 -766 0
-698 -767 0
-698 -768 0
-698 -769 0
-698 -770 0
-698 -771 0
-698 -772 0
-698 -773 0
-698 -774 0
-698 -775 0
-698 -776 0
-698 -777 0
-698 -778 0
-698 -779 0
-698 -780 0
-698 -781 0
-698 -782 0
-698 -783 0
-698 -784 0
-698 -785 0
-698 -786 0
-698 -787 0
-698 -788 0
-698 -789 0
-698 -790 0
-698 -791 0
-698 -792 0
-698 -793 0
-698 -794 0
-698 -795 0
-698 -796 0
-698 -797 0
-698 -798 0
-698 -799 0
-698 -800 0
-698 -801 0
-698 -802 0
-698 -803 0
-698 -804 0
-698 -805 0
-698 -806 0
-698 -807 0
-698 -808 0
-698 -809 0
-698 -810 0
-698 -811 0
-698 -812 0
-699 -700 0
-699 -701 0
-699 -702 0
-699 -703 0
-699 -704 0
-699 -705 0
-699 -706 0
-699 -707 0
-699 -708 0
-699 -709 0
-699 -710 0
-699 -711 0
-699 -712 0
-699 -713 0
-699 -714 0
-699 -715 0
-699 -716 0
-699 -717 0
-699 -718 0
-699 -719 0
-699 -720 0
-699 -721 0
-699 -722 0
-699 -723 0
-699 -724 0
-699 -725 0
-699 -726 0
-699 -727 0
-699 -728 0
-699 -729 0
-699 -730 0
-699 -731 0
-699 -732 0
-699 -733 0
-699 -734 0
-699 -735 0
-699 -736 0
-699 -737 0
-699 -738 0
-699 -739 0
-699 -740 0
-699 -741 0
-699 -742 0
-699 -743 0
-699 -744 0
-699 -745 0
-699 -746 0
-699 -747 0
-699 -748 0
-699 -749 0
-699 -750 0
-699 -751 0
-699 -752 0
-699 -753 0
-699 -754 0
-699 -755 0
-699 -756 0
-699 -757 0
-699 -758 0
-699 -759 0
-699 -760 0
-699 -761 0
-699 -762 0
-699 -763 0
-699 -764 0
-699 -765 0
-699 -766 0
-699 -767 0
-699 -768 0
-699 -769 0
-699 -770 0
-699 -771 0
-699 -772 0
-699 -773 0
-699 -774 0
-699 -775 0
-699 -776 0
-699 -777 0
-699 -778 0
-699 -779 0
-699 -780 0
-699 -781 0
-699 -782 0
-699 -783 0
-699 -784 0
-699 -785 0
-699 -786 0
-699 -787 0
-699 -788 0
-699 -789 0
-699 -790 0
-699 -791 0
-699 -792 0
-699 -793 0
-699 -794 0
-699 -795 0
-699 -796 0
-699 -797 0
-699 -798 0
-699 -799 0
-699 -800 0
-699 -801 0
-699 -802 0
-699 -803 0
-699 -804 0
-699 -805 0
-699 -806 0
-699 -807 0
-699 -808 0
-699 -809 0
-699 -810 0
-699 -811 0
-699 -812 0
-700 -701 0
-700 -702 0
-700 -703 0
-700 -704 0
-700 -705 0
-700 -706 0
-700 -707 0
-700 -708 0
-700 -709 0
-700 -710 0
-700 -711 0
-700 -712 0
-700 -713 0
-700 -714 0
-700 -715 0
-700 -716 0
-700 -717 0
-700 -718 0
-700 -719 0
-700 -720 0
-700 -721 0
-700 -722 0
-700 -723 0
-700 -724 0
-700 -725 0
-700 -726 0
-700 -727 0
-700 -728 0
-700 -729 0
-700 -730 0
-700 -731 0
-700 -732 0
-700 -733 0
-700 -734 0
-700 -735 0
-700 -736 0
-700 -737 0
-700 -738 0
-700 -739 0
-700 -740 0
-700 -741 0
-700 -742 0
-700 -743 0
-700 -744 0
-700 -745 0
-700 -746 0
-700 -747 0
-700 -748 0
-700 -749 0
-700 -750 0
-700 -751 0
-700 -752 0
-700 -753 0
-700 -754 0
-700 -755 0
-700 -756 0
-700 -757 0
-700 -758 0
-700 -759 0
-700 -760 0
-700 -761 0
-700 -762 0
-700 -763 0
-700 -764 0
-700 -765 0
-700 -766 0
-700 -767 0
-700 -768 0
-700 -769 0
-700 -770 0
-700 -771 0
-700 -772 0
-700 -773 0
-700 -774 0
-700 -775 0
-700 -776 0
-700 -777 0
-700 -778 0
-700 -779 0
-700 -780 0
-700 -781 0
-700 -782 0
-700 -783 0
-700 -784 0
-700 -785 0
-700 -786 0
-700 -787 0
-700 -788 0
-700 -789 0
-700 -790 0
-700 -791 0
-700 -792 0
-700 -793 0
-700 -794 0
-700 -795 0
-700 -796 0
-700 -797 0
-700 -798 0
-700 -799 0
-700 -800 0
-700 -801 0
-700 -802 0
-700 -803 0
-700 -804 0
-700 -805 0
-700 -806 0
-700 -807 0
-700 -808 0
-700 -809 0
-700 -810 0
-700 -811 0
-700 -812 0
-701 -702 0
-701 -703 0
-701 -704 0
-701 -705 0
-701 -706 0
-701 -707 0
-701 -708 0
-701 -709 0
-701 -710 0
-701 -711 0
-701 -712 0
-701 -713 0
-701 -714 0
-701 -715 0
-701 -716 0
-701 -717 0
-701 -718 0
-701 -719 0
-701 -720 0
-701 -721 0
-701 -722 0
-701 -723 0
-701 -724 0
-701 -725 0
-701 -726 0
-701 -727 0
-701 -728 0
-701 -729 0
-701 -730 0
-701 -731 0
-701 -732 0
-701 -733 0
-701 -734 0
-701 -735 0
-701 -736 0
-701 -737 0
-701 -738 0
-701 -739 0
-701 -740 0
-701 -741 0
-701 -742 0
-701 -743 0
-701 -744 0
-701 -745 0
-701 -746 0
-701 -747 0
-701 -748 0
-701 -749 0
-701 -750 0
-701 -751 0
-701 -752 0
-701 -753 0
-701 -754 0
-701 -755 0
-701 -756 0
-701 -757 0
-701 -758 0
-701 -759 0
-701 -760 0
-701 -761 0
-701 -762 0
-701 -763 0
-701 -764 0
-701 -765 0
-701 -766 0
-701 -767 0
-701 -768 0
-701 -769 0
-701 -770 0
-701 -771 0
-701 -772 0
-701 -773 0
-701 -774 0
-701 -775 0
-701 -776 0
-701 -777 0
-701 -778 0
-701 -779 0
-701 -780 0
-701 -781 0
-701 -782 0
-701 -783 0
-701 -784 0
-701 -785 0
-701 -786 0
-701 -787 0
-701 -788 0
-701 -789 0
-701 -790 0
-701 -791 0
-701 -792 0
-701 -793 0
-701 -794 0
-701 -795 0
-701 -796 0
-701 -797 0
-701 -798 0
-701 -799 0
-701 -800 0
-701 -801 0
-701 -802 0
-701 -803 0
-701 -804 0
-701 -805 0
-701 -806 0
-701 -807 0
-701 -808 0
-701 -809 0
-701 -810 0
-701 -811 0
-701 -812 0
-702 -703 0
-702 -704 0
-702 -705 0
-702 -706 0
-702 -707 0
-702 -708 0
-702 -709 0
-702 -710 0
-702 -711 0
-702 -712 0
-702 -713 0
-702 -714 0
-702 -715 0
-702 -716 0
-702 -717 0
-702 -718 0
-702 -719 0
-702 -720 0
-702 -721 0
-702 -722 0
-702 -723 0
-702 -724 0
-702 -725 0
-702 -726 0
-702 -727 0
-702 -728 0
-702 -729 0
-702 -730 0
-702 -731 0
-702 -732 0
-702 -733 0
-702 -734 0
-702 -735 0
-702 -736 0
-702 -737 0
-702 -738 0
-702 -739 0
-702 -740 0
-702 -741 0
-702 -742 0
-702 -743 0
-702 -744 0
-702 -745 0
-702 -746 0
-702 -747 0
-702 -748 0
-702 -749 0
-702 -750 0
-702 -751 0
-702 -752 0
-702 -753 0
-702 -754 0
-702 -755 0
-702 -756 0
-702 -757 0
-702 -758 0
-702 -759 0
-702 -760 0
-702 -761 0
-702 -762 0
-702 -763 0
-702 -764 0
-702 -765 0
-702 -766 0
-702 -767 0
-702 -768 0
-702 -769 0
-702 -770 0
-702 -771 0
-702 -772 0
-702 -773 0
-702 -774 0
-702 -775 0
-702 -776 0
-702 -777 0
-702 -778 0
-702 -779 0
-702 -780 0
-702 -781 0
-702 -782 0
-702 -783 0
-702 -784 0
-702 -785 0
-702 -786 0
-702 -787 0
-702 -788 0
-702 -789 0
-702 -790 0
-702 -791 0
-702 -792 0
-702 -793 0
-702 -794 0
-702 -795 0
-702 -796 0
-702 -797 0
-702 -798 0
-702 -799 0
-702 -800 0
-702 -801 0
-702 -802 0
-702 -803 0
-702 -804 0
-702 -805 0
-702 -806 0
-702 -807 0
-702 -808 0
-702 -809 0
-702 -810 0
-702 -811 0
-702 -812 0
-703 -704 0
-703 -705 0
-703 -706 0
-703 -707 0
-703 -708 0
-703 -709 0
-703 -710 0
-703 -711 0
-703 -712 0
-703 -713 0
-703 -714 0
-703 -715 0
-703 -716 0
-703 -717 0
-703 -718 0
-703 -719 0
-703 -720 0
-703 -721 0
-703 -722 0
-703 -723 0
-703 -724 0
-703 -725 0
-703 -726 0
-703 -727 0
-703 -728 0
-703 -729 0
-703 -730 0
-703 -731 0
-703 -732 0
-703 -733 0
-703 -734 0
-703 -735 0
-703 -736 0
-703 -737 0
-703 -738 0
-703 -739 0
-703 -740 0
-703 -741 0
-703 -742 0
-703 -743 0
-703 -744 0
-703 -745 0
-703 -746 0
-703 -747 0
-703 -748 0
-703 -749 0
-703 -750 0
-703 -751 0
-703 -752 0
-703 -753 0
-703 -754 0
-703 -755 0
-703 -756 0
-703 -757 0
-703 -758 0
-703 -759 0
-703 -760 0
-703 -761 0
-703 -762 0
-703 -763 0
-703 -764 0
-703 -765 0
-703 -766 0
-703 -767 0
-703 -768 0
-703 -769 0
-703 -770 0
-703 -771 0
-703 -772 0
-703 -773 0
-703 -774 0
-703 -775 0
-703 -776 0
-703 -777 0
-703 -778 0
-703 -779 0
-703 -780 0
-703 -781 0
-703 -782 0
-703 -783 0
-703 -784 0
-703 -785 0
-703 -786 0
-703 -787 0
-703 -788 0
-703 -789 0
-703 -790 0
-703 -791 0
-703 -792 0
-703 -793 0
-703 -794 0
-703 -795 0
-703 -796 0
-703 -797 0
-703 -798 0
-703 -799 0
-703 -800 0
-703 -801 0
-703 -802 0
-703 -803 0
-703 -804 0
-703 -805 0
-703 -806 0
-703 -807 0
-703 -808 0
-703 -809 0
-703 -810 0
-703 -811 0
-703 -812 0
-704 -705 0
-704 -706 0
-704 -707 0
-704 -708 0
-704 -709 0
-704 -710 0
-704 -711 0
-704 -712 0
-704 -713 0
-704 -714 0
-704 -715 0
-704 -716 0
-704 -717 0
-704 -718 0
-704 -719 0
-704 -720 0
-704 -721 0
-704 -722 0
-704 -723 0
-704 -724 0
-704 -725 0
-704 -726 0
-704 -727 0
-704 -728 0
-704 -729 0
-704 -730 0
-704 -731 0
-704 -732 0
-704 -733 0
-704 -734 0
-704 -735 0
-704 -736 0
-704 -737 0
-704 -738 0
-704 -739 0
-704 -740 0
-704 -741 0
-704 -742 0
-704 -743 0
-704 -744 0
-704 -745 0
-704 -746 0
-704 -747 0
-704 -748 0
-704 -749 0
-704 -750 0
-704 -751 0
-704 -752 0
-704 -753 0
-704 -754 0
-704 -755 0
-704 -756 0
-704 -757 0
-704 -758 0
-704 -759 0
-704 -760 0
-704 -761 0
-704 -762 0
-704 -763 0
-704 -764 0
-704 -765 0
-704 -766 0
-704 -767 0
-704 -768 0
-704 -769 0
-704 -770 0
-704 -771 0
-704 -772 0
-704 -773 0
-704 -774 0
-704 -775 0
-704 -776 0
-704 -777 0
-704 -778 0
-704 -779 0
-704 -780 0
-704 -781 0
-704 -782 0
-704 -783 0
-704 -784 0
-704 -785 0
-704 -786 0
-704 -787 0
-704 -788 0
-704 -789 0
-704 -790 0
-704 -791 0
-704 -792 0
-704 -793 0
-704 -794 0
-704 -795 0
-704 -796 0
-704 -797 0
-704 -798 0
-704 -799 0
-704 -800 0
-704 -801 0
-704 -802 0
-704 -803 0
-704 -804 0
-704 -805 0
-704 -806 0
-704 -807 0
-704 -808 0
-704 -809 0
-704 -810 0
-704 -811 0
-704 -812 0
-705 -706 0
-705 -707 0
-705 -708 0
-705 -709 0
-705 -710 0
-705 -711 0
-705 -712 0
-705 -713 0
-705 -714 0
-705 -715 0
-705 -716 0
-705 -717 0
-705 -718 0
-705 -719 0
-705 -720 0
-705 -721 0
-705 -722 0
-705 -723 0
-705 -724 0
-705 -725 0
-705 -726 0
-705 -727 0
-705 -728 0
-705 -729 0
-705 -730 0
-705 -731 0
-705 -732 0
-705 -733 0
-705 -734 0
-705 -735 0
-705 -736 0
-705 -737 0
-705 -738 0
-705 -739 0
-705 -740 0
-705 -741 0
-705 -742 0
-705 -743 0
-705 -744 0
-705 -745 0
-705 -746 0
-705 -747 0
-705 -748 0
-705 -749 0
-705 -750 0
-705 -751 0
-705 -752 0
-705 -753 0
-705 -754 0
-705 -755 0
-705 -756 0
-705 -757 0
-705 -758 0
-705 -759 0
-705 -760 0
-705 -761 0
-705 -762 0
-705 -763 0
-705 -764 0
-705 -765 0
-705 -766 0
-705 -767 0
-705 -768 0
-705 -769 0
-705 -770 0
-705 -771 0
-705 -772 0
-705 -773 0
-705 -774 0
-705 -775 0
-705 -776 0
-705 -777 0
-705 -778 0
-705 -779 0
-705 -780 0
-705 -781 0
-705 -782 0
-705 -783 0
-705 -784 0
-705 -785 0
-705 -786 0
-705 -787 0
-705 -788 0
-705 -789 0
-705 -790 0
-705 -791 0
-705 -792 0
-705 -793 0
-705 -794 0
-705 -795 0
-705 -796 0
-705 -797 0
-705 -798 0
-705 -799 0
-705 -800 0
-705 -801 0
-705 -802 0
-705 -803 0
-705 -804 0
-705 -805 0
-705 -806 0
-705 -807 0
-705 -808 0
-705 -809 0
-705 -810 0
-705 -811 0
-705 -812 0
-706 -707 0
-706 -708 0
-706 -709 0
-706 -710 0
-706 -711 0
-706 -712 0
-706 -713 0
-706 -714 0
-706 -715 0
-706 -716 0
-706 -717 0
-706 -718 0
-706 -719 0
-706 -720 0
-706 -721 0
-706 -722 0
-706 -723 0
-706 -724 0
-706 -725 0
-706 -726 0
-706 -727 0
-706 -728 0
-706 -729 0
-706 -730 0
-706 -731 0
-706 -732 0
-706 -733 0
-706 -734 0
-706 -735 0
-706 -736 0
-706 -737 0
-706 -738 0
-706 -739 0
-706 -740 0
-706 -741 0
-706 -742 0
-706 -743 0
-706 -744 0
-706 -745 0
-706 -746 0
-706 -747 0
-706 -748 0
-706 -749 0
-706 -750 0
-706 -751 0
-706 -752 0
-706 -753 0
-706 -754 0
-706 -755 0
-706 -756 0
-706 -757 0
-706 -758 0
-706 -759 0
-706 -760 0
-706 -761 0
-706 -762 0
-706 -763 0
-706 -764 0
-706 -765 0
-706 -766 0
-706 -767 0
-706 -768 0
-706 -769 0
-706 -770 0
-706 -771 0
-706 -772 0
-706 -773 0
-706 -774 0
-706 -775 0
-706 -776 0
-706 -777 0
-706 -778 0
-706 -779 0
-706 -780 0
-706 -781 0
-706 -782 0
-706 -783 0
-706 -784 0
-706 -785 0
-706 -786 0
-706 -787 0
-706 -788 0
-706 -789 0
-706 -790 0
-706 -791 0
-706 -792 0
-706 -793 0
-706 -794 0
-706 -795 0
-706 -796 0
-706 -797 0
-706 -798 0
-706 -799 0
-706 -800 0
-706 -801 0
-706 -802 0
-706 -803 0
-706 -804 0
-706 -805 0
-706 -806 0
-706 -807 0
-706 -808 0
-706 -809 0
-706 -810 0
-706 -811 0
-706 -812 0
-707 -708 0
-707 -709 0
-707 -710 0
-707 -711 0
-707 -712 0
-707 -713 0
-707 -714 0
-707 -715 0
-707 -716 0
-707 -717 0
-707 -718 0
-707 -719 0
-707 -720 0
-707 -721 0
-707 -722 0
-707 -723 0
-707 -724 0
-707 -725 0
-707 -726 0
-707 -727 0
-707 -728 0
-707 -729 0
-707 -730 0
-707 -731 0
-707 -732 0
-707 -733 0
-707 -734 0
-707 -735 0
-707 -736 0
-707 -737 0
-707 -738 0
-707 -739 0
-707 -740 0
-707 -741 0
-707 -742 0
-707 -743 0
-707 -744 0
-707 -745 0
-707 -746 0
-707 -747 0
-707 -748 0
-707 -749 0
-707 -750 0
-707 -751 0
-707 -752 0
-707 -753 0
-707 -754 0
-707 -755 0
-707 -756 0
-707 -757 0
-707 -758 0
-707 -759 0
-707 -760 0
-707 -761 0
-707 -762 0
-707 -763 0
-707 -764 0
-707 -765 0
-707 -766 0
-707 -767 0
-707 -768 0
-707 -769 0
-707 -770 0
-707 -771 0
-707 -772 0
-707 -773 0
-707 -774 0
-707 -775 0
-707 -776 0
-707 -777 0
-707 -778 0
-707 -779 0
-707 -780 0
-707 -781 0
-707 -782 0
-707 -783 0
-707 -784 0
-707 -785 0
-707 -786 0
-707 -787 0
-707 -788 0
-707 -789 0
-707 -790 0
-707 -791 0
-707 -792 0
-707 -793 0
-707 -794 0
-707 -795 0
-707 -796 0
-707 -797 0
-707 -798 0
-707 -799 0
-707 -800 0
-707 -801 0
-707 -802 0
-707 -803 0
-707 -804 0
-707 -805 0
-707 -806 0
-707 -807 0
-707 -808 0
-707 -809 0
-707 -810 0
-707 -811 0
-707 -812 0
-708 -709 0
-708 -710 0
-708 -711 0
-708 -712 0
-708 -713 0
-708 -714 0
-708 -715 0
-708 -716 0
-708 -717 0
-708 -718 0
-708 -719 0
-708 -720 0
-708 -721 0
-708 -722 0
-708 -723 0
-708 -724 0
-708 -725 0
-708 -726 0
-708 -727 0
-708 -728 0
-708 -729 0
-708 -730 0
-708 -731 0
-708 -732 0
-708 -733 0
-708 -734 0
-708 -735 0
-708 -736 0
-708 -737 0
-708 -738 0
-708 -739 0
-708 -740 0
-708 -741 0
-708 -742 0
-708 -743 0
-708 -744 0
-708 -745 0
-708 -746 0
-708 -747 0
-708 -748 0
-708 -749 0
-708 -750 0
-708 -751 0
-708 -752 0
-708 -753 0
-708 -754 0
-708 -755 0
-708 -756 0
-708 -757 0
-708 -758 0
-708 -759 0
-708 -760 0
-708 -761 0
-708 -762 0
-708 -763 0
-708 -764 0
-708 -765 0
-708 -766 0
-708 -767 0
-708 -768 0
-708 -769 0
-708 -770 0
-708 -771 0
-708 -772 0
-708 -773 0
-708 -774 0
-708 -775 0
-708 -776 0
-708 -777 0
-708 -778 0
-708 -779 0
-708 -780 0
-708 -781 0
-708 -782 0
-708 -783 0
-708 -784 0
-708 -785 0
-708 -786 0
-708 -787 0
-708 -788 0
-708 -789 0
-708 -790 0
-708 -791 0
-708 -792 0
-708 -793 0
-708 -794 0
-708 -795 0
-708 -796 0
-708 -797 0
-708 -798 0
-708 -799 0
-708 -800 0
-708 -801 0
-708 -802 0
-708 -803 0
-708 -804 0
-708 -805 0
-708 -806 0
-708 -807 0
-708 -808 0
-708 -809 0
-708 -810 0
-708 -811 0
-708 -812 0
-709 -710 0
-709 -711 0
-709 -712 0
-709 -713 0
-709 -714 0
-709 -715 0
-709 -716 0
-709 -717 0
-709 -718 0
-709 -719 0
-709 -720 0
-709 -721 0
-709 -722 0
-709 -723 0
-709 -724 0
-709 -725 0
-709 -726 0
-709 -727 0
-709 -728 0
-709 -729 0
-709 -730 0
-709 -731 0
-709 -732 0
-709 -733 0
-709 -734 0
-709 -735 0
-709 -736 0
-709 -737 0
-709 -738 0
-709 -739 0
-709 -740 0
-709 -741 0
-709 -742 0
-709 -743 0
-709 -744 0
-709 -745 0
-709 -746 0
-709 -747 0
-709 -748 0
-709 -749 0
-709 -750 0
-709 -751 0
-709 -752 0
-709 -753 0
-709 -754 0
-709 -755 0
-709 -756 0
-709 -757 0
-709 -758 0
-709 -759 0
-709 -760 0
-709 -761 0
-709 -762 0
-709 -763 0
-709 -764 0
-709 -765 0
-709 -766 0
-709 -767 0
-709 -768 0
-709 -769 0
-709 -770 0
-709 -771 0
-709 -772 0
-709 -773 0
-709 -774 0
-709 -775 0
-709 -776 0
-709 -777 0
-709 -778 0
-709 -779 0
-709 -780 0
-709 -781 0
-709 -782 0
-709 -783 0
-709 -784 0
-709 -785 0
-709 -786 0
-709 -787 0
-709 -788 0
-709 -789 0
-709 -790 0
-709 -791 0
-709 -792 0
-709 -793 0
-709 -794 0
-709 -795 0
-709 -796 0
-709 -797 0
-709 -798 0
-709 -799 0
-709 -800 0
-709 -801 0
-709 -802 0
-709 -803 0
-709 -804 0
-709 -805 0
-709 -806 0
-709 -807 0
-709 -808 0
-709 -809 0
-709 -810 0
-709 -811 0
-709 -812 0
-710 -711 0
-710 -712 0
-710 -713 0
-710 -714 0
-710 -715 0
-710 -716 0
-710 -717 0
-710 -718 0
-710 -719 0
-710 -720 0
-710 -721 0
-710 -722 0
-710 -723 0
-710 -724 0
-710 -725 0
-710 -726 0
-710 -727 0
-710 -728 0
-710 -729 0
-710 -730 0
-710 -731 0
-710 -732 0
-710 -733 0
-710 -734 0
-710 -735 0
-710 -736 0
-710 -737 0
-710 -738 0
-710 -739 0
-710 -740 0
-710 -741 0
-710 -742 0
-710 -743 0
-710 -744 0
-710 -745 0
-710 -746 0
-710 -747 0
-710 -748 0
-710 -749 0
-710 -750 0
-710 -751 0
-710 -752 0
-710 -753 0
-710 -754 0
-710 -755 0
-710 -756 0
-710 -757 0
-710 -758 0
-710 -759 0
-710 -760 0
-710 -761 0
-710 -762 0
-710 -763 0
-710 -764 0
-710 -765 0
-710 -766 0
-710 -767 0
-710 -768 0
-710 -769 0
-710 -770 0
-710 -771 0
-710 -772 0
-710 -773 0
-710 -774 0
-710 -775 0
-710 -776 0
-710 -777 0
-710 -778 0
-710 -779 0
-710 -780 0
-710 -781 0
-710 -782 0
-710 -783 0
-710 -784 0
-710 -785 0
-710 -786 0
-710 -787 0
-710 -788 0
-710 -789 0
-710 -790 0
-710 -791 0
-710 -792 0
-710 -793 0
-710 -794 0
-710 -795 0
-710 -796 0
-710 -797 0
-710 -798 0
-710 -799 0
-710 -800 0
-710 -801 0
-710 -802 0
-710 -803 0
-710 -804 0
-710 -805 0
-710 -806 0
-710 -807 0
-710 -808 0
-710 -809 0
-710 -810 0
-710 -811 0
-710 -812 0
-711 -712 0
-711 -713 0
-711 -714 0
-711 -715 0
-711 -716 0
-711 -717 0
-711 -718 0
-711 -719 0
-711 -720 0
-711 -721 0
-711 -722 0
-711 -723 0
-711 -724 0
-711 -725 0
-711 -726 0
-711 -727 0
-711 -728 0
-711 -729 0
-711 -730 0
-711 -731 0
-711 -732 0
-711 -733 0
-711 -734 0
-711 -735 0
-711 -736 0
-711 -737 0
-711 -738 0
-711 -739 0
-711 -740 0
-711 -741 0
-711 -742 0
-711 -743 0
-711 -744 0
-711 -745 0
-711 -746 0
-711 -747 0
-711 -748 0
-711 -749 0
-711 -750 0
-711 -751 0
-711 -752 0
-711 -753 0
-711 -754 0
-711 -755 0
-711 -756 0
-711 -757 0
-711 -758 0
-711 -759 0
-711 -760 0
-711 -761 0
-711 -762 0
-711 -763 0
-711 -764 0
-711 -765 0
-711 -766 0
-711 -767 0
-711 -768 0
-711 -769 0
-711 -770 0
-711 -771 0
-711 -772 0
-711 -773 0
-711 -774 0
-711 -775 0
-711 -776 0
-711 -777 0
-711 -778 0
-711 -779 0
-711 -780 0
-711 -781 0
-711 -782 0
-711 -783 0
-711 -784 0
-711 -785 0
-711 -786 0
-711 -787 0
-711 -788 0
-711 -789 0
-711 -790 0
-711 -791 0
-711 -792 0
-711 -793 0
-711 -794 0
-711 -795 0
-711 -796 0
-711 -797 0
-711 -798 0
-711 -799 0
-711 -800 0
-711 -801 0
-711 -802 0
-711 -803 0
-711 -804 0
-711 -805 0
-711 -806 0
-711 -807 0
-711 -808 0
-711 -809 0
-711 -810 0
-711 -811 0
-711 -812 0
-712 -713 0
-712 -714 0
-712 -715 0
-712 -716 0
-712 -717 0
-712 -718 0
-712 -719 0
-712 -720 0
-712 -721 0
-712 -722 0
-712 -723 0
-712 -724 0
-712 -725 0
-712 -726 0
-712 -727 0
-712 -728 0
-712 -729 0
-712 -730 0
-712 -731 0
-712 -732 0
-712 -733 0
-712 -734 0
-712 -735 0
-712 -736 0
-712 -737 0
-712 -738 0
-712 -739 0
-712 -740 0
-712 -741 0
-712 -742 0
-712 -743 0
-712 -744 0
-712 -745 0
-712 -746 0
-712 -747 0
-712 -748 0
-712 -749 0
-712 -750 0
-712 -751 0
-712 -752 0
-712 -753 0
-712 -754 0
-712 -755 0
-712 -756 0
-712 -757 0
-712 -758 0
-712 -759 0
-712 -760 0
-712 -761 0
-712 -762 0
-712 -763 0
-712 -764 0
-712 -765 0
-712 -766 0
-712 -767 0
-712 -768 0
-712 -769 0
-712 -770 0
-712 -771 0
-712 -772 0
-712 -773 0
-712 -774 0
-712 -775 0
-712 -776 0
-712 -777 0
-712 -778 0
-712 -779 0
-712 -780 0
-712 -781 0
-712 -782 0
-712 -783 0
-712 -784 0
-712 -785 0
-712 -786 0
-712 -787 0
-712 -788 0
-712 -789 0
-712 -790 0
-712 -791 0
-712 -792 0
-712 -793 0
-712 -794 0
-712 -795 0
-712 -796 0
-712 -797 0
-712 -798 0
-712 -799 0
-712 -800 0
-712 -801 0
-712 -802 0
-712 -803 0
-712 -804 0
-712 -805 0
-712 -806 0
-712 -807 0
-712 -808 0
-712 -809 0
-712 -810 0
-712 -811 0
-712 -812 0
-713 -714 0
-713 -715 0
-713 -716 0
-713 -717 0
-713 -718 0
-713 -719 0
-713 -720 0
-713 -721 0
-713 -722 0
-713 -723 0
-713 -724 0
-713 -725 0
-713 -726 0
-713 -727 0
-713 -728 0
-713 -729 0
-713 -730 0
-713 -731 0
-713 -732 0
-713 -733 0
-713 -734 0
-713 -735 0
-713 -736 0
-713 -737 0
-713 -738 0
-713 -739 0
-713 -740 0
-713 -741 0
-713 -742 0
-713 -743 0
-713 -744 0
-713 -745 0
-713 -746 0
-713 -747 0
-713 -748 0
-713 -749 0
-713 -750 0
-713 -751 0
-713 -752 0
-713 -753 0
-713 -754 0
-713 -755 0
-713 -756 0
-713 -757 0
-713 -758 0
-713 -759 0
-713 -760 0
-713 -761 0
-713 -762 0
-713 -763 0
-713 -764 0
-713 -765 0
-713 -766 0
-713 -767 0
-713 -768 0
-713 -769 0
-713 -770 0
-713 -771 0
-713 -772 0
-713 -773 0
-713 -774 0
-713 -775 0
-713 -776 0
-713 -777 0
-713 -778 0
-713 -779 0
-713 -780 0
-713 -781 0
-713 -782 0
-713 -783 0
-713 -784 0
-713 -785 0
-713 -786 0
-713 -787 0
-713 -788 0
-713 -789 0
-713 -790 0
-713 -791 0
-713 -792 0
-713 -793 0
-713 -794 0
-713 -795 0
-713 -796 0
-713 -797 0
-713 -798 0
-713 -799 0
-713 -800 0
-713 -801 0
-713 -802 0
-713 -803 0
-713 -804 0
-713 -805 0
-713 -806 0
-713 -807 0
-713 -808 0
-713 -809 0
-713 -810 0
-713 -811 0
-713 -812 0
-714 -715 0
-714 -716 0
-714 -717 0
-714 -718 0
-714 -719 0
-714 -720 0
-714 -721 0
-714 -722 0
-714 -723 0
-714 -724 0
-714 -725 0
-714 -726 0
-714 -727 0
-714 -728 0
-714 -729 0
-714 -730 0
-714 -731 0
-714 -732 0
-714 -733 0
-714 -734 0
-714 -735 0
-714 -736 0
-714 -737 0
-714 -738 0
-714 -739 0
-714 -740 0
-714 -741 0
-714 -742 0
-714 -743 0
-714 -744 0
-714 -745 0
-714 -746 0
-714 -747 0
-714 -748 0
-714 -749 0
-714 -750 0
-714 -751 0
-714 -752 0
-714 -753 0
-714 -754 0
-714 -755 0
-714 -756 0
-714 -757 0
-714 -758 0
-714 -759 0
-714 -760 0
-714 -761 0
-714 -762 0
-714 -763 0
-714 -764 0
-714 -765 0
-714 -766 0
-714 -767 0
-714 -768 0
-714 -769 0
-714 -770 0
-714 -771 0
-714 -772 0
-714 -773 0
-714 -774 0
-714 -775 0
-714 -776 0
-714 -777 0
-714 -778 0
-714 -779 0
-714 -780 0
-714 -781 0
-714 -782 0
-714 -783 0
-714 -784 0
-714 -785 0
-714 -786 0
-714 -787 0
-714 -788 0
-714 -789 0
-714 -790 0
-714 -791 0
-714 -792 0
-714 -793 0
-714 -794 0
-714 -795 0
-714 -796 0
-714 -797 0
-714 -798 0
-714 -799 0
-714 -800 0
-714 -801 0
-714 -802 0
-714 -803 0
-714 -804 0
-714 -805 0
-714 -806 0
-714 -807 0
-714 -808 0
-714 -809 0
-714 -810 0
-714 -811 0
-714 -812 0
-715 -716 0
-715 -717 0
-715 -718 0
-715 -719 0
-715 -720 0
-715 -721 0
-715 -722 0
-715 -723 0
-715 -724 0
-715 -725 0
-715 -726 0
-715 -727 0
-715 -728 0
-715 -729 0
-715 -730 0
-715 -731 0
-715 -732 0
-715 -733 0
-715 -734 0
-715 -735 0
-715 -736 0
-715 -737 0
-715 -738 0
-715 -739 0
-715 -740 0
-715 -741 0
-715 -742 0
-715 -743 0
-715 -744 0
-715 -745 0
-715 -746 0
-715 -747 0
-715 -748 0
-715 -749 0
-715 -750 0
-715 -751 0
-715 -752 0
-715 -753 0
-715 -754 0
-715 -755 0
-715 -756 0
-715 -757 0
-715 -758 0
-715 -759 0
-715 -760 0
-715 -761 0
-715 -762 0
-715 -763 0
-715 -764 0
-715 -765 0
-715 -766 0
-715 -767 0
-715 -768 0
-715 -769 0
-715 -770 0
-715 -771 0
-715 -772 0
-715 -773 0
-715 -774 0
-715 -775 0
-715 -776 0
-715 -777 0
-715 -778 0
-715 -779 0
-715 -780 0
-715 -781 0
-715 -782 0
-715 -783 0
-715 -784 0
-715 -785 0
-715 -786 0
-715 -787 0
-715 -788 0
-715 -789 0
-715 -790 0
-715 -791 0
-715 -792 0
-715 -793 0
-715 -794 0
-715 -795 0
-715 -796 0
-715 -797 0
-715 -798 0
-715 -799 0
-715 -800 0
-715 -801 0
-715 -802 0
-715 -803 0
-715 -804 0
-715 -805 0
-715 -806 0
-715 -807 0
-715 -808 0
-715 -809 0
-715 -810 0
-715 -811 0
-715 -812 0
-716 -717 0
-716 -718 0
-716 -719 0
-716 -720 0
-716 -721 0
-716 -722 0
-716 -723 0
-716 -724 0
-716 -725 0
-716 -726 0
-716 -727 0
-716 -728 0
-716 -729 0
-716 -730 0
-716 -731 0
-716 -732 0
-716 -733 0
-716 -734 0
-716 -735 0
-716 -736 0
-716 -737 0
-716 -738 0
-716 -739 0
-716 -740 0
-716 -741 0
-716 -742 0
-716 -743 0
-716 -744 0
-716 -745 0
-716 -746 0
-716 -747 0
-716 -748 0
-716 -749 0
-716 -750 0
-716 -751 0
-716 -752 0
-716 -753 0
-716 -754 0
-716 -755 0
-716 -756 0
-716 -757 0
-716 -758 0
-716 -759 0
-716 -760 0
-716 -761 0
-716 -762 0
-716 -763 0
-716 -764 0
-716 -765 0
-716 -766 0
-716 -767 0
-716 -768 0
-716 -769 0
-716 -770 0
-716 -771 0
-716 -772 0
-716 -773 0
-716 -774 0
-716 -775 0
-716 -776 0
-716 -777 0
-716 -778 0
-716 -779 0
-716 -780 0
-716 -781 0
-716 -782 0
-716 -783 0
-716 -784 0
-716 -785 0
-716 -786 0
-716 -787 0
-716 -788 0
-716 -789 0
-716 -790 0
-716 -791 0
-716 -792 0
-716 -793 0
-716 -794 0
-716 -795 0
-716 -796 0
-716 -797 0
-716 -798 0
-716 -799 0
-716 -800 0
-716 -801 0
-716 -802 0
-716 -803 0
-716 -804 0
-716 -805 0
-716 -806 0
-716 -807 0
-716 -808 0
-716 -809 0
-716 -810 0
-716 -811 0
-716 -812 0
-717 -718 0
-717 -719 0
-717 -720 0
-717 -721 0
-717 -722 0
-717 -723 0
-717 -724 0
-717 -725 0
-717 -726 0
-717 -727 0
-717 -728 0
-717 -729 0
-717 -730 0
-717 -731 0
-717 -732 0
-717 -733 0
-717 -734 0
-717 -735 0
-717 -736 0
-717 -737 0
-717 -738 0
-717 -739 0
-717 -740 0
-717 -741 0
-717 -742 0
-717 -743 0
-717 -744 0
-717 -745 0
-717 -746 0
-717 -747 0
-717 -748 0
-717 -749 0
-717 -750 0
-717 -751 0
-717 -752 0
-717 -753 0
-717 -754 0
-717 -755 0
-717 -756 0
-717 -757 0
-717 -758 0
-717 -759 0
-717 -760 0
-717 -761 0
-717 -762 0
-717 -763 0
-717 -764 0
-717 -765 0
-717 -766 0
-717 -767 0
-717 -768 0
-717 -769 0
-717 -770 0
-717 -771 0
-717 -772 0
-717 -773 0
-717 -774 0
-717 -775 0
-717 -776 0
-717 -777 0
-717 -778 0
-717 -779 0
-717 -780 0
-717 -781 0
-717 -782 0
-717 -783 0
-717 -784 0
-717 -785 0
-717 -786 0
-717 -787 0
-717 -788 0
-717 -789 0
-717 -790 0
-717 -791 0
-717 -792 0
-717 -793 0
-717 -794 0
-717 -795 0
-717 -796 0
-717 -797 0
-717 -798 0
-717 -799 0
-717 -800 0
-717 -801 0
-717 -802 0
-717 -803 0
-717 -804 0
-717 -805 0
-717 -806 0
-717 -807 0
-717 -808 0
-717 -809 0
-717 -810 0
-717 -811 0
-717 -812 0
-718 -719 0
-718 -720 0
-718 -721 0
-718 -722 0
-718 -723 0
-718 -724 0
-718 -725 0
-718 -726 0
-718 -727 0
-718 -728 0
-718 -729 0
-718 -730 0
-718 -731 0
-718 -732 0
-718 -733 0
-718 -734 0
-718 -735 0
-718 -736 0
-718 -737 0
-718 -738 0
-718 -739 0
-718 -740 0
-718 -741 0
-718 -742 0
-718 -743 0
-718 -744 0
-718 -745 0
-718 -746 0
-718 -747 0
-718 -748 0
-718 -749 0
-718 -750 0
-718 -751 0
-718 -752 0
-718 -753 0
-718 -754 0
-718 -755 0
-718 -756 0
-718 -757 0
-718 -758 0
-718 -759 0
-718 -760 0
-718 -761 0
-718 -762 0
-718 -763 0
-718 -764 0
-718 -765 0
-718 -766 0
-718 -767 0
-718 -768 0
-718 -769 0
-718 -770 0
-718 -771 0
-718 -772 0
-718 -773 0
-718 -774 0
-718 -775 0
-718 -776 0
-718 -777 0
-718 -778 0
-718 -779 0
-718 -780 0
-718 -781 0
-718 -782 0
-718 -783 0
-718 -784 0
-718 -785 0
-718 -786 0
-718 -787 0
-718 -788 0
-718 -789 0
-718 -790 0
-718 -791 0
-718 -792 0
-718 -793 0
-718 -794 0
-718 -795 0
-718 -796 0
-718 -797 0
-718 -798 0
-718 -799 0
-718 -800 0
-718 -801 0
-718 -802 0
-718 -803 0
-718 -804 0
-718 -805 0
-718 -806 0
-718 -807 0
-718 -808 0
-718 -809 0
-718 -810 0
-718 -811 0
-718 -812 0
-719 -720 0
-719 -721 0
-719 -722 0
-719 -723 0
-719 -724 0
-719 -725 0
-719 -726 0
-719 -727 0
-719 -728 0
-719 -729 0
-719 -730 0
-719 -731 0
-719 -732 0
-719 -733 0
-719 -734 0
-719 -735 0
-719 -736 0
-719 -737 0
-719 -738 0
-719 -739 0
-719 -740 0
-719 -741 0
-719 -742 0
-719 -743 0
-719 -744 0
-719 -745 0
-719 -746 0
-719 -747 0
-719 -748 0
-719 -749 0
-719 -750 0
-719 -751 0
-719 -752 0
-719 -753 0
-719 -754 0
-719 -755 0
-719 -756 0
-719 -757 0
-719 -758 0
-719 -759 0
-719 -760 0
-719 -761 0
-719 -762 0
-719 -763 0
-719 -764 0
-719 -765 0
-719 -766 0
-719 -767 0
-719 -768 0
-719 -769 0
-719 -770 0
-719 -771 0
-719 -772 0
-719 -773 0
-719 -774 0
-719 -775 0
-719 -776 0
-719 -777 0
-719 -778 0
-719 -779 0
-719 -780 0
-719 -781 0
-719 -782 0
-719 -783 0
-719 -784 0
-719 -785 0
-719 -786 0
-719 -787 0
-719 -788 0
-719 -789 0
-719 -790 0
-719 -791 0
-719 -792 0
-719 -793 0
-719 -794 0
-719 -795 0
-719 -796 0
-719 -797 0
-719 -798 0
-719 -799 0
-719 -800 0
-719 -801 0
-719 -802 0
-719 -803 0
-719 -804 0
-719 -805 0
-719 -806 0
-719 -807 0
-719 -808 0
-719 -809 0
-719 -810 0
-719 -811 0
-719 -812 0
-720 -721 0
-720 -722 0
-720 -723 0
-720 -724 0
-720 -725 0
-720 -726 0
-720 -727 0
-720 -728 0
-720 -729 0
-720 -730 0
-720 -731 0
-720 -732 0
-720 -733 0
-720 -734 0
-720 -735 0
-720 -736 0
-720 -737 0
-720 -738 0
-720 -739 0
-720 -740 0
-720 -741 0
-720 -742 0
-720 -743 0
-720 -744 0
-720 -745 0
-720 -746 0
-720 -747 0
-720 -748 0
-720 -749 0
-720 -750 0
-720 -751 0
-720 -752 0
-720 -753 0
-720 -754 0
-720 -755 0
-720 -756 0
-720 -757 0
-720 -758 0
-720 -759 0
-720 -760 0
-720 -761 0
-720 -762 0
-720 -763 0
-720 -764 0
-720 -765 0
-720 -766 0
-720 -767 0
-720 -768 0
-720 -769 0
-720 -770 0
-720 -771 0
-720 -772 0
-720 -773 0
-720 -774 0
-720 -775 0
-720 -776 0
-720 -777 0
-720 -778 0
-720 -779 0
-720 -780 0
-720 -781 0
-720 -782 0
-720 -783 0
-720 -784 0
-720 -785 0
-720 -786 0
-720 -787 0
-720 -788 0
-720 -789 0
-720 -790 0
-720 -791 0
-720 -792 0
-720 -793 0
-720 -794 0
-720 -795 0
-720 -796 0
-720 -797 0
-720 -798 0
-720 -799 0
-720 -800 0
-720 -801 0
-720 -802 0
-720 -803 0
-720 -804 0
-720 -805 0
-720 -806 0
-720 -807 0
-720 -808 0
-720 -809 0
-720 -810 0
-720 -811 0
-720 -812 0
-721 -722 0
-721 -723 0
-721 -724 0
-721 -725 0
-721 -726 0
-721 -727 0
-721 -728 0
-721 -729 0
-721 -730 0
-721 -731 0
-721 -732 0
-721 -733 0
-721 -734 0
-721 -735 0
-721 -736 0
-721 -737 0
-721 -738 0
-721 -739 0
-721 -740 0
-721 -741 0
-721 -742 0
-721 -743 0
-721 -744 0
-721 -745 0
-721 -746 0
-721 -747 0
-721 -748 0
-721 -749 0
-721 -750 0
-721 -751 0
-721 -752 0
-721 -753 0
-721 -754 0
-721 -755 0
-721 -756 0
-721 -757 0
-721 -758 0
-721 -759 0
-721 -760 0
-721 -761 0
-721 -762 0
-721 -763 0
-721 -764 0
-721 -765 0
-721 -766 0
-721 -767 0
-721 -768 0
-721 -769 0
-721 -770 0
-721 -771 0
-721 -772 0
-721 -773 0
-721 -774 0
-721 -775 0
-721 -776 0
-721 -777 0
-721 -778 0
-721 -779 0
-721 -780 0
-721 -781 0
-721 -782 0
-721 -783 0
-721 -784 0
-721 -785 0
-721 -786 0
-721 -787 0
-721 -788 0
-721 -789 0
-721 -790 0
-721 -791 0
-721 -792 0
-721 -793 0
-721 -794 0
-721 -795 0
-721 -796 0
-721 -797 0
-721 -798 0
-721 -799 0
-721 -800 0
-721 -801 0
-721 -802 0
-721 -803 0
-721 -804 0
-721 -805 0
-721 -806 0
-721 -807 0
-721 -808 0
-721 -809 0
-721 -810 0
-721 -811 0
-721 -812 0
-722 -723 0
-722 -724 0
-722 -725 0
-722 -726 0
-722 -727 0
-722 -728 0
-722 -729 0
-722 -730 0
-722 -731 0
-722 -732 0
-722 -733 0
-722 -734 0
-722 -735 0
-722 -736 0
-722 -737 0
-722 -738 0
-722 -739 0
-722 -740 0
-722 -741 0
-722 -742 0
-722 -743 0
-722 -744 0
-722 -745 0
-722 -746 0
-722 -747 0
-722 -748 0
-722 -749 0
-722 -750 0
-722 -751 0
-722 -752 0
-722 -753 0
-722 -754 0
-722 -755 0
-722 -756 0
-722 -757 0
-722 -758 0
-722 -759 0
-722 -760 0
-722 -761 0
-722 -762 0
-722 -763 0
-722 -764 0
-722 -765 0
-722 -766 0
-722 -767 0
-722 -768 0
-722 -769 0
-722 -770 0
-722 -771 0
-722 -772 0
-722 -773 0
-722 -774 0
-722 -775 0
-722 -776 0
-722 -777 0
-722 -778 0
-722 -779 0
-722 -780 0
-722 -781 0
-722 -782 0
-722 -783 0
-722 -784 0
-722 -785 0
-722 -786 0
-722 -787 0
-722 -788 0
-722 -789 0
-722 -790 0
-722 -791 0
-722 -792 0
-722 -793 0
-722 -794 0
-722 -795 0
-722 -796 0
-722 -797 0
-722 -798 0
-722 -799 0
-722 -800 0
-722 -801 0
-722 -802 0
-722 -803 0
-722 -804 0
-722 -805 0
-722 -806 0
-722 -807 0
-722 -808 0
-722 -809 0
-722 -810 0
-722 -811 0
-722 -812 0
-723 -724 0
-723 -725 0
-723 -726 0
-723 -727 0
-723 -728 0
-723 -729 0
-723 -730 0
-723 -731 0
-723 -732 0
-723 -733 0
-723 -734 0
-723 -735 0
-723 -736 0
-723 -737 0
-723 -738 0
-723 -739 0
-723 -740 0
-723 -741 0
-723 -742 0
-723 -743 0
-723 -744 0
-723 -745 0
-723 -746 0
-723 -747 0
-723 -748 0
-723 -749 0
-723 -750 0
-723 -751 0
-723 -752 0
-723 -753 0
-723 -754 0
-723 -755 0
-723 -756 0
-723 -757 0
-723 -758 0
-723 -759 0
-723 -760 0
-723 -761 0
-723 -762 0
-723 -763 0
-723 -764 0
-723 -765 0
-723 -766 0
-723 -767 0
-723 -768 0
-723 -769 0
-723 -770 0
-723 -771 0
-723 -772 0
-723 -773 0
-723 -774 0
-723 -775 0
-723 -776 0
-723 -777 0
-723 -778 0
-723 -779 0
-723 -780 0
-723 -781 0
-723 -782 0
-723 -783 0
-723 -784 0
-723 -785 0
-723 -786 0
-723 -787 0
-723 -788 0
-723 -789 0
-723 -790 0
-723 -791 0
-723 -792 0
-723 -793 0
-723 -794 0
-723 -795 0
-723 -796 0
-723 -797 0
-723 -798 0
-723 -799 0
-723 -800 0
-723 -801 0
-723 -802 0
-723 -803 0
-723 -804 0
-723 -805 0
-723 -806 0
-723 -807 0
-723 -808 0
-723 -809 0
-723 -810 0
-723 -811 0
-723 -812 0
-724 -725 0
-724 -726 0
-724 -727 0
-724 -728 0
-724 -729 0
-724 -730 0
-724 -731 0
-724 -732 0
-724 -733 0
-724 -734 0
-724 -735 0
-724 -736 0
-724 -737 0
-724 -738 0
-724 -739 0
-724 -740 0
-724 -741 0
-724 -742 0
-724 -743 0
-724 -744 0
-724 -745 0
-724 -746 0
-724 -747 0
-724 -748 0
-724 -749 0
-724 -750 0
-724 -751 0
-724 -752 0
-724 -753 0
-724 -754 0
-724 -755 0
-724 -756 0
-724 -757 0
-724 -758 0
-724 -759 0
-724 -760 0
-724 -761 0
-724 -762 0
-724 -763 0
-724 -764 0
-724 -765 0
-724 -766 0
-724 -767 0
-724 -768 0
-724 -769 0
-724 -770 0
-724 -771 0
-724 -772 0
-724 -773 0
-724 -774 0
-724 -775 0
-724 -776 0
-724 -777 0
-724 -778 0
-724 -779 0
-724 -780 0
-724 -781 0
-724 -782 0
-724 -783 0
-724 -784 0
-724 -785 0
-724 -786 0
-724 -787 0
-724 -788 0
-724 -789 0
-724 -790 0
-724 -791 0
-724 -792 0
-724 -793 0
-724 -794 0
-724 -795 0
-724 -796 0
-724 -797 0
-724 -798 0
-724 -799 0
-724 -800 0
-724 -801 0
-724 -802 0
-724 -803 0
-724 -804 0
-724 -805 0
-724 -806 0
-724 -807 0
-724 -808 0
-724 -809 0
-724 -810 0
-724 -811 0
-724 -812 0
-725 -726 0
-725 -727 0
-725 -728 0
-725 -729 0
-725 -730 0
-725 -731 0
-725 -732 0
-725 -733 0
-725 -734 0
-725 -735 0
-725 -736 0
-725 -737 0
-725 -738 0
-725 -739 0
-725 -740 0
-725 -741 0
-725 -742 0
-725 -743 0
-725 -744 0
-725 -745 0
-725 -746 0
-725 -747 0
-725 -748 0
-725 -749 0
-725 -750 0
-725 -751 0
-725 -752 0
-725 -753 0
-725 -754 0
-725 -755 0
-725 -756 0
-725 -757 0
-725 -758 0
-725 -759 0
-725 -760 0
-725 -761 0
-725 -762 0
-725 -763 0
-725 -764 0
-725 -765 0
-725 -766 0
-725 -767 0
-725 -768 0
-725 -769 0
-725 -770 0
-725 -771 0
-725 -772 0
-725 -773 0
-725 -774 0
-725 -775 0
-725 -776 0
-725 -777 0
-725 -778 0
-725 -779 0
-725 -780 0
-725 -781 0
-725 -782 0
-725 -783 0
-725 -784 0
-725 -785 0
-725 -786 0
-725 -787 0
-725 -788 0
-725 -789 0
-725 -790 0
-725 -791 0
-725 -792 0
-725 -793 0
-725 -794 0
-725 -795 0
-725 -796 0
-725 -797 0
-725 -798 0
-725 -799 0
-725 -800 0
-725 -801 0
-725 -802 0
-725 -803 0
-725 -804 0
-725 -805 0
-725 -806 0
-725 -807 0
-725 -808 0
-725 -809 0
-725 -810 0
-725 -811 0
-725 -812 0
-726 -727 0
-726 -728 0
-726 -729 0
-726 -730 0
-726 -731 0
-726 -732 0
-726 -733 0
-726 -734 0
-726 -735 0
-726 -736 0
-726 -737 0
-726 -738 0
-726 -739 0
-726 -740 0
-726 -741 0
-726 -742 0
-726 -743 0
-726 -744 0
-726 -745 0
-726 -746 0
-726 -747 0
-726 -748 0
-726 -749 0
-726 -750 0
-726 -751 0
-726 -752 0
-726 -753 0
-726 -754 0
-726 -755 0
-726 -756 0
-726 -757 0
-726 -758 0
-726 -759 0
-726 -760 0
-726 -761 0
-726 -762 0
-726 -763 0
-726 -764 0
-726 -765 0
-726 -766 0
-726 -767 0
-726 -768 0
-726 -769 0
-726 -770 0
-726 -771 0
-726 -772 0
-726 -773 0
-726 -774 0
-726 -775 0
-726 -776 0
-726 -777 0
-726 -778 0
-726 -779 0
-726 -780 0
-726 -781 0
-726 -782 0
-726 -783 0
-726 -784 0
-726 -785 0
-726 -786 0
-726 -787 0
-726 -788 0
-726 -789 0
-726 -790 0
-726 -791 0
-726 -792 0
-726 -793 0
-726 -794 0
-726 -795 0
-726 -796 0
-726 -797 0
-726 -798 0
-726 -799 0
-726 -800 0
-726 -801 0
-726 -802 0
-726 -803 0
-726 -804 0
-726 -805 0
-726 -806 0
-726 -807 0
-726 -808 0
-726 -809 0
-726 -810 0
-726 -811 0
-726 -812 0
-727 -728 0
-727 -729 0
-727 -730 0
-727 -731 0
-727 -732 0
-727 -733 0
-727 -734 0
-727 -735 0
-727 -736 0
-727 -737 0
-727 -738 0
-727 -739 0
-727 -740 0
-727 -741 0
-727 -742 0
-727 -743 0
-727 -744 0
-727 -745 0
-727 -746 0
-727 -747 0
-727 -748 0
-727 -749 0
-727 -750 0
-727 -751 0
-727 -752 0
-727 -753 0
-727 -754 0
-727 -755 0
-727 -756 0
-727 -757 0
-727 -758 0
-727 -759 0
-727 -760 0
-727 -761 0
-727 -762 0
-727 -763 0
-727 -764 0
-727 -765 0
-727 -766 0
-727 -767 0
-727 -768 0
-727 -769 0
-727 -770 0
-727 -771 0
-727 -772 0
-727 -773 0
-727 -774 0
-727 -775 0
-727 -776 0
-727 -777 0
-727 -778 0
-727 -779 0
-727 -780 0
-727 -781 0
-727 -782 0
-727 -783 0
-727 -784 0
-727 -785 0
-727 -786 0
-727 -787 0
-727 -788 0
-727 -789 0
-727 -790 0
-727 -791 0
-727 -792 0
-727 -793 0
-727 -794 0
-727 -795 0
-727 -796 0
-727 -797 0
-727 -798 0
-727 -799 0
-727 -800 0
-727 -801 0
-727 -802 0
-727 -803 0
-727 -804 0
-727 -805 0
-727 -806 0
-727 -807 0
-727 -808 0
-727 -809 0
-727 -810 0
-727 -811 0
-727 -812 0
-728 -729 0
-728 -730 0
-728 -731 0
-728 -732 0
-728 -733 0
-728 -734 0
-728 -735 0
-728 -736 0
-728 -737 0
-728 -738 0
-728 -739 0
-728 -740 0
-728 -741 0
-728 -742 0
-728 -743 0
-728 -744 0
-728 -745 0
-728 -746 0
-728 -747 0
-728 -748 0
-728 -749 0
-728 -750 0
-728 -751 0
-728 -752 0
-728 -753 0
-728 -754 0
-728 -755 0
-728 -756 0
-728 -757 0
-728 -758 0
-728 -759 0
-728 -760 0
-728 -761 0
-728 -762 0
-728 -763 0
-728 -764 0
-728 -765 0
-728 -766 0
-728 -767 0
-728 -768 0
-728 -769 0
-728 -770 0
-728 -771 0
-728 -772 0
-728 -773 0
-728 -774 0
-728 -775 0
-728 -776 0
-728 -777 0
-728 -778 0
-728 -779 0
-728 -780 0
-728 -781 0
-728 -782 0
-728 -783 0
-728 -784 0
-728 -785 0
-728 -786 0
-728 -787 0
-728 -788 0
-728 -789 0
-728 -790 0
-728 -791 0
-728 -792 0
-728 -793 0
-728 -794 0
-728 -795 0
-728 -796 0
-728 -797 0
-728 -798 0
-728 -799 0
-728 -800 0
-728 -801 0
-728 -802 0
-728 -803 0
-728 -804 0
-728 -805 0
-728 -806 0
-728 -807 0
-728 -808 0
-728 -809 0
-728 -810 0
-728 -811 0
-728 -812 0
-729 -730 0
-729 -731 0
-729 -732 0
-729 -733 0
-729 -734 0
-729 -735 0
-729 -736 0
-729 -737 0
-729 -738 0
-729 -739 0
-729 -740 0
-729 -741 0
-729 -742 0
-729 -743 0
-729 -744 0
-729 -745 0
-729 -746 0
-729 -747 0
-729 -748 0
-729 -749 0
-729 -750 0
-729 -751 0
-729 -752 0
-729 -753 0
-729 -754 0
-729 -755 0
-729 -756 0
-729 -757 0
-729 -758 0
-729 -759 0
-729 -760 0
-729 -761 0
-729 -762 0
-729 -763 0
-729 -764 0
-729 -765 0
-729 -766 0
-729 -767 0
-729 -768 0
-729 -769 0
-729 -770 0
-729 -771 0
-729 -772 0
-729 -773 0
-729 -774 0
-729 -775 0
-729 -776 0
-729 -777 0
-729 -778 0
-729 -779 0
-729 -780 0
-729 -781 0
-729 -782 0
-729 -783 0
-729 -784 0
-729 -785 0
-729 -786 0
-729 -787 0
-729 -788 0
-729 -789 0
-729 -790 0
-729 -791 0
-729 -792 0
-729 -793 0
-729 -794 0
-729 -795 0
-729 -796 0
-729 -797 0
-729 -798 0
-729 -799 0
-729 -800 0
-729 -801 0
-729 -802 0
-729 -803 0
-729 -804 0
-729 -805 0
-729 -806 0
-729 -807 0
-729 -808 0
-729 -809 0
-729 -810 0
-729 -811 0
-729 -812 0
-730 -731 0
-730 -732 0
-730 -733 0
-730 -734 0
-730 -735 0
-730 -736 0
-730 -737 0
-730 -738 0
-730 -739 0
-730 -740 0
-730 -741 0
-730 -742 0
-730 -743 0
-730 -744 0
-730 -745 0
-730 -746 0
-730 -747 0
-730 -748 0
-730 -749 0
-730 -750 0
-730 -751 0
-730 -752 0
-730 -753 0
-730 -754 0
-730 -755 0
-730 -756 0
-730 -757 0
-730 -758 0
-730 -759 0
-730 -760 0
-730 -761 0
-730 -762 0
-730 -763 0
-730 -764 0
-730 -765 0
-730 -766 0
-730 -767 0
-730 -768 0
-730 -769 0
-730 -770 0
-730 -771 0
-730 -772 0
-730 -773 0
-730 -774 0
-730 -775 0
-730 -776 0
-730 -777 0
-730 -778 0
-730 -779 0
-730 -780 0
-730 -781 0
-730 -782 0
-730 -783 0
-730 -784 0
-730 -785 0
-730 -786 0
-730 -787 0
-730 -788 0
-730 -789 0
-730 -790 0
-730 -791 0
-730 -792 0
-730 -793 0
-730 -794 0
-730 -795 0
-730 -796 0
-730 -797 0
-730 -798 0
-730 -799 0
-730 -800 0
-730 -801 0
-730 -802 0
-730 -803 0
-730 -804 0
-730 -805 0
-730 -806 0
-730 -807 0
-730 -808 0
-730 -809 0
-730 -810 0
-730 -811 0
-730 -812 0
-731 -732 0
-731 -733 0
-731 -734 0
-731 -735 0
-731 -736 0
-731 -737 0
-731 -738 0
-731 -739 0
-731 -740 0
-731 -741 0
-731 -742 0
-731 -743 0
-731 -744 0
-731 -745 0
-731 -746 0
-731 -747 0
-731 -748 0
-731 -749 0
-731 -750 0
-731 -751 0
-731 -752 0
-731 -753 0
-731 -754 0
-731 -755 0
-731 -756 0
-731 -757 0
-731 -758 0
-731 -759 0
-731 -760 0
-731 -761 0
-731 -762 0
-731 -763 0
-731 -764 0
-731 -765 0
-731 -766 0
-731 -767 0
-731 -768 0
-731 -769 0
-731 -770 0
-731 -771 0
-731 -772 0
-731 -773 0
-731 -774 0
-731 -775 0
-731 -776 0
-731 -777 0
-731 -778 0
-731 -779 0
-731 -780 0
-731 -781 0
-731 -782 0
-731 -783 0
-731 -784 0
-731 -785 0
-731 -786 0
-731 -787 0
-731 -788 0
-731 -789 0
-731 -790 0
-731 -791 0
-731 -792 0
-731 -793 0
-731 -794 0
-731 -795 0
-731 -796 0
-731 -797 0
-731 -798 0
-731 -799 0
-731 -800 0
-731 -801 0
-731 -802 0
-731 -803 0
-731 -804 0
-731 -805 0
-731 -806 0
-731 -807 0
-731 -808 0
-731 -809 0
-731 -810 0
-731 -811 0
-731 -812 0
-732 -733 0
-732 -734 0
-732 -735 0
-732 -736 0
-732 -737 0
-732 -738 0
-732 -739 0
-732 -740 0
-732 -741 0
-732 -742 0
-732 -743 0
-732 -744 0
-732 -745 0
-732 -746 0
-732 -747 0
-732 -748 0
-732 -749 0
-732 -750 0
-732 -751 0
-732 -752 0
-732 -753 0
-732 -754 0
-732 -755 0
-732 -756 0
-732 -757 0
-732 -758 0
-732 -759 0
-732 -760 0
-732 -761 0
-732 -762 0
-732 -763 0
-732 -764 0
-732 -765 0
-732 -766 0
-732 -767 0
-732 -768 0
-732 -769 0
-732 -770 0
-732 -771 0
-732 -772 0
-732 -773 0
-732 -774 0
-732 -775 0
-732 -776 0
-732 -777 0
-732 -778 0
-732 -779 0
-732 -780 0
-732 -781 0
-732 -782 0
-732 -783 0
-732 -784 0
-732 -785 0
-732 -786 0
-732 -787 0
-732 -788 0
-732 -789 0
-732 -790 0
-732 -791 0
-732 -792 0
-732 -793 0
-732 -794 0
-732 -795 0
-732 -796 0
-732 -797 0
-732 -798 0
-732 -799 0
-732 -800 0
-732 -801 0
-732 -802 0
-732 -803 0
-732 -804 0
-732 -805 0
-732 -806 0
-732 -807 0
-732 -808 0
-732 -809 0
-732 -810 0
-732 -811 0
-732 -812 0
-733 -734 0
-733 -735 0
-733 -736 0
-733 -737 0
-733 -738 0
-733 -739 0
-733 -740 0
-733 -741 0
-733 -742 0
-733 -743 0
-733 -744 0
-733 -745 0
-733 -746 0
-733 -747 0
-733 -748 0
-733 -749 0
-733 -750 0
-733 -751 0
-733 -752 0
-733 -753 0
-733 -754 0
-733 -755 0
-733 -756 0
-733 -757 0
-733 -758 0
-733 -759 0
-733 -760 0
-733 -761 0
-733 -762 0
-733 -763 0
-733 -764 0
-733 -765 0
-733 -766 0
-733 -767 0
-733 -768 0
-733 -769 0
-733 -770 0
-733 -771 0
-733 -772 0
-733 -773 0
-733 -774 0
-733 -775 0
-733 -776 0
-733 -777 0
-733 -778 0
-733 -779 0
-733 -780 0
-733 -781 0
-733 -782 0
-733 -783 0
-733 -784 0
-733 -785 0
-733 -786 0
-733 -787 0
-733 -788 0
-733 -789 0
-733 -790 0
-733 -791 0
-733 -792 0
-733 -793 0
-733 -794 0
-733 -795 0
-733 -796 0
-733 -797 0
-733 -798 0
-733 -799 0
-733 -800 0
-733 -801 0
-733 -802 0
-733 -803 0
-733 -804 0
-733 -805 0
-733 -806 0
-733 -807 0
-733 -808 0
-733 -809 0
-733 -810 0
-733 -811 0
-733 -812 0
-734 -735 0
-734 -736 0
-734 -737 0
-734 -738 0
-734 -739 0
-734 -740 0
-734 -741 0
-734 -742 0
-734 -743 0
-734 -744 0
-734 -745 0
-734 -746 0
-734 -747 0
-734 -748 0
-734 -749 0
-734 -750 0
-734 -751 0
-734 -752 0
-734 -753 0
-734 -754 0
-734 -755 0
-734 -756 0
-734 -757 0
-734 -758 0
-734 -759 0
-734 -760 0
-734 -761 0
-734 -762 0
-734 -763 0
-734 -764 0
-734 -765 0
-734 -766 0
-734 -767 0
-734 -768 0
-734 -769 0
-734 -770 0
-734 -771 0
-734 -772 0
-734 -773 0
-734 -774 0
-734 -775 0
-734 -776 0
-734 -777 0
-734 -778 0
-734 -779 0
-734 -780 0
-734 -781 0
-734 -782 0
-734 -783 0
-734 -784 0
-734 -785 0
-734 -786 0
-734 -787 0
-734 -788 0
-734 -789 0
-734 -790 0
-734 -791 0
-734 -792 0
-734 -793 0
-734 -794 0
-734 -795 0
-734 -796 0
-734 -797 0
-734 -798 0
-734 -799 0
-734 -800 0
-734 -801 0
-734 -802 0
-734 -803 0
-734 -804 0
-734 -805 0
-734 -806 0
-734 -807 0
-734 -808 0
-734 -809 0
-734 -810 0
-734 -811 0
-734 -812 0
-735 -736 0
-735 -737 0
-735 -738 0
-735 -739 0
-735 -740 0
-735 -741 0
-735 -742 0
-735 -743 0
-735 -744 0
-735 -745 0
-735 -746 0
-735 -747 0
-735 -748 0
-735 -749 0
-735 -750 0
-735 -751 0
-735 -752 0
-735 -753 0
-735 -754 0
-735 -755 0
-735 -756 0
-735 -757 0
-735 -758 0
-735 -759 0
-735 -760 0
-735 -761 0
-735 -762 0
-735 -763 0
-735 -764 0
-735 -765 0
-735 -766 0
-735 -767 0
-735 -768 0
-735 -769 0
-735 -770 0
-735 -771 0
-735 -772 0
-735 -773 0
-735 -774 0
-735 -775 0
-735 -776 0
-735 -777 0
-735 -778 0
-735 -779 0
-735 -780 0
-735 -781 0
-735 -782 0
-735 -783 0
-735 -784 0
-735 -785 0
-735 -786 0
-735 -787 0
-735 -788 0
-735 -789 0
-735 -790 0
-735 -791 0
-735 -792 0
-735 -793 0
-735 -794 0
-735 -795 0
-735 -796 0
-735 -797 0
-735 -798 0
-735 -799 0
-735 -800 0
-735 -801 0
-735 -802 0
-735 -803 0
-735 -804 0
-735 -805 0
-735 -806 0
-735 -807 0
-735 -808 0
-735 -809 0
-735 -810 0
-735 -811 0
-735 -812 0
-736 -737 0
-736 -738 0
-736 -739 0
-736 -740 0
-736 -741 0
-736 -742 0
-736 -743 0
-736 -744 0
-736 -745 0
-736 -746 0
-736 -747 0
-736 -748 0
-736 -749 0
-736 -750 0
-736 -751 0
-736 -752 0
-736 -753 0
-736 -754 0
-736 -755 0
-736 -756 0
-736 -757 0
-736 -758 0
-736 -759 0
-736 -760 0
-736 -761 0
-736 -762 0
-736 -763 0
-736 -764 0
-736 -765 0
-736 -766 0
-736 -767 0
-736 -768 0
-736 -769 0
-736 -770 0
-736 -771 0
-736 -772 0
-736 -773 0
-736 -774 0
-736 -775 0
-736 -776 0
-736 -777 0
-736 -778 0
-736 -779 0
-736 -780 0
-736 -781 0
-736 -782 0
-736 -783 0
-736 -784 0
-736 -785 0
-736 -786 0
-736 -787 0
-736 -788 0
-736 -789 0
-736 -790 0
-736 -791 0
-736 -792 0
-736 -793 0
-736 -794 0
-736 -795 0
-736 -796 0
-736 -797 0
-736 -798 0
-736 -799 0
-736 -800 0
-736 -801 0
-736 -802 0
-736 -803 0
-736 -804 0
-736 -805 0
-736 -806 0
-736 -807 0
-736 -808 0
-736 -809 0
-736 -810 0
-736 -811 0
-736 -812 0
-737 -738 0
-737 -739 0
-737 -740 0
-737 -741 0
-737 -742 0
-737 -743 0
-737 -744 0
-737 -745 0
-737 -746 0
-737 -747 0
-737 -748 0
-737 -749 0
-737 -750 0
-737 -751 0
-737 -752 0
-737 -753 0
-737 -754 0
-737 -755 0
-737 -756 0
-737 -757 0
-737 -758 0
-737 -759 0
-737 -760 0
-737 -761 0
-737 -762 0
-737 -763 0
-737 -764 0
-737 -765 0
-737 -766 0
-737 -767 0
-737 -768 0
-737 -769 0
-737 -770 0
-737 -771 0
-737 -772 0
-737 -773 0
-737 -774 0
-737 -775 0
-737 -776 0
-737 -777 0
-737 -778 0
-737 -779 0
-737 -780 0
-737 -781 0
-737 -782 0
-737 -783 0
-737 -784 0
-737 -785 0
-737 -786 0
-737 -787 0
-737 -788 0
-737 -789 0
-737 -790 0
-737 -791 0
-737 -792 0
-737 -793 0
-737 -794 0
-737 -795 0
-737 -796 0
-737 -797 0
-737 -798 0
-737 -799 0
-737 -800 0
-737 -801 0
-737 -802 0
-737 -803 0
-737 -804 0
-737 -805 0
-737 -806 0
-737 -807 0
-737 -808 0
-737 -809 0
-737 -810 0
-737 -811 0
-737 -812 0
-738 -739 0
-738 -740 0
-738 -741 0
-738 -742 0
-738 -743 0
-738 -744 0
-738 -745 0
-738 -746 0
-738 -747 0
-738 -748 0
-738 -749 0
-738 -750 0
-738 -751 0
-738 -752 0
-738 -753 0
-738 -754 0
-738 -755 0
-738 -756 0
-738 -757 0
-738 -758 0
-738 -759 0
-738 -760 0
-738 -761 0
-738 -762 0
-738 -763 0
-738 -764 0
-738 -765 0
-738 -766 0
-738 -767 0
-738 -768 0
-738 -769 0
-738 -770 0
-738 -771 0
-738 -772 0
-738 -773 0
-738 -774 0
-738 -775 0
-738 -776 0
-738 -777 0
-738 -778 0
-738 -779 0
-738 -780 0
-738 -781 0
-738 -782 0
-738 -783 0
-738 -784 0
-738 -785 0
-738 -786 0
-738 -787 0
-738 -788 0
-738 -789 0
-738 -790 0
-738 -791 0
-738 -792 0
-738 -793 0
-738 -794 0
-738 -795 0
-738 -796 0
-738 -797 0
-738 -798 0
-738 -799 0
-738 -800 0
-738 -801 0
-738 -802 0
-738 -803 0
-738 -804 0
-738 -805 0
-738 -806 0
-738 -807 0
-738 -808 0
-738 -809 0
-738 -810 0
-738 -811 0
-738 -812 0
-739 -740 0
-739 -741 0
-739 -742 0
-739 -743 0
-739 -744 0
-739 -745 0
-739 -746 0
-739 -747 0
-739 -748 0
-739 -749 0
-739 -750 0
-739 -751 0
-739 -752 0
-739 -753 0
-739 -754 0
-739 -755 0
-739 -756 0
-739 -757 0
-739 -758 0
-739 -759 0
-739 -760 0
-739 -761 0
-739 -762 0
-739 -763 0
-739 -764 0
-739 -765 0
-739 -766 0
-739 -767 0
-739 -768 0
-739 -769 0
-739 -770 0
-739 -771 0
-739 -772 0
-739 -773 0
-739 -774 0
-739 -775 0
-739 -776 0
-739 -777 0
-739 -778 0
-739 -779 0
-739 -780 0
-739 -781 0
-739 -782 0
-739 -783 0
-739 -784 0
-739 -785 0
-739 -786 0
-739 -787 0
-739 -788 0
-739 -789 0
-739 -790 0
-739 -791 0
-739 -792 0
-739 -793 0
-739 -794 0
-739 -795 0
-739 -796 0
-739 -797 0
-739 -798 0
-739 -799 0
-739 -800 0
-739 -801 0
-739 -802 0
-739 -803 0
-739 -804 0
-739 -805 0
-739 -806 0
-739 -807 0
-739 -808 0
-739 -809 0
-739 -810 0
-739 -811 0
-739 -812 0
-740 -741 0
-740 -742 0
-740 -743 0
-740 -744 0
-740 -745 0
-740 -746 0
-740 -747 0
-740 -748 0
-740 -749 0
-740 -750 0
-740 -751 0
-740 -752 0
-740 -753 0
-740 -754 0
-740 -755 0
-740 -756 0
-740 -757 0
-740 -758 0
-740 -759 0
-740 -760 0
-740 -761 0
-740 -762 0
-740 -763 0
-740 -764 0
-740 -765 0
-740 -766 0
-740 -767 0
-740 -768 0
-740 -769 0
-740 -770 0
-740 -771 0
-740 -772 0
-740 -773 0
-740 -774 0
-740 -775 0
-740 -776 0
-740 -777 0
-740 -778 0
-740 -779 0
-740 -780 0
-740 -781 0
-740 -782 0
-740 -783 0
-740 -784 0
-740 -785 0
-740 -786 0
-740 -787 0
-740 -788 0
-740 -789 0
-740 -790 0
-740 -791 0
-740 -792 0
-740 -793 0
-740 -794 0
-740 -795 0
-740 -796 0
-740 -797 0
-740 -798 0
-740 -799 0
-740 -800 0
-740 -801 0
-740 -802 0
-740 -803 0
-740 -804 0
-740 -805 0
-740 -806 0
-740 -807 0
-740 -808 0
-740 -809 0
-740 -810 0
-740 -811 0
-740 -812 0
-741 -742 0
-741 -743 0
-741 -744 0
-741 -745 0
-741 -746 0
-741 -747 0
-741 -748 0
-741 -749 0
-741 -750 0
-741 -751 0
-741 -752 0
-741 -753 0
-741 -754 0
-741 -755 0
-741 -756 0
-741 -757 0
-741 -758 0
-741 -759 0
-741 -760 0
-741 -761 0
-741 -762 0
-741 -763 0
-741 -764 0
-741 -765 0
-741 -766 0
-741 -767 0
-741 -768 0
-741 -769 0
-741 -770 0
-741 -771 0
-741 -772 0
-741 -773 0
-741 -774 0
-741 -775 0
-741 -776 0
-741 -777 0
-741 -778 0
-741 -779 0
-741 -780 0
-741 -781 0
-741 -782 0
-741 -783 0
-741 -784 0
-741 -785 0
-741 -786 0
-741 -787 0
-741 -788 0
-741 -789 0
-741 -790 0
-741 -791 0
-741 -792 0
-741 -793 0
-741 -794 0
-741 -795 0
-741 -796 0
-741 -797 0
-741 -798 0
-741 -799 0
-741 -800 0
-741 -801 0
-741 -802 0
-741 -803 0
-741 -804 0
-741 -805 0
-741 -806 0
-741 -807 0
-741 -808 0
-741 -809 0
-741 -810 0
-741 -811 0
-741 -812 0
-742 -743 0
-742 -744 0
-742 -745 0
-742 -746 0
-742 -747 0
-742 -748 0
-742 -749 0
-742 -750 0
-742 -751 0
-742 -752 0
-742 -753 0
-742 -754 0
-742 -755 0
-742 -756 0
-742 -757 0
-742 -758 0
-742 -759 0
-742 -760 0
-742 -761 0
-742 -762 0
-742 -763 0
-742 -764 0
-742 -765 0
-742 -766 0
-742 -767 0
-742 -768 0
-742 -769 0
-742 -770 0
-742 -771 0
-742 -772 0
-742 -773 0
-742 -774 0
-742 -775 0
-742 -776 0
-742 -777 0
-742 -778 0
-742 -779 0
-742 -780 0
-742 -781 0
-742 -782 0
-742 -783 0
-742 -784 0
-742 -785 0
-742 -786 0
-742 -787 0
-742 -788 0
-742 -789 0
-742 -790 0
-742 -791 0
-742 -792 0
-742 -793 0
-742 -794 0
-742 -795 0
-742 -796 0
-742 -797 0
-742 -798 0
-742 -799 0
-742 -800 0
-742 -801 0
-742 -802 0
-742 -803 0
-742 -804 0
-742 -805 0
-742 -806 0
-742 -807 0
-742 -808 0
-742 -809 0
-742 -810 0
-742 -811 0
-742 -812 0
-743 -744 0
-743 -745 0
-743 -746 0
-743 -747 0
-743 -748 0
-743 -749 0
-743 -750 0
-743 -751 0
-743 -752 0
-743 -753 0
-743 -754 0
-743 -755 0
-743 -756 0
-743 -757 0
-743 -758 0
-743 -759 0
-743 -760 0
-743 -761 0
-743 -762 0
-743 -763 0
-743 -764 0
-743 -765 0
-743 -766 0
-743 -767 0
-743 -768 0
-743 -769 0
-743 -770 0
-743 -771 0
-743 -772 0
-743 -773 0
-743 -774 0
-743 -775 0
-743 -776 0
-743 -777 0
-743 -778 0
-743 -779 0
-743 -780 0
-743 -781 0
-743 -782 0
-743 -783 0
-743 -784 0
-743 -785 0
-743 -786 0
-743 -787 0
-743 -788 0
-743 -789 0
-743 -790 0
-743 -791 0
-743 -792 0
-743 -793 0
-743 -794 0
-743 -795 0
-743 -796 0
-743 -797 0
-743 -798 0
-743 -799 0
-743 -800 0
-743 -801 0
-743 -802 0
-743 -803 0
-743 -804 0
-743 -805 0
-743 -806 0
-743 -807 0
-743 -808 0
-743 -809 0
-743 -810 0
-743 -811 0
-743 -812 0
-744 -745 0
-744 -746 0
-744 -747 0
-744 -748 0
-744 -749 0
-744 -750 0
-744 -751 0
-744 -752 0
-744 -753 0
-744 -754 0
-744 -755 0
-744 -756 0
-744 -757 0
-744 -758 0
-744 -759 0
-744 -760 0
-744 -761 0
-744 -762 0
-744 -763 0
-744 -764 0
-744 -765 0
-744 -766 0
-744 -767 0
-744 -768 0
-744 -769 0
-744 -770 0
-744 -771 0
-744 -772 0
-744 -773 0
-744 -774 0
-744 -775 0
-744 -776 0
-744 -777 0
-744 -778 0
-744 -779 0
-744 -780 0
-744 -781 0
-744 -782 0
-744 -783 0
-744 -784 0
-744 -785 0
-744 -786 0
-744 -787 0
-744 -788 0
-744 -789 0
-744 -790 0
-744 -791 0
-744 -792 0
-744 -793 0
-744 -794 0
-744 -795 0
-744 -796 0
-744 -797 0
-744 -798 0
-744 -799 0
-744 -800 0
-744 -801 0
-744 -802 0
-744 -803 0
-744 -804 0
-744 -805 0
-744 -806 0
-744 -807 0
-744 -808 0
-744 -809 0
-744 -810 0
-744 -811 0
-744 -812 0
-745 -746 0
-745 -747 0
-745 -748 0
-745 -749 0
-745 -750 0
-745 -751 0
-745 -752 0
-745 -753 0
-745 -754 0
-745 -755 0
-745 -756 0
-745 -757 0
-745 -758 0
-745 -759 0
-745 -760 0
-745 -761 0
-745 -762 0
-745 -763 0
-745 -764 0
-745 -765 0
-745 -766 0
-745 -767 0
-745 -768 0
-745 -769 0
-745 -770 0
-745 -771 0
-745 -772 0
-745 -773 0
-745 -774 0
-745 -775 0
-745 -776 0
-745 -777 0
-745 -778 0
-745 -779 0
-745 -780 0
-745 -781 0
-745 -782 0
-745 -783 0
-745 -784 0
-745 -785 0
-745 -786 0
-745 -787 0
-745 -788 0
-745 -789 0
-745 -790 0
-745 -791 0
-745 -792 0
-745 -793 0
-745 -794 0
-745 -795 0
-745 -796 0
-745 -797 0
-745 -798 0
-745 -799 0
-745 -800 0
-745 -801 0
-745 -802 0
-745 -803 0
-745 -804 0
-745 -805 0
-745 -806 0
-745 -807 0
-745 -808 0
-745 -809 0
-745 -810 0
-745 -811 0
-745 -812 0
-746 -747 0
-746 -748 0
-746 -749 0
-746 -750 0
-746 -751 0
-746 -752 0
-746 -753 0
-746 -754 0
-746 -755 0
-746 -756 0
-746 -757 0
-746 -758 0
-746 -759 0
-746 -760 0
-746 -761 0
-746 -762 0
-746 -763 0
-746 -764 0
-746 -765 0
-746 -766 0
-746 -767 0
-746 -768 0
-746 -769 0
-746 -770 0
-746 -771 0
-746 -772 0
-746 -773 0
-746 -774 0
-746 -775 0
-746 -776 0
-746 -777 0
-746 -778 0
-746 -779 0
-746 -780 0
-746 -781 0
-746 -782 0
-746 -783 0
-746 -784 0
-746 -785 0
-746 -786 0
-746 -787 0
-746 -788 0
-746 -789 0
-746 -790 0
-746 -791 0
-746 -792 0
-746 -793 0
-746 -794 0
-746 -795 0
-746 -796 0
-746 -797 0
-746 -798 0
-746 -799 0
-746 -800 0
-746 -801 0
-746 -802 0
-746 -803 0
-746 -804 0
-746 -805 0
-746 -806 0
-746 -807 0
-746 -808 0
-746 -809 0
-746 -810 0
-746 -811 0
-746 -812 0
-747 -748 0
-747 -749 0
-747 -750 0
-747 -751 0
-747 -752 0
-747 -753 0
-747 -754 0
-747 -755 0
-747 -756 0
-747 -757 0
-747 -758 0
-747 -759 0
-747 -760 0
-747 -761 0
-747 -762 0
-747 -763 0
-747 -764 0
-747 -765 0
-747 -766 0
-747 -767 0
-747 -768 0
-747 -769 0
-747 -770 0
-747 -771 0
-747 -772 0
-747 -773 0
-747 -774 0
-747 -775 0
-747 -776 0
-747 -777 0
-747 -778 0
-747 -779 0
-747 -780 0
-747 -781 0
-747 -782 0
-747 -783 0
-747 -784 0
-747 -785 0
-747 -786 0
-747 -787 0
-747 -788 0
-747 -789 0
-747 -790 0
-747 -791 0
-747 -792 0
-747 -793 0
-747 -794 0
-747 -795 0
-747 -796 0
-747 -797 0
-747 -798 0
-747 -799 0
-747 -800 0
-747 -801 0
-747 -802 0
-747 -803 0
-747 -804 0
-747 -805 0
-747 -806 0
-747 -807 0
-747 -808 0
-747 -809 0
-747 -810 0
-747 -811 0
-747 -812 0
-748 -749 0
-748 -750 0
-748 -751 0
-748 -752 0
-748 -753 0
-748 -754 0
-748 -755 0
-748 -756 0
-748 -757 0
-748 -758 0
-748 -759 0
-748 -760 0
-748 -761 0
-748 -762 0
-748 -763 0
-748 -764 0
-748 -765 0
-748 -766 0
-748 -767 0
-748 -768 0
-748 -769 0
-748 -770 0
-748 -771 0
-748 -772 0
-748 -773 0
-748 -774 0
-748 -775 0
-748 -776 0
-748 -777 0
-748 -778 0
-748 -779 0
-748 -780 0
-748 -781 0
-748 -782 0
-748 -783 0
-748 -784 0
-748 -785 0
-748 -786 0
-748 -787 0
-748 -788 0
-748 -789 0
-748 -790 0
-748 -791 0
-748 -792 0
-748 -793 0
-748 -794 0
-748 -795 0
-748 -796 0
-748 -797 0
-748 -798 0
-748 -799 0
-748 -800 0
-748 -801 0
-748 -802 0
-748 -803 0
-748 -804 0
-748 -805 0
-748 -806 0
-748 -807 0
-748 -808 0
-748 -809 0
-748 -810 0
-748 -811 0
-748 -812 0
-749 -750 0
-749 -751 0
-749 -752 0
-749 -753 0
-749 -754 0
-749 -755 0
-749 -756 0
-749 -757 0
-749 -758 0
-749 -759 0
-749 -760 0
-749 -761 0
-749 -762 0
-749 -763 0
-749 -764 0
-749 -765 0
-749 -766 0
-749 -767 0
-749 -768 0
-749 -769 0
-749 -770 0
-749 -771 0
-749 -772 0
-749 -773 0
-749 -774 0
-749 -775 0
-749 -776 0
-749 -777 0
-749 -778 0
-749 -779 0
-749 -780 0
-749 -781 0
-749 -782 0
-749 -783 0
-749 -784 0
-749 -785 0
-749 -786 0
-749 -787 0
-749 -788 0
-749 -789 0
-749 -790 0
-749 -791 0
-749 -792 0
-749 -793 0
-749 -794 0
-749 -795 0
-749 -796 0
-749 -797 0
-749 -798 0
-749 -799 0
-749 -800 0
-749 -801 0
-749 -802 0
-749 -803 0
-749 -804 0
-749 -805 0
-749 -806 0
-749 -807 0
-749 -808 0
-749 -809 0
-749 -810 0
-749 -811 0
-749 -812 0
-750 -751 0
-750 -752 0
-750 -753 0
-750 -754 0
-750 -755 0
-750 -756 0
-750 -757 0
-750 -758 0
-750 -759 0
-750 -760 0
-750 -761 0
-750 -762 0
-750 -763 0
-750 -764 0
-750 -765 0
-750 -766 0
-750 -767 0
-750 -768 0
-750 -769 0
-750 -770 0
-750 -771 0
-750 -772 0
-750 -773 0
-750 -774 0
-750 -775 0
-750 -776 0
-750 -777 0
-750 -778 0
-750 -779 0
-750 -780 0
-750 -781 0
-750 -782 0
-750 -783 0
-750 -784 0
-750 -785 0
-750 -786 0
-750 -787 0
-750 -788 0
-750 -789 0
-750 -790 0
-750 -791 0
-750 -792 0
-750 -793 0
-750 -794 0
-750 -795 0
-750 -796 0
-750 -797 0
-750 -798 0
-750 -799 0
-750 -800 0
-750 -801 0
-750 -802 0
-750 -803 0
-750 -804 0
-750 -805 0
-750 -806 0
-750 -807 0
-750 -808 0
-750 -809 0
-750 -810 0
-750 -811 0
-750 -812 0
-751 -752 0
-751 -753 0
-751 -754 0
-751 -755 0
-751 -756 0
-751 -757 0
-751 -758 0
-751 -759 0
-751 -760 0
-751 -761 0
-751 -762 0
-751 -763 0
-751 -764 0
-751 -765 0
-751 -766 0
-751 -767 0
-751 -768 0
-751 -769 0
-751 -770 0
-751 -771 0
-751 -772 0
-751 -773 0
-751 -774 0
-751 -775 0
-751 -776 0
-751 -777 0
-751 -778 0
-751 -779 0
-751 -780 0
-751 -781 0
-751 -782 0
-751 -783 0
-751 -784 0
-751 -785 0
-751 -786 0
-751 -787 0
-751 -788 0
-751 -789 0
-751 -790 0
-751 -791 0
-751 -792 0
-751 -793 0
-751 -794 0
-751 -795 0
-751 -796 0
-751 -797 0
-751 -798 0
-751 -799 0
-751 -800 0
-751 -801 0
-751 -802 0
-751 -803 0
-751 -804 0
-751 -805 0
-751 -806 0
-751 -807 0
-751 -808 0
-751 -809 0
-751 -810 0
-751 -811 0
-751 -812 0
-752 -753 0
-752 -754 0
-752 -755 0
-752 -756 0
-752 -757 0
-752 -758 0
-752 -759 0
-752 -760 0
-752 -761 0
-752 -762 0
-752 -763 0
-752 -764 0
-752 -765 0
-752 -766 0
-752 -767 0
-752 -768 0
-752 -769 0
-752 -770 0
-752 -771 0
-752 -772 0
-752 -773 0
-752 -774 0
-752 -775 0
-752 -776 0
-752 -777 0
-752 -778 0
-752 -779 0
-752 -780 0
-752 -781 0
-752 -782 0
-752 -783 0
-752 -784 0
-752 -785 0
-752 -786 0
-752 -787 0
-752 -788 0
-752 -789 0
-752 -790 0
-752 -791 0
-752 -792 0
-752 -793 0
-752 -794 0
-752 -795 0
-752 -796 0
-752 -797 0
-752 -798 0
-752 -799 0
-752 -800 0
-752 -801 0
-752 -802 0
-752 -803 0
-752 -804 0
-752 -805 0
-752 -806 0
-752 -807 0
-752 -808 0
-752 -809 0
-752 -810 0
-752 -811 0
-752 -812 0
-753 -754 0
-753 -755 0
-753 -756 0
-753 -757 0
-753 -758 0
-753 -759 0
-753 -760 0
-753 -761 0
-753 -762 0
-753 -763 0
-753 -764 0
-753 -765 0
-753 -766 0
-753 -767 0
-753 -768 0
-753 -769 0
-753 -770 0
-753 -771 0
-753 -772 0
-753 -773 0
-753 -774 0
-753 -775 0
-753 -776 0
-753 -777 0
-753 -778 0
-753 -779 0
-753 -780 0
-753 -781 0
-753 -782 0
-753 -783 0
-753 -784 0
-753 -785 0
-753 -786 0
-753 -787 0
-753 -788 0
-753 -789 0
-753 -790 0
-753 -791 0
-753 -792 0
-753 -793 0
-753 -794 0
-753 -795 0
-753 -796 0
-753 -797 0
-753 -798 0
-753 -799 0
-753 -800 0
-753 -801 0
-753 -802 0
-753 -803 0
-753 -804 0
-753 -805 0
-753 -806 0
-753 -807 0
-753 -808 0
-753 -809 0
-753 -810 0
-753 -811 0
-753 -812 0
-754 -755 0
-754 -756 0
-754 -757 0
-754 -758 0
-754 -759 0
-754 -760 0
-754 -761 0
-754 -762 0
-754 -763 0
-754 -764 0
-754 -765 0
-754 -766 0
-754 -767 0
-754 -768 0
-754 -769 0
-754 -770 0
-754 -771 0
-754 -772 0
-754 -773 0
-754 -774 0
-754 -775 0
-754 -776 0
-754 -777 0
-754 -778 0
-754 -779 0
-754 -780 0
-754 -781 0
-754 -782 0
-754 -783 0
-754 -784 0
-754 -785 0
-754 -786 0
-754 -787 0
-754 -788 0
-754 -789 0
-754 -790 0
-754 -791 0
-754 -792 0
-754 -793 0
-754 -794 0
-754 -795 0
-754 -796 0
-754 -797 0
-754 -798 0
-754 -799 0
-754 -800 0
-754 -801 0
-754 -802 0
-754 -803 0
-754 -804 0
-754 -805 0
-754 -806 0
-754 -807 0
-754 -808 0
-754 -809 0
-754 -810 0
-754 -811 0
-754 -812 0
-755 -756 0
-755 -757 0
-755 -758 0
-755 -759 0
-755 -760 0
-755 -761 0
-755 -762 0
-755 -763 0
-755 -764 0
-755 -765 0
-755 -766 0
-755 -767 0
-755 -768 0
-755 -769 0
-755 -770 0
-755 -771 0
-755 -772 0
-755 -773 0
-755 -774 0
-755 -775 0
-755 -776 0
-755 -777 0
-755 -778 0
-755 -779 0
-755 -780 0
-755 -781 0
-755 -782 0
-755 -783 0
-755 -784 0
-755 -785 0
-755 -786 0
-755 -787 0
-755 -788 0
-755 -789 0
-755 -790 0
-755 -791 0
-755 -792 0
-755 -793 0
-755 -794 0
-755 -795 0
-755 -796 0
-755 -797 0
-755 -798 0
-755 -799 0
-755 -800 0
-755 -801 0
-755 -802 0
-755 -803 0
-755 -804 0
-755 -805 0
-755 -806 0
-755 -807 0
-755 -808 0
-755 -809 0
-755 -810 0
-755 -811 0
-755 -812 0
-756 -757 0
-756 -758 0
-756 -759 0
-756 -760 0
-756 -761 0
-756 -762 0
-756 -763 0
-756 -764 0
-756 -765 0
-756 -766 0
-756 -767 0
-756 -768 0
-756 -769 0
-756 -770 0
-756 -771 0
-756 -772 0
-756 -773 0
-756 -774 0
-756 -775 0
-756 -776 0
-756 -777 0
-756 -778 0
-756 -779 0
-756 -780 0
-756 -781 0
-756 -782 0
-756 -783 0
-756 -784 0
-756 -785 0
-756 -786 0
-756 -787 0
-756 -788 0
-756 -789 0
-756 -790 0
-756 -791 0
-756 -792 0
-756 -793 0
-756 -794 0
-756 -795 0
-756 -796 0
-756 -797 0
-756 -798 0
-756 -799 0
-756 -800 0
-756 -801 0
-756 -802 0
-756 -803 0
-756 -804 0
-756 -805 0
-756 -806 0
-756 -807 0
-756 -808 0
-756 -809 0
-756 -810 0
-756 -811 0
-756 -812 0
-757 -758 0
-757 -759 0
-757 -760 0
-757 -761 0
-757 -762 0
-757 -763 0
-757 -764 0
-757 -765 0
-757 -766 0
-757 -767 0
-757 -768 0
-757 -769 0
-757 -770 0
-757 -771 0
-757 -772 0
-757 -773 0
-757 -774 0
-757 -775 0
-757 -776 0
-757 -777 0
-757 -778 0
-757 -779 0
-757 -780 0
-757 -781 0
-757 -782 0
-757 -783 0
-757 -784 0
-757 -785 0
-757 -786 0
-757 -787 0
-757 -788 0
-757 -789 0
-757 -790 0
-757 -791 0
-757 -792 0
-757 -793 0
-757 -794 0
-757 -795 0
-757 -796 0
-757 -797 0
-757 -798 0
-757 -799 0
-757 -800 0
-757 -801 0
-757 -802 0
-757 -803 0
-757 -804 0
-757 -805 0
-757 -806 0
-757 -807 0
-757 -808 0
-757 -809 0
-757 -810 0
-757 -811 0
-757 -812 0
-758 -759 0
-758 -760 0
-758 -761 0
-758 -762 0
-758 -763 0
-758 -764 0
-758 -765 0
-758 -766 0
-758 -767 0
-758 -768 0
-758 -769 0
-758 -770 0
-758 -771 0
-758 -772 0
-758 -773 0
-758 -774 0
-758 -775 0
-758 -776 0
-758 -777 0
-758 -778 0
-758 -779 0
-758 -780 0
-758 -781 0
-758 -782 0
-758 -783 0
-758 -784 0
-758 -785 0
-758 -786 0
-758 -787 0
-758 -788 0
-758 -789 0
-758 -790 0
-758 -791 0
-758 -792 0
-758 -793 0
-758 -794 0
-758 -795 0
-758 -796 0
-758 -797 0
-758 -798 0
-758 -799 0
-758 -800 0
-758 -801 0
-758 -802 0
-758 -803 0
-758 -804 0
-758 -805 0
-758 -806 0
-758 -807 0
-758 -808 0
-758 -809 0
-758 -810 0
-758 -811 0
-758 -812 0
-759 -760 0
-759 -761 0
-759 -762 0
-759 -763 0
-759 -764 0
-759 -765 0
-759 -766 0
-759 -767 0
-759 -768 0
-759 -769 0
-759 -770 0
-759 -771 0
-759 -772 0
-759 -773 0
-759 -774 0
-759 -775 0
-759 -776 0
-759 -777 0
-759 -778 0
-759 -779 0
-759 -780 0
-759 -781 0
-759 -782 0
-759 -783 0
-759 -784 0
-759 -785 0
-759 -786 0
-759 -787 0
-759 -788 0
-759 -789 0
-759 -790 0
-759 -791 0
-759 -792 0
-759 -793 0
-759 -794 0
-759 -795 0
-759 -796 0
-759 -797 0
-759 -798 0
-759 -799 0
-759 -800 0
-759 -801 0
-759 -802 0
-759 -803 0
-759 -804 0
-759 -805 0
-759 -806 0
-759 -807 0
-759 -808 0
-759 -809 0
-759 -810 0
-759 -811 0
-759 -812 0
-760 -761 0
-760 -762 0
-760 -763 0
-760 -764 0
-760 -765 0
-760 -766 0
-760 -767 0
-760 -768 0
-760 -769 0
-760 -770 0
-760 -771 0
-760 -772 0
-760 -773 0
-760 -774 0
-760 -775 0
-760 -776 0
-760 -777 0
-760 -778 0
-760 -779 0
-760 -780 0
-760 -781 0
-760 -782 0
-760 -783 0
-760 -784 0
-760 -785 0
-760 -786 0
-760 -787 0
-760 -788 0
-760 -789 0
-760 -790 0
-760 -791 0
-760 -792 0
-760 -793 0
-760 -794 0
-760 -795 0
-760 -796 0
-760 -797 0
-760 -798 0
-760 -799 0
-760 -800 0
-760 -801 0
-760 -802 0
-760 -803 0
-760 -804 0
-760 -805 0
-760 -806 0
-760 -807 0
-760 -808 0
-760 -809 0
-760 -810 0
-760 -811 0
-760 -812 0
-761 -762 0
-761 -763 0
-761 -764 0
-761 -765 0
-761 -766 0
-761 -767 0
-761 -768 0
-761 -769 0
-761 -770 0
-761 -771 0
-761 -772 0
-761 -773 0
-761 -774 0
-761 -775 0
-761 -776 0
-761 -777 0
-761 -778 0
-761 -779 0
-761 -780 0
-761 -781 0
-761 -782 0
-761 -783 0
-761 -784 0
-761 -785 0
-761 -786 0
-761 -787 0
-761 -788 0
-761 -789 0
-761 -790 0
-761 -791 0
-761 -792 0
-761 -793 0
-761 -794 0
-761 -795 0
-761 -796 0
-761 -797 0
-761 -798 0
-761 -799 0
-761 -800 0
-761 -801 0
-761 -802 0
-761 -803 0
-761 -804 0
-761 -805 0
-761 -806 0
-761 -807 0
-761 -808 0
-761 -809 0
-761 -810 0
-761 -811 0
-761 -812 0
-762 -763 0
-762 -764 0
-762 -765 0
-762 -766 0
-762 -767 0
-762 -768 0
-762 -769 0
-762 -770 0
-762 -771 0
-762 -772 0
-762 -773 0
-762 -774 0
-762 -775 0
-762 -776 0
-762 -777 0
-762 -778 0
-762 -779 0
-762 -780 0
-762 -781 0
-762 -782 0
-762 -783 0
-762 -784 0
-762 -785 0
-762 -786 0
-762 -787 0
-762 -788 0
-762 -789 0
-762 -790 0
-762 -791 0
-762 -792 0
-762 -793 0
-762 -794 0
-762 -795 0
-762 -796 0
-762 -797 0
-762 -798 0
-762 -799 0
-762 -800 0
-762 -801 0
-762 -802 0
-762 -803 0
-762 -804 0
-762 -805 0
-762 -806 0
-762 -807 0
-762 -808 0
-762 -809 0
-762 -810 0
-762 -811 0
-762 -812 0
-763 -764 0
-763 -765 0
-763 -766 0
-763 -767 0
-763 -768 0
-763 -769 0
-763 -770 0
-763 -771 0
-763 -772 0
-763 -773 0
-763 -774 0
-763 -775 0
-763 -776 0
-763 -777 0
-763 -778 0
-763 -779 0
-763 -780 0
-763 -781 0
-763 -782 0
-763 -783 0
-763 -784 0
-763 -785 0
-763 -786 0
-763 -787 0
-763 -788 0
-763 -789 0
-763 -790 0
-763 -791 0
-763 -792 0
-763 -793 0
-763 -794 0
-763 -795 0
-763 -796 0
-763 -797 0
-763 -798 0
-763 -799 0
-763 -800 0
-763 -801 0
-763 -802 0
-763 -803 0
-763 -804 0
-763 -805 0
-763 -806 0
-763 -807 0
-763 -808 0
-763 -809 0
-763 -810 0
-763 -811 0
-763 -812 0
-764 -765 0
-764 -766 0
-764 -767 0
-764 -768 0
-764 -769 0
-764 -770 0
-764 -771 0
-764 -772 0
-764 -773 0
-764 -774 0
-764 -775 0
-764 -776 0
-764 -777 0
-764 -778 0
-764 -779 0
-764 -780 0
-764 -781 0
-764 -782 0
-764 -783 0
-764 -784 0
-764 -785 0
-764 -786 0
-764 -787 0
-764 -788 0
-764 -789 0
-764 -790 0
-764 -791 0
-764 -792 0
-764 -793 0
-764 -794 0
-764 -795 0
-764 -796 0
-764 -797 0
-764 -798 0
-764 -799 0
-764 -800 0
-764 -801 0
-764 -802 0
-764 -803 0
-764 -804 0
-764 -805 0
-764 -806 0
-764 -807 0
-764 -808 0
-764 -809 0
-764 -810 0
-764 -811 0
-764 -812 0
-765 -766 0
-765 -767 0
-765 -768 0
-765 -769 0
-765 -770 0
-765 -771 0
-765 -772 0
-765 -773 0
-765 -774 0
-765 -775 0
-765 -776 0
-765 -777 0
-765 -778 0
-765 -779 0
-765 -780 0
-765 -781 0
-765 -782 0
-765 -783 0
-765 -784 0
-765 -785 0
-765 -786 0
-765 -787 0
-765 -788 0
-765 -789 0
-765 -790 0
-765 -791 0
-765 -792 0
-765 -793 0
-765 -794 0
-765 -795 0
-765 -796 0
-765 -797 0
-765 -798 0
-765 -799 0
-765 -800 0
-765 -801 0
-765 -802 0
-765 -803 0
-765 -804 0
-765 -805 0
-765 -806 0
-765 -807 0
-765 -808 0
-765 -809 0
-765 -810 0
-765 -811 0
-765 -812 0
-766 -767 0
-766 -768 0
-766 -769 0
-766 -770 0
-766 -771 0
-766 -772 0
-766 -773 0
-766 -774 0
-766 -775 0
-766 -776 0
-766 -777 0
-766 -778 0
-766 -779 0
-766 -780 0
-766 -781 0
-766 -782 0
-766 -783 0
-766 -784 0
-766 -785 0
-766 -786 0
-766 -787 0
-766 -788 0
-766 -789 0
-766 -790 0
-766 -791 0
-766 -792 0
-766 -793 0
-766 -794 0
-766 -795 0
-766 -796 0
-766 -797 0
-766 -798 0
-766 -799 0
-766 -800 0
-766 -801 0
-766 -802 0
-766 -803 0
-766 -804 0
-766 -805 0
-766 -806 0
-766 -807 0
-766 -808 0
-766 -809 0
-766 -810 0
-766 -811 0
-766 -812 0
-767 -768 0
-767 -769 0
-767 -770 0
-767 -771 0
-767 -772 0
-767 -773 0
-767 -774 0
-767 -775 0
-767 -776 0
-767 -777 0
-767 -778 0
-767 -779 0
-767 -780 0
-767 -781 0
-767 -782 0
-767 -783 0
-767 -784 0
-767 -785 0
-767 -786 0
-767 -787 0
-767 -788 0
-767 -789 0
-767 -790 0
-767 -791 0
-767 -792 0
-767 -793 0
-767 -794 0
-767 -795 0
-767 -796 0
-767 -797 0
-767 -798 0
-767 -799 0
-767 -800 0
-767 -801 0
-767 -802 0
-767 -803 0
-767 -804 0
-767 -805 0
-767 -806 0
-767 -807 0
-767 -808 0
-767 -809 0
-767 -810 0
-767 -811 0
-767 -812 0
-768 -769 0
-768 -770 0
-768 -771 0
-768 -772 0
-768 -773 0
-768 -774 0
-768 -775 0
-768 -776 0
-768 -777 0
-768 -778 0
-768 -779 0
-768 -780 0
-768 -781 0
-768 -782 0
-768 -783 0
-768 -784 0
-768 -785 0
-768 -786 0
-768 -787 0
-768 -788 0
-768 -789 0
-768 -790 0
-768 -791 0
-768 -792 0
-768 -793 0
-768 -794 0
-768 -795 0
-768 -796 0
-768 -797 0
-768 -798 0
-768 -799 0
-768 -800 0
-768 -801 0
-768 -802 0
-768 -803 0
-768 -804 0
-768 -805 0
-768 -806 0
-768 -807 0
-768 -808 0
-768 -809 0
-768 -810 0
-768 -811 0
-768 -812 0
-769 -770 0
-769 -771 0
-769 -772 0
-769 -773 0
-769 -774 0
-769 -775 0
-769 -776 0
-769 -777 0
-769 -778 0
-769 -779 0
-769 -780 0
-769 -781 0
-769 -782 0
-769 -783 0
-769 -784 0
-769 -785 0
-769 -786 0
-769 -787 0
-769 -788 0
-769 -789 0
-769 -790 0
-769 -791 0
-769 -792 0
-769 -793 0
-769 -794 0
-769 -795 0
-769 -796 0
-769 -797 0
-769 -798 0
-769 -799 0
-769 -800 0
-769 -801 0
-769 -802 0
-769 -803 0
-769 -804 0
-769 -805 0
-769 -806 0
-769 -807 0
-769 -808 0
-769 -809 0
-769 -810 0
-769 -811 0
-769 -812 0
-770 -771 0
-770 -772 0
-770 -773 0
-770 -774 0
-770 -775 0
-770 -776 0
-770 -777 0
-770 -778 0
-770 -779 0
-770 -780 0
-770 -781 0
-770 -782 0
-770 -783 0
-770 -784 0
-770 -785 0
-770 -786 0
-770 -787 0
-770 -788 0
-770 -789 0
-770 -790 0
-770 -791 0
-770 -792 0
-770 -793 0
-770 -794 0
-770 -795 0
-770 -796 0
-770 -797 0
-770 -798 0
-770 -799 0
-770 -800 0
-770 -801 0
-770 -802 0
-770 -803 0
-770 -804 0
-770 -805 0
-770 -806 0
-770 -807 0
-770 -808 0
-770 -809 0
-770 -810 0
-770 -811 0
-770 -812 0
-771 -772 0
-771 -773 0
-771 -774 0
-771 -775 0
-771 -776 0
-771 -777 0
-771 -778 0
-771 -779 0
-771 -780 0
-771 -781 0
-771 -782 0
-771 -783 0
-771 -784 0
-771 -785 0
-771 -786 0
-771 -787 0
-771 -788 0
-771 -789 0
-771 -790 0
-771 -791 0
-771 -792 0
-771 -793 0
-771 -794 0
-771 -795 0
-771 -796 0
-771 -797 0
-771 -798 0
-771 -799 0
-771 -800 0
-771 -801 0
-771 -802 0
-771 -803 0
-771 -804 0
-771 -805 0
-771 -806 0
-771 -807 0
-771 -808 0
-771 -809 0
-771 -810 0
-771 -811 0
-771 -812 0
-772 -773 0
-772 -774 0
-772 -775 0
-772 -776 0
-772 -777 0
-772 -778 0
-772 -779 0
-772 -780 0
-772 -781 0
-772 -782 0
-772 -783 0
-772 -784 0
-772 -785 0
-772 -786 0
-772 -787 0
-772 -788 0
-772 -789 0
-772 -790 0
-772 -791 0
-772 -792 0
-772 -793 0
-772 -794 0
-772 -795 0
-772 -796 0
-772 -797 0
-772 -798 0
-772 -799 0
-772 -800 0
-772 -801 0
-772 -802 0
-772 -803 0
-772 -804 0
-772 -805 0
-772 -806 0
-772 -807 0
-772 -808 0
-772 -809 0
-772 -810 0
-772 -811 0
-772 -812 0
-773 -774 0
-773 -775 0
-773 -776 0
-773 -777 0
-773 -778 0
-773 -779 0
-773 -780 0
-773 -781 0
-773 -782 0
-773 -783 0
-773 -784 0
-773 -785 0
-773 -786 0
-773 -787 0
-773 -788 0
-773 -789 0
-773 -790 0
-773 -791 0
-773 -792 0
-773 -793 0
-773 -794 0
-773 -795 0
-773 -796 0
-773 -797 0
-773 -798 0
-773 -799 0
-773 -800 0
-773 -801 0
-773 -802 0
-773 -803 0
-773 -804 0
-773 -805 0
-773 -806 0
-773 -807 0
-773 -808 0
-773 -809 0
-773 -810 0
-773 -811 0
-773 -812 0
-774 -775 0
-774 -776 0
-774 -777 0
-774 -778 0
-774 -779 0
-774 -780 0
-774 -781 0
-774 -782 0
-774 -783 0
-774 -784 0
-774 -785 0
-774 -786 0
-774 -787 0
-774 -788 0
-774 -789 0
-774 -790 0
-774 -791 0
-774 -792 0
-774 -793 0
-774 -794 0
-774 -795 0
-774 -796 0
-774 -797 0
-774 -798 0
-774 -799 0
-774 -800 0
-774 -801 0
-774 -802 0
-774 -803 0
-774 -804 0
-774 -805 0
-774 -806 0
-774 -807 0
-774 -808 0
-774 -809 0
-774 -810 0
-774 -811 0
-774 -812 0
-775 -776 0
-775 -777 0
-775 -778 0
-775 -779 0
-775 -780 0
-775 -781 0
-775 -782 0
-775 -783 0
-775 -784 0
-775 -785 0
-775 -786 0
-775 -787 0
-775 -788 0
-775 -789 0
-775 -790 0
-775 -791 0
-775 -792 0
-775 -793 0
-775 -794 0
-775 -795 0
-775 -796 0
-775 -797 0
-775 -798 0
-775 -799 0
-775 -800 0
-775 -801 0
-775 -802 0
-775 -803 0
-775 -804 0
-775 -805 0
-775 -806 0
-775 -807 0
-775 -808 0
-775 -809 0
-775 -810 0
-775 -811 0
-775 -812 0
-776 -777 0
-776 -778 0
-776 -779 0
-776 -780 0
-776 -781 0
-776 -782 0
-776 -783 0
-776 -784 0
-776 -785 0
-776 -786 0
-776 -787 0
-776 -788 0
-776 -789 0
-776 -790 0
-776 -791 0
-776 -792 0
-776 -793 0
-776 -794 0
-776 -795 0
-776 -796 0
-776 -797 0
-776 -798 0
-776 -799 0
-776 -800 0
-776 -801 0
-776 -802 0
-776 -803 0
-776 -804 0
-776 -805 0
-776 -806 0
-776 -807 0
-776 -808 0
-776 -809 0
-776 -810 0
-776 -811 0
-776 -812 0
-777 -778 0
-777 -779 0
-777 -780 0
-777 -781 0
-777 -782 0
-777 -783 0
-777 -784 0
-777 -785 0
-777 -786 0
-777 -787 0
-777 -788 0
-777 -789 0
-777 -790 0
-777 -791 0
-777 -792 0
-777 -793 0
-777 -794 0
-777 -795 0
-777 -796 0
-777 -797 0
-777 -798 0
-777 -799 0
-777 -800 0
-777 -801 0
-777 -802 0
-777 -803 0
-777 -804 0
-777 -805 0
-777 -806 0
-777 -807 0
-777 -808 0
-777 -809 0
-777 -810 0
-777 -811 0
-777 -812 0
-778 -779 0
-778 -780 0
-778 -781 0
-778 -782 0
-778 -783 0
-778 -784 0
-778 -785 0
-778 -786 0
-778 -787 0
-778 -788 0
-778 -789 0
-778 -790 0
-778 -791 0
-778 -792 0
-778 -793 0
-778 -794 0
-778 -795 0
-778 -796 0
-778 -797 0
-778 -798 0
-778 -799 0
-778 -800 0
-778 -801 0
-778 -802 0
-778 -803 0
-778 -804 0
-778 -805 0
-778 -806 0
-778 -807 0
-778 -808 0
-778 -809 0
-778 -810 0
-778 -811 0
-778 -812 0
-779 -780 0
-779 -781 0
-779 -782 0
-779 -783 0
-779 -784 0
-779 -785 0
-779 -786 0
-779 -787 0
-779 -788 0
-779 -789 0
-779 -790 0
-779 -791 0
-779 -792 0
-779 -793 0
-779 -794 0
-779 -795 0
-779 -796 0
-779 -797 0
-779 -798 0
-779 -799 0
-779 -800 0
-779 -801 0
-779 -802 0
-779 -803 0
-779 -804 0
-779 -805 0
-779 -806 0
-779 -807 0
-779 -808 0
-779 -809 0
-779 -810 0
-779 -811 0
-779 -812 0
-780 -781 0
-780 -782 0
-780 -783 0
-780 -784 0
-780 -785 0
-780 -786 0
-780 -787 0
-780 -788 0
-780 -789 0
-780 -790 0
-780 -791 0
-780 -792 0
-780 -793 0
-780 -794 0
-780 -795 0
-780 -796 0
-780 -797 0
-780 -798 0
-780 -799 0
-780 -800 0
-780 -801 0
-780 -802 0
-780 -803 0
-780 -804 0
-780 -805 0
-780 -806 0
-780 -807 0
-780 -808 0
-780 -809 0
-780 -810 0
-780 -811 0
-780 -812 0
-781 -782 0
-781 -783 0
-781 -784 0
-781 -785 0
-781 -786 0
-781 -787 0
-781 -788 0
-781 -789 0
-781 -790 0
-781 -791 0
-781 -792 0
-781 -793 0
-781 -794 0
-781 -795 0
-781 -796 0
-781 -797 0
-781 -798 0
-781 -799 0
-781 -800 0
-781 -801 0
-781 -802 0
-781 -803 0
-781 -804 0
-781 -805 0
-781 -806 0
-781 -807 0
-781 -808 0
-781 -809 0
-781 -810 0
-781 -811 0
-781 -812 0
-782 -783 0
-782 -784 0
-782 -785 0
-782 -786 0
-782 -787 0
-782 -788 0
-782 -789 0
-782 -790 0
-782 -791 0
-782 -792 0
-782 -793 0
-782 -794 0
-782 -795 0
-782 -796 0
-782 -797 0
-782 -798 0
-782 -799 0
-782 -800 0
-782 -801 0
-782 -802 0
-782 -803 0
-782 -804 0
-782 -805 0
-782 -806 0
-782 -807 0
-782 -808 0
-782 -809 0
-782 -810 0
-782 -811 0
-782 -812 0
-783 -784 0
-783 -785 0
-783 -786 0
-783 -787 0
-783 -788 0
-783 -789 0
-783 -790 0
-783 -791 0
-783 -792 0
-783 -793 0
-783 -794 0
-783 -795 0
-783 -796 0
-783 -797 0
-783 -798 0
-783 -799 0
-783 -800 0
-783 -801 0
-783 -802 0
-783 -803 0
-783 -804 0
-783 -805 0
-783 -806 0
-783 -807 0
-783 -808 0
-783 -809 0
-783 -810 0
-783 -811 0
-783 -812 0
-784 -785 0
-784 -786 0
-784 -787 0
-784 -788 0
-784 -789 0
-784 -790 0
-784 -791 0
-784 -792 0
-784 -793 0
-784 -794 0
-784 -795 0
-784 -796 0
-784 -797 0
-784 -798 0
-784 -799 0
-784 -800 0
-784 -801 0
-784 -802 0
-784 -803 0
-784 -804 0
-784 -805 0
-784 -806 0
-784 -807 0
-784 -808 0
-784 -809 0
-784 -810 0
-784 -811 0
-784 -812 0
-785 -786 0
-785 -787 0
-785 -788 0
-785 -789 0
-785 -790 0
-785 -791 0
-785 -792 0
-785 -793 0
-785 -794 0
-785 -795 0
-785 -796 0
-785 -797 0
-785 -798 0
-785 -799 0
-785 -800 0
-785 -801 0
-785 -802 0
-785 -803 0
-785 -804 0
-785 -805 0
-785 -806 0
-785 -807 0
-785 -808 0
-785 -809 0
-785 -810 0
-785 -811 0
-785 -812 0
-786 -787 0
-786 -788 0
-786 -789 0
-786 -790 0
-786 -791 0
-786 -792 0
-786 -793 0
-786 -794 0
-786 -795 0
-786 -796 0
-786 -797 0
-786 -798 0
-786 -799 0
-786 -800 0
-786 -801 0
-786 -802 0
-786 -803 0
-786 -804 0
-786 -805 0
-786 -806 0
-786 -807 0
-786 -808 0
-786 -809 0
-786 -810 0
-786 -811 0
-786 -812 0
-787 -788 0
-787 -789 0
-787 -790 0
-787 -791 0
-787 -792 0
-787 -793 0
-787 -794 0
-787 -795 0
-787 -796 0
-787 -797 0
-787 -798 0
-787 -799 0
-787 -800 0
-787 -801 0
-787 -802 0
-787 -803 0
-787 -804 0
-787 -805 0
-787 -806 0
-787 -807 0
-787 -808 0
-787 -809 0
-787 -810 0
-787 -811 0
-787 -812 0
-788 -789 0
-788 -790 0
-788 -791 0
-788 -792 0
-788 -793 0
-788 -794 0
-788 -795 0
-788 -796 0
-788 -797 0
-788 -798 0
-788 -799 0
-788 -800 0
-788 -801 0
-788 -802 0
-788 -803 0
-788 -804 0
-788 -805 0
-788 -806 0
-788 -807 0
-788 -808 0
-788 -809 0
-788 -810 0
-788 -811 0
-788 -812 0
-789 -790 0
-789 -791 0
-789 -792 0
-789 -793 0
-789 -794 0
-789 -795 0
-789 -796 0
-789 -797 0
-789 -798 0
-789 -799 0
-789 -800 0
-789 -801 0
-789 -802 0
-789 -803 0
-789 -804 0
-789 -805 0
-789 -806 0
-789 -807 0
-789 -808 0
-789 -809 0
-789 -810 0
-789 -811 0
-789 -812 0
-790 -791 0
-790 -792 0
-790 -793 0
-790 -794 0
-790 -795 0
-790 -796 0
-790 -797 0
-790 -798 0
-790 -799 0
-790 -800 0
-790 -801 0
-790 -802 0
-790 -803 0
-790 -804 0
-790 -805 0
-790 -806 0
-790 -807 0
-790 -808 0
-790 -809 0
-790 -810 0
-790 -811 0
-790 -812 0
-791 -792 0
-791 -793 0
-791 -794 0
-791 -795 0
-791 -796 0
-791 -797 0
-791 -798 0
-791 -799 0
-791 -800 0
-791 -801 0
-791 -802 0
-791 -803 0
-791 -804 0
-791 -805 0
-791 -806 0
-791 -807 0
-791 -808 0
-791 -809 0
-791 -810 0
-791 -811 0
-791 -812 0
-792 -793 0
-792 -794 0
-792 -795 0
-792 -796 0
-792 -797 0
-792 -798 0
-792 -799 0
-792 -800 0
-792 -801 0
-792 -802 0
-792 -803 0
-792 -804 0
-792 -805 0
-792 -806 0
-792 -807 0
-792 -808 0
-792 -809 0
-792 -810 0
-792 -811 0
-792 -812 0
-793 -794 0
-793 -795 0
-793 -796 0
-793 -797 0
-793 -798 0
-793 -799 0
-793 -800 0
-793 -801 0
-793 -802 0
-793 -803 0
-793 -804 0
-793 -805 0
-793 -806 0
-793 -807 0
-793 -808 0
-793 -809 0
-793 -810 0
-793 -811 0
-793 -812 0
-794 -795 0
-794 -796 0
-794 -797 0
-794 -798 0
-794 -799 0
-794 -800 0
-794 -801 0
-794 -802 0
-794 -803 0
-794 -804 0
-794 -805 0
-794 -806 0
-794 -807 0
-794 -808 0
-794 -809 0
-794 -810 0
-794 -811 0
-794 -812 0
-795 -796 0
-795 -797 0
-795 -798 0
-795 -799 0
-795 -800 0
-795 -801 0
-795 -802 0
-795 -803 0
-795 -804 0
-795 -805 0
-795 -806 0
-795 -807 0
-795 -808 0
-795 -809 0
-795 -810 0
-795 -811 0
-795 -812 0
-796 -797 0
-796 -798 0
-796 -799 0
-796 -800 0
-796 -801 0
-796 -802 0
-796 -803 0
-796 -804 0
-796 -805 0
-796 -806 0
-796 -807 0
-796 -808 0
-796 -809 0
-796 -810 0
-796 -811 0
-796 -812 0
-797 -798 0
-797 -799 0
-797 -800 0
-797 -801 0
-797 -802 0
-797 -803 0
-797 -804 0
-797 -805 0
-797 -806 0
-797 -807 0
-797 -808 0
-797 -809 0
-797 -810 0
-797 -811 0
-797 -812 0
-798 -799 0
-798 -800 0
-798 -801 0
-798 -802 0
-798 -803 0
-798 -804 0
-798 -805 0
-798 -806 0
-798 -807 0
-798 -808 0
-798 -809 0
-798 -810 0
-798 -811 0
-798 -812 0
-799 -800 0
-799 -801 0
-799 -802 0
-799 -803 0
-799 -804 0
-799 -805 0
-799 -806 0
-799 -807 0
-799 -808 0
-799 -809 0
-799 -810 0
-799 -811 0
-799 -812 0
-800 -801 0
-800 -802 0
-800 -803 0
-800 -804 0
-800 -805 0
-800 -806 0
-800 -807 0
-800 -808 0
-800 -809 0
-800 -810 0
-800 -811 0
-800 -812 0
-801 -802 0
-801 -803 0
-801 -804 0
-801 -805 0
-801 -806 0
-801 -807 0
-801 -808 0
-801 -809 0
-801 -810 0
-801 -811 0
-801 -812 0
-802 -803 0
-802 -804 0
-802 -805 0
-802 -806 0
-802 -807 0
-802 -808 0
-802 -809 0
-802 -810 0
-802 -811 0
-802 -812 0
-803 -804 0
-803 -805 0
-803 -806 0
-803 -807 0
-803 -808 0
-803 -809 0
-803 -810 0
-803 -811 0
-803 -812 0
-804 -805 0
-804 -806 0
-804 -807 0
-804 -808 0
-804 -809 0
-804 -810 0
-804 -811 0
-804 -812 0
-805 -806 0
-805 -807 0
-805 -808 0
-805 -809 0
-805 -810 0
-805 -811 0
-805 -812 0
-806 -807 0
-806 -808 0
-806 -809 0
-806 -810 0
-806 -811 0
-806 -812 0
-807 -808 0
-807 -809 0
-807 -810 0
-807 -811 0
-807 -812 0
-808 -809 0
-808 -810 0
-808 -811 0
-808 -812 0
-809 -810 0
-809 -811 0
-809 -812 0
-810 -811 0
-810 -812 0
-811 -812 0
-633 -161 0
-633 -162 0
-633 -163 0
-633 164 0
-633 -165 0
-633 -166 0
-633 -167 0
-633 168 0
-633 -169 0
-633 -170 0
-633 -171 0
-633 172 0
-633 -173 0
-633 -174 0
-633 -175 0
-633 176 0
-633 -177 0
-633 -178 0
-633 -179 0
-633 180 0
-633 -181 0
-633 -182 0
-633 -183 0
-633 184 0
-633 -185 0
-633 -186 0
-633 -187 0
-633 188 0
-633 -189 0
-633 -190 0
-633 -191 0
-633 192 0
-634 -161 0
-634 162 0
-634 -163 0
-634 -164 0
-634 -165 0
-634 166 0
-634 -167 0
-634 -168 0
-634 -169 0
-634 170 0
-634 -171 0
-634 -172 0
-634 -173 0
-634 174 0
-634 -175 0
-634 -176 0
-634 -177 0
-634 178 0
-634 -179 0
-634 -180 0
-634 -181 0
-634 182 0
-634 -183 0
-634 -184 0
-634 -185 0
-634 186 0
-634 -187 0
-634 -188 0
-634 -189 0
-634 190 0
-634 -191 0
-634 -192 0
-635 -161 0
-635 -162 0
-635 163 0
-635 -164 0
-635 -165 0
-635 -166 0
-635 167 0
-635 -168 0
-635 -169 0
-635 -170 0
-635 171 0
-635 -172 0
-635 -173 0
-635 -174 0
-635 175 0
-635 -176 0
-635 -177 0
-635 -178 0
-635 179 0
-635 -180 0
-635 -181 0
-635 -182 0
-635 183 0
-635 -184 0
-635 -185 0
-635 -186 0
-635 187 0
-635 -188 0
-635 -189 0
-635 -190 0
-635 191 0
-635 -192 0
-636 161 0
-636 -162 0
-636 -163 0
-636 -164 0
-636 165 0
-636 -166 0
-636 -167 0
-636 -168 0
-636 169 0
-636 -170 0
-636 -171 0
-636 -172 0
-636 173 0
-636 -174 0
-636 -175 0
-636 -176 0
-636 177 0
-636 -178 0
-636 -179 0
-636 -180 0
-636 181 0
-636 -182 0
-636 -183 0
-636 -184 0
-636 185 0
-636 -186 0
-636 -187 0
-636 -188 0
-636 189 0
-636 -190 0
-636 -191 0
-636 -192 0
-637 -161 0
-637 -162 0
-637 -163 0
-637 -164 0
-637 -165 0
-637 166 0
-637 -167 0
-637 168 0
-637 -169 0
-637 -170 0
-637 -171 0
-637 -172 0
-637 -173 0
-637 174 0
-637 -175 0
-637 176 0
-637 -177 0
-637 -178 0
-637 -179 0
-637 -180 0
-637 -181 0
-637 182 0
-637 -183 0
-637 184 0
-637 -185 0
-637 -186 0
-637 -187 0
-637 -188 0
-637 -189 0
-637 190 0
-637 -191 0
-637 192 0
-638 -161 0
-638 162 0
-638 -163 0
-638 164 0
-638 -165 0
-638 -166 0
-638 -167 0
-638 -168 0
-638 -169 0
-638 170 0
-638 -171 0
-638 172 0
-638 -173 0
-638 -174 0
-638 -175 0
-638 -176 0
-638 -177 0
-638 178 0
-638 -179 0
-638 180 0
-638 -181 0
-638 -182 0
-638 -183 0
-638 -184 0
-638 -185 0
-638 186 0
-638 -187 0
-638 188 0
-638 -189 0
-638 -190 0
-638 -191 0
-638 -192 0
-639 -161 0
-639 -162 0
-639 -163 0
-639 -164 0
-639 165 0
-639 -166 0
-639 167 0
-639 -168 0
-639 -169 0
-639 -170 0
-639 -171 0
-639 -172 0
-639 173 0
-639 -174 0
-639 175 0
-639 -176 0
-639 -177 0
-639 -178 0
-639 -179 0
-639 -180 0
-639 181 0
-639 -182 0
-639 183 0
-639 -184 0
-639 -185 0
-639 -186 0
-639 -187 0
-639 -188 0
-639 189 0
-639 -190 0
-639 191 0
-639 -192 0
-640 161 0
-640 -162 0
-640 163 0
-640 -164 0
-640 -165 0
-640 -166 0
-640 -167 0
-640 -168 0
-640 169 0
-640 -170 0
-640 171 0
-640 -172 0
-640 -173 0
-640 -174 0
-640 -175 0
-640 -176 0
-640 177 0
-640 -178 0
-640 179 0
-640 -180 0
-640 -181 0
-640 -182 0
-640 -183 0
-640 -184 0
-640 185 0
-640 -186 0
-640 187 0
-640 -188 0
-640 -189 0
-640 -190 0
-640 -191 0
-640 -192 0
-641 -161 0
-641 -162 0
-641 -163 0
-641 -164 0
-641 -165 0
-641 -166 0
-641 -167 0
-641 -168 0
-641 -169 0
-641 170 0
-641 -171 0
-641 172 0
-641 -173 0
-641 174 0
-641 -175 0
-641 176 0
-641 -177 0
-641 -178 0
-641 -179 0
-641 -180 0
-641 -181 0
-641 -182 0
-641 -183 0
-641 -184 0
-641 -185 0
-641 186 0
-641 -187 0
-641 188 0
-641 -189 0
-641 190 0
-641 -191 0
-641 192 0
-642 -161 0
-642 162 0
-642 -163 0
-642 164 0
-642 -165 0
-642 166 0
-642 -167 0
-642 168 0
-642 -169 0
-642 -170 0
-642 -171 0
-642 -172 0
-642 -173 0
-642 -174 0
-642 -175 0
-642 -176 0
-642 -177 0
-642 178 0
-642 -179 0
-642 180 0
-642 -181 0
-642 182 0
-642 -183 0
-642 184 0
-642 -185 0
-642 -186 0
-642 -187 0
-642 -188 0
-642 -189 0
-642 -190 0
-642 -191 0
-642 -192 0
-643 -161 0
-643 -162 0
-643 -163 0
-643 -164 0
-643 -165 0
-643 -166 0
-643 -167 0
-643 -168 0
-643 169 0
-643 -170 0
-643 171 0
-643 -172 0
-643 173 0
-643 -174 0
-643 175 0
-643 -176 0
-643 -177 0
-643 -178 0
-643 -179 0
-643 -180 0
-643 -181 0
-643 -182 0
-643 -183 0
-643 -184 0
-643 185 0
-643 -186 0
-643 187 0
-643 -188 0
-643 189 0
-643 -190 0
-643 191 0
-643 -192 0
-644 161 0
-644 -162 0
-644 163 0
-644 -164 0
-644 165 0
-644 -166 0
-644 167 0
-644 -168 0
-644 -169 0
-644 -170 0
-644 -171 0
-644 -172 0
-644 -173 0
-644 -174 0
-644 -175 0
-644 -176 0
-644 177 0
-644 -178 0
-644 179 0
-644 -180 0
-644 181 0
-644 -182 0
-644 183 0
-644 -184 0
-644 -185 0
-644 -186 0
-644 -187 0
-644 -188 0
-644 -189 0
-644 -190 0
-644 -191 0
-644 -192 0
-645 -161 0
-645 -162 0
-645 -163 0
-645 -164 0
-645 -165 0
-645 -166 0
-645 -167 0
-645 -168 0
-645 -169 0
-645 -170 0
-645 -171 0
-645 -172 0
-645 -173 0
-645 -174 0
-645 -175 0
-645 -176 0
-645 -177 0
-645 178 0
-645 -179 0
-645 180 0
-645 -181 0
-645 182 0
-645 -183 0
-645 184 0
-645 -185 0
-645 186 0
-645 -187 0
-645 188 0
-645 -189 0
-645 190 0
-645 -191 0
-645 192 0
-646 -161 0
-646 162 0
-646 -163 0
-646 164 0
-646 -165 0
-646 166 0
-646 -167 0
-646 168 0
-646 -169 0
-646 170 0
-646 -171 0
-646 172 0
-646 -173 0
-646 174 0
-646 -175 0
-646 176 0
-646 -177 0
-646 -178 0
-646 -179 0
-646 -180 0
-646 -181 0
-646 -182 0
-646 -183 0
-646 -184 0
-646 -185 0
-646 -186 0
-646 -187 0
-646 -188 0
-646 -189 0
-646 -190 0
-646 -191 0
-646 -192 0
-647 -161 0
-647 -162 0
-647 -163 0
-647 -164 0
-647 -165 0
-647 -166 0
-647 -167 0
-647 -168 0
-647 -169 0
-647 -170 0
-647 -171 0
-647 -172 0
-647 -173 0
-647 -174 0
-647 -175 0
-647 -176 0
-647 177 0
-647 -178 0
-647 179 0
-647 -180 0
-647 181 0
-647 -182 0
-647 183 0
-647 -184 0
-647 185 0
-647 -186 0
-647 187 0
-647 -188 0
-647 189 0
-647 -190 0
-647 191 0
-647 -192 0
-648 161 0
-648 -162 0
-648 163 0
-648 -164 0
-648 165 0
-648 -166 0
-648 167 0
-648 -168 0
-648 169 0
-648 -170 0
-648 171 0
-648 -172 0
-648 173 0
-648 -174 0
-648 175 0
-648 -176 0
-648 -177 0
-648 -178 0
-648 -179 0
-648 -180 0
-648 -181 0
-648 -182 0
-648 -183 0
-648 -184 0
-648 -185 0
-648 -186 0
-648 -187 0
-648 -188 0
-648 -189 0
-648 -190 0
-648 -191 0
-648 -192 0
-649 -161 0
-649 -162 2 0
-649 162 -2 0
-649 -163 0
-649 -164 4 0
-649 164 -4 0
-649 -165 0
-649 -166 6 0
-649 166 -6 0
-649 -167 0
-649 -168 8 0
-649 168 -8 0
-649 -169 0
-649 -170 10 0
-649 170 -10 0
-649 -171 0
-649 -172 12 0
-649 172 -12 0
-649 -173 0
-649 -174 14 0
-649 174 -14 0
-649 -175 0
-649 -176 16 0
-649 176 -16 0
-649 -177 0
-649 -178 18 0
-649 178 -18 0
-649 -179 0
-649 -180 20 0
-649 180 -20 0
-649 -181 0
-649 -182 22 0
-649 182 -22 0
-649 -183 0
-649 -184 24 0
-649 184 -24 0
-649 -185 0
-649 -186 26 0
-649 186 -26 0
-649 -187 0
-649 -188 28 0
-649 188 -28 0
-649 -189 0
-649 -190 30 0
-649 190 -30 0
-649 -191 0
-649 -192 32 0
-649 192 -32 0
-650 -161 0
-650 -162 -2 0
-650 162 2 0
-650 -163 0
-650 -164 -4 0
-650 164 4 0
-650 -165 0
-650 -166 -6 0
-650 166 6 0
-650 -167 0
-650 -168 -8 0
-650 168 8 0
-650 -169 0
-650 -170 -10 0
-650 170 10 0
-650 -171 0
-650 -172 -12 0
-650 172 12 0
-650 -173 0
-650 -174 -14 0
-650 174 14 0
-650 -175 0
-650 -176 -16 0
-650 176 16 0
-650 -177 0
-650 -178 -18 0
-650 178 18 0
-650 -179 0
-650 -180 -20 0
-650 180 20 0
-650 -181 0
-650 -182 -22 0
-650 182 22 0
-650 -183 0
-650 -184 -24 0
-650 184 24 0
-650 -185 0
-650 -186 -26 0
-650 186 26 0
-650 -187 0
-650 -188 -28 0
-650 188 28 0
-650 -189 0
-650 -190 -30 0
-650 190 30 0
-650 -191 0
-650 -192 -32 0
-650 192 32 0
-651 -161 1 0
-651 161 -1 0
-651 -162 0
-651 -163 3 0
-651 163 -3 0
-651 -164 0
-651 -165 5 0
-651 165 -5 0
-651 -166 0
-651 -167 7 0
-651 167 -7 0
-651 -168 0
-651 -169 9 0
-651 169 -9 0
-651 -170 0
-651 -171 11 0
-651 171 -11 0
-651 -172 0
-651 -173 13 0
-651 173 -13 0
-651 -174 0
-651 -175 15 0
-651 175 -15 0
-651 -176 0
-651 -177 17 0
-651 177 -17 0
-651 -178 0
-651 -179 19 0
-651 179 -19 0
-651 -180 0
-651 -181 21 0
-651 181 -21 0
-651 -182 0
-651 -183 23 0
-651 183 -23 0
-651 -184 0
-651 -185 25 0
-651 185 -25 0
-651 -186 0
-651 -187 27 0
-651 187 -27 0
-651 -188 0
-651 -189 29 0
-651 189 -29 0
-651 -190 0
-651 -191 31 0
-651 191 -31 0
-651 -192 0
-652 -161 -1 0
-652 161 1 0
-652 -162 0
-652 -163 -3 0
-652 163 3 0
-652 -164 0
-652 -165 -5 0
-652 165 5 0
-652 -166 0
-652 -167 -7 0
-652 167 7 0
-652 -168 0
-652 -169 -9 0
-652 169 9 0
-652 -170 0
-652 -171 -11 0
-652 171 11 0
-652 -172 0
-652 -173 -13 0
-652 173 13 0
-652 -174 0
-652 -175 -15 0
-652 175 15 0
-652 -176 0
-652 -177 -17 0
-652 177 17 0
-652 -178 0
-652 -179 -19 0
-652 179 19 0
-652 -180 0
-652 -181 -21 0
-652 181 21 0
-652 -182 0
-652 -183 -23 0
-652 183 23 0
-652 -184 0
-652 -185 -25 0
-652 185 25 0
-652 -186 0
-652 -187 -27 0
-652 187 27 0
-652 -188 0
-652 -189 -29 0
-652 189 29 0
-652 -190 0
-652 -191 -31 0
-652 191 31 0
-652 -192 0
-653 -161 0
-653 -162 34 0
-653 162 -34 0
-653 -163 0
-653 -164 36 0
-653 164 -36 0
-653 -165 0
-653 -166 38 0
-653 166 -38 0
-653 -167 0
-653 -168 40 0
-653 168 -40 0
-653 -169 0
-653 -170 42 0
-653 170 -42 0
-653 -171 0
-653 -172 44 0
-653 172 -44 0
-653 -173 0
-653 -174 46 0
-653 174 -46 0
-653 -175 0
-653 -176 48 0
-653 176 -48 0
-653 -177 0
-653 -178 50 0
-653 178 -50 0
-653 -179 0
-653 -180 52 0
-653 180 -52 0
-653 -181 0
-653 -182 54 0
-653 182 -54 0
-653 -183 0
-653 -184 56 0
-653 184 -56 0
-653 -185 0
-653 -186 58 0
-653 186 -58 0
-653 -187 0
-653 -188 60 0
-653 188 -60 0
-653 -189 0
-653 -190 62 0
-653 190 -62 0
-653 -191 0
-653 -192 64 0
-653 192 -64 0
-654 -161 0
-654 -162 -34 0
-654 162 34 0
-654 -163 0
-654 -164 -36 0
-654 164 36 0
-654 -165 0
-654 -166 -38 0
-654 166 38 0
-654 -167 0
-654 -168 -40 0
-654 168 40 0
-654 -169 0
-654 -170 -42 0
-654 170 42 0
-654 -171 0
-654 -172 -44 0
-654 172 44 0
-654 -173 0
-654 -174 -46 0
-654 174 46 0
-654 -175 0
-654 -176 -48 0
-654 176 48 0
-654 -177 0
-654 -178 -50 0
-654 178 50 0
-654 -179 0
-654 -180 -52 0
-654 180 52 0
-654 -181 0
-654 -182 -54 0
-654 182 54 0
-654 -183 0
-654 -184 -56 0
-654 184 56 0
-654 -185 0
-654 -186 -58 0
-654 186 58 0
-654 -187 0
-654 -188 -60 0
-654 188 60 0
-654 -189 0
-654 -190 -62 0
-654 190 62 0
-654 -191 0
-654 -192 -64 0
-654 192 64 0
-655 -161 33 0
-655 161 -33 0
-655 -162 0
-655 -163 35 0
-655 163 -35 0
-655 -164 0
-655 -165 37 0
-655 165 -37 0
-655 -166 0
-655 -167 39 0
-655 167 -39 0
-655 -168 0
-655 -169 41 0
-655 169 -41 0
-655 -170 0
-655 -171 43 0
-655 171 -43 0
-655 -172 0
-655 -173 45 0
-655 173 -45 0
-655 -174 0
-655 -175 47 0
-655 175 -47 0
-655 -176 0
-655 -177 49 0
-655 177 -49 0
-655 -178 0
-655 -179 51 0
-655 179 -51 0
-655 -180 0
-655 -181 53 0
-655 181 -53 0
-655 -182 0
-655 -183 55 0
-655 183 -55 0
-655 -184 0
-655 -185 57 0
-655 185 -57 0
-655 -186 0
-655 -187 59 0
-655 187 -59 0
-655 -188 0
-655 -189 61 0
-655 189 -61 0
-655 -190 0
-655 -191 63 0
-655 191 -63 0
-655 -192 0
-656 -161 -33 0
-656 161 33 0
-656 -162 0
-656 -163 -35 0
-656 163 35 0
-656 -164 0
-656 -165 -37 0
-656 165 37 0
-656 -166 0
-656 -167 -39 0
-656 167 39 0
-656 -168 0
-656 -169 -41 0
-656 169 41 0
-656 -170 0
-656 -171 -43 0
-656 171 43 0
-656 -172 0
-656 -173 -45 0
-656 173 45 0
-656 -174 0
-656 -175 -47 0
-656 175 47 0
-656 -176 0
-656 -177 -49 0
-656 177 49 0
-656 -178 0
-656 -179 -51 0
-656 179 51 0
-656 -180 0
-656 -181 -53 0
-656 181 53 0
-656 -182 0
-656 -183 -55 0
-656 183 55 0
-656 -184 0
-656 -185 -57 0
-656 185 57 0
-656 -186 0
-656 -187 -59 0
-656 187 59 0
-656 -188 0
-656 -189 -61 0
-656 189 61 0
-656 -190 0
-656 -191 -63 0
-656 191 63 0
-656 -192 0
-657 -161 0
-657 -162 66 0
-657 162 -66 0
-657 -163 0
-657 -164 68 0
-657 164 -68 0
-657 -165 0
-657 -166 70 0
-657 166 -70 0
-657 -167 0
-657 -168 72 0
-657 168 -72 0
-657 -169 0
-657 -170 74 0
-657 170 -74 0
-657 -171 0
-657 -172 76 0
-657 172 -76 0
-657 -173 0
-657 -174 78 0
-657 174 -78 0
-657 -175 0
-657 -176 80 0
-657 176 -80 0
-657 -177 0
-657 -178 82 0
-657 178 -82 0
-657 -179 0
-657 -180 84 0
-657 180 -84 0
-657 -181 0
-657 -182 86 0
-657 182 -86 0
-657 -183 0
-657 -184 88 0
-657 184 -88 0
-657 -185 0
-657 -186 90 0
-657 186 -90 0
-657 -187 0
-657 -188 92 0
-657 188 -92 0
-657 -189 0
-657 -190 94 0
-657 190 -94 0
-657 -191 0
-657 -192 96 0
-657 192 -96 0
-658 -161 0
-658 -162 -66 0
-658 162 66 0
-658 -163 0
-658 -164 -68 0
-658 164 68 0
-658 -165 0
-658 -166 -70 0
-658 166 70 0
-658 -167 0
-658 -168 -72 0
-658 168 72 0
-658 -169 0
-658 -170 -74 0
-658 170 74 0
-658 -171 0
-658 -172 -76 0
-658 172 76 0
-658 -173 0
-658 -174 -78 0
-658 174 78 0
-658 -175 0
-658 -176 -80 0
-658 176 80 0
-658 -177 0
-658 -178 -82 0
-658 178 82 0
-658 -179 0
-658 -180 -84 0
-658 180 84 0
-658 -181 0
-658 -182 -86 0
-658 182 86 0
-658 -183 0
-658 -184 -88 0
-658 184 88 0
-658 -185 0
-658 -186 -90 0
-658 186 90 0
-658 -187 0
-658 -188 -92 0
-658 188 92 0
-658 -189 0
-658 -190 -94 0
-658 190 94 0
-658 -191 0
-658 -192 -96 0
-658 192 96 0
-659 -161 65 0
-659 161 -65 0
-659 -162 0
-659 -163 67 0
-659 163 -67 0
-659 -164 0
-659 -165 69 0
-659 165 -69 0
-659 -166 0
-659 -167 71 0
-659 167 -71 0
-659 -168 0
-659 -169 73 0
-659 169 -73 0
-659 -170 0
-659 -171 75 0
-659 171 -75 0
-659 -172 0
-659 -173 77 0
-659 173 -77 0
-659 -174 0
-659 -175 79 0
-659 175 -79 0
-659 -176 0
-659 -177 81 0
-659 177 -81 0
-659 -178 0
-659 -179 83 0
-659 179 -83 0
-659 -180 0
-659 -181 85 0
-659 181 -85 0
-659 -182 0
-659 -183 87 0
-659 183 -87 0
-659 -184 0
-659 -185 89 0
-659 185 -89 0
-659 -186 0
-659 -187 91 0
-659 187 -91 0
-659 -188 0
-659 -189 93 0
-659 189 -93 0
-659 -190 0
-659 -191 95 0
-659 191 -95 0
-659 -192 0
-660 -161 -65 0
-660 161 65 0
-660 -162 0
-660 -163 -67 0
-660 163 67 0
-660 -164 0
-660 -165 -69 0
-660 165 69 0
-660 -166 0
-660 -167 -71 0
-660 167 71 0
-660 -168 0
-660 -169 -73 0
-660 169 73 0
-660 -170 0
-660 -171 -75 0
-660 171 75 0
-660 -172 0
-660 -173 -77 0
-660 173 77 0
-660 -174 0
-660 -175 -79 0
-660 175 79 0
-660 -176 0
-660 -177 -81 0
-660 177 81 0
-660 -178 0
-660 -179 -83 0
-660 179 83 0
-660 -180 0
-660 -181 -85 0
-660 181 85 0
-660 -182 0
-660 -183 -87 0
-660 183 87 0
-660 -184 0
-660 -185 -89 0
-660 185 89 0
-660 -186 0
-660 -187 -91 0
-660 187 91 0
-660 -188 0
-660 -189 -93 0
-660 189 93 0
-660 -190 0
-660 -191 -95 0
-660 191 95 0
-660 -192 0
-661 -161 0
-661 -162 98 0
-661 162 -98 0
-661 -163 0
-661 -164 100 0
-661 164 -100 0
-661 -165 0
-661 -166 102 0
-661 166 -102 0
-661 -167 0
-661 -168 104 0
-661 168 -104 0
-661 -169 0
-661 -170 106 0
-661 170 -106 0
-661 -171 0
-661 -172 108 0
-661 172 -108 0
-661 -173 0
-661 -174 110 0
-661 174 -110 0
-661 -175 0
-661 -176 112 0
-661 176 -112 0
-661 -177 0
-661 -178 114 0
-661 178 -114 0
-661 -179 0
-661 -180 116 0
-661 180 -116 0
-661 -181 0
-661 -182 118 0
-661 182 -118 0
-661 -183 0
-661 -184 120 0
-661 184 -120 0
-661 -185 0
-661 -186 122 0
-661 186 -122 0
-661 -187 0
-661 -188 124 0
-661 188 -124 0
-661 -189 0
-661 -190 126 0
-661 190 -126 0
-661 -191 0
-661 -192 128 0
-661 192 -128 0
-662 -161 0
-662 -162 -98 0
-662 162 98 0
-662 -163 0
-662 -164 -100 0
-662 164 100 0
-662 -165 0
-662 -166 -102 0
-662 166 102 0
-662 -167 0
-662 -168 -104 0
-662 168 104 0
-662 -169 0
-662 -170 -106 0
-662 170 106 0
-662 -171 0
-662 -172 -108 0
-662 172 108 0
-662 -173 0
-662 -174 -110 0
-662 174 110 0
-662 -175 0
-662 -176 -112 0
-662 176 112 0
-662 -177 0
-662 -178 -114 0
-662 178 114 0
-662 -179 0
-662 -180 -116 0
-662 180 116 0
-662 -181 0
-662 -182 -118 0
-662 182 118 0
-662 -183 0
-662 -184 -120 0
-662 184 120 0
-662 -185 0
-662 -186 -122 0
-662 186 122 0
-662 -187 0
-662 -188 -124 0
-662 188 124 0
-662 -189 0
-662 -190 -126 0
-662 190 126 0
-662 -191 0
-662 -192 -128 0
-662 192 128 0
-663 -161 97 0
-663 161 -97 0
-663 -162 0
-663 -163 99 0
-663 163 -99 0
-663 -164 0
-663 -165 101 0
-663 165 -101 0
-663 -166 0
-663 -167 103 0
-663 167 -103 0
-663 -168 0
-663 -169 105 0
-663 169 -105 0
-663 -170 0
-663 -171 107 0
-663 171 -107 0
-663 -172 0
-663 -173 109 0
-663 173 -109 0
-663 -174 0
-663 -175 111 0
-663 175 -111 0
-663 -176 0
-663 -177 113 0
-663 177 -113 0
-663 -178 0
-663 -179 115 0
-663 179 -115 0
-663 -180 0
-663 -181 117 0
-663 181 -117 0
-663 -182 0
-663 -183 119 0
-663 183 -119 0
-663 -184 0
-663 -185 121 0
-663 185 -121 0
-663 -186 0
-663 -187 123 0
-663 187 -123 0
-663 -188 0
-663 -189 125 0
-663 189 -125 0
-663 -190 0
-663 -191 127 0
-663 191 -127 0
-663 -192 0
-664 -161 -97 0
-664 161 97 0
-664 -162 0
-664 -163 -99 0
-664 163 99 0
-664 -164 0
-664 -165 -101 0
-664 165 101 0
-664 -166 0
-664 -167 -103 0
-664 167 103 0
-664 -168 0
-664 -169 -105 0
-664 169 105 0
-664 -170 0
-664 -171 -107 0
-664 171 107 0
-664 -172 0
-664 -173 -109 0
-664 173 109 0
-664 -174 0
-664 -175 -111 0
-664 175 111 0
-664 -176 0
-664 -177 -113 0
-664 177 113 0
-664 -178 0
-664 -179 -115 0
-664 179 115 0
-664 -180 0
-664 -181 -117 0
-664 181 117 0
-664 -182 0
-664 -183 -119 0
-664 183 119 0
-664 -184 0
-664 -185 -121 0
-664 185 121 0
-664 -186 0
-664 -187 -123 0
-664 187 123 0
-664 -188 0
-664 -189 -125 0
-664 189 125 0
-664 -190 0
-664 -191 -127 0
-664 191 127 0
-664 -192 0
-665 -161 0
-665 -162 130 0
-665 162 -130 0
-665 -163 0
-665 -164 132 0
-665 164 -132 0
-665 -165 0
-665 -166 134 0
-665 166 -134 0
-665 -167 0
-665 -168 136 0
-665 168 -136 0
-665 -169 0
-665 -170 138 0
-665 170 -138 0
-665 -171 0
-665 -172 140 0
-665 172 -140 0
-665 -173 0
-665 -174 142 0
-665 174 -142 0
-665 -175 0
-665 -176 144 0
-665 176 -144 0
-665 -177 0
-665 -178 146 0
-665 178 -146 0
-665 -179 0
-665 -180 148 0
-665 180 -148 0
-665 -181 0
-665 -182 150 0
-665 182 -150 0
-665 -183 0
-665 -184 152 0
-665 184 -152 0
-665 -185 0
-665 -186 154 0
-665 186 -154 0
-665 -187 0
-665 -188 156 0
-665 188 -156 0
-665 -189 0
-665 -190 158 0
-665 190 -158 0
-665 -191 0
-665 -192 160 0
-665 192 -160 0
-666 -161 0
-666 -162 -130 0
-666 162 130 0
-666 -163 0
-666 -164 -132 0
-666 164 132 0
-666 -165 0
-666 -166 -134 0
-666 166 134 0
-666 -167 0
-666 -168 -136 0
-666 168 136 0
-666 -169 0
-666 -170 -138 0
-666 170 138 0
-666 -171 0
-666 -172 -140 0
-666 172 140 0
-666 -173 0
-666 -174 -142 0
-666 174 142 0
-666 -175 0
-666 -176 -144 0
-666 176 144 0
-666 -177 0
-666 -178 -146 0
-666 178 146 0
-666 -179 0
-666 -180 -148 0
-666 180 148 0
-666 -181 0
-666 -182 -150 0
-666 182 150 0
-666 -183 0
-666 -184 -152 0
-666 184 152 0
-666 -185 0
-666 -186 -154 0
-666 186 154 0
-666 -187 0
-666 -188 -156 0
-666 188 156 0
-666 -189 0
-666 -190 -158 0
-666 190 158 0
-666 -191 0
-666 -192 -160 0
-666 192 160 0
-667 -161 129 0
-667 161 -129 0
-667 -162 0
-667 -163 131 0
-667 163 -131 0
-667 -164 0
-667 -165 133 0
-667 165 -133 0
-667 -166 0
-667 -167 135 0
-667 167 -135 0
-667 -168 0
-667 -169 137 0
-667 169 -137 0
-667 -170 0
-667 -171 139 0
-667 171 -139 0
-667 -172 0
-667 -173 141 0
-667 173 -141 0
-667 -174 0
-667 -175 143 0
-667 175 -143 0
-667 -176 0
-667 -177 145 0
-667 177 -145 0
-667 -178 0
-667 -179 147 0
-667 179 -147 0
-667 -180 0
-667 -181 149 0
-667 181 -149 0
-667 -182 0
-667 -183 151 0
-667 183 -151 0
-667 -184 0
-667 -185 153 0
-667 185 -153 0
-667 -186 0
-667 -187 155 0
-667 187 -155 0
-667 -188 0
-667 -189 157 0
-667 189 -157 0
-667 -190 0
-667 -191 159 0
-667 191 -159 0
-667 -192 0
-668 -161 -129 0
-668 161 129 0
-668 -162 0
-668 -163 -131 0
-668 163 131 0
-668 -164 0
-668 -165 -133 0
-668 165 133 0
-668 -166 0
-668 -167 -135 0
-668 167 135 0
-668 -168 0
-668 -169 -137 0
-668 169 137 0
-668 -170 0
-668 -171 -139 0
-668 171 139 0
-668 -172 0
-668 -173 -141 0
-668 173 141 0
-668 -174 0
-668 -175 -143 0
-668 175 143 0
-668 -176 0
-668 -177 -145 0
-668 177 145 0
-668 -178 0
-668 -179 -147 0
-668 179 147 0
-668 -180 0
-668 -181 -149 0
-668 181 149 0
-668 -182 0
-668 -183 -151 0
-668 183 151 0
-668 -184 0
-668 -185 -153 0
-668 185 153 0
-668 -186 0
-668 -187 -155 0
-668 187 155 0
-668 -188 0
-668 -189 -157 0
-668 189 157 0
-668 -190 0
-668 -191 -159 0
-668 191 159 0
-668 -192 0
-669 -161 0
-669 -162 0
-669 -163 0
-669 -164 0
-669 -165 0
-669 -166 0
-669 167 0
-669 168 0
-669 -169 0
-669 -170 0
-669 -171 0
-669 -172 0
-669 -173 0
-669 -174 0
-669 175 0
-669 176 0
-669 -177 0
-669 -178 0
-669 -179 0
-669 -180 0
-669 -181 0
-669 -182 0
-669 183 0
-669 184 0
-669 -185 0
-669 -186 0
-669 -187 0
-669 -188 0
-669 -189 0
-669 -190 0
-669 191 0
-669 192 0
-670 -161 0
-670 -162 0
-670 163 0
-670 164 0
-670 -165 0
-670 -166 0
-670 -167 0
-670 -168 0
-670 -169 0
-670 -170 0
-670 171 0
-670 172 0
-670 -173 0
-670 -174 0
-670 -175 0
-670 -176 0
-670 -177 0
-670 -178 0
-670 179 0
-670 180 0
-670 -181 0
-670 -182 0
-670 -183 0
-670 -184 0
-670 -185 0
-670 -186 0
-670 187 0
-670 188 0
-670 -189 0
-670 -190 0
-670 -191 0
-670 -192 0
-671 -161 0
-671 -162 0
-671 -163 0
-671 -164 0
-671 165 0
-671 166 0
-671 -167 0
-671 -168 0
-671 -169 0
-671 -170 0
-671 -171 0
-671 -172 0
-671 173 0
-671 174 0
-671 -175 0
-671 -176 0
-671 -177 0
-671 -178 0
-671 -179 0
-671 -180 0
-671 181 0
-671 182 0
-671 -183 0
-671 -184 0
-671 -185 0
-671 -186 0
-671 -187 0
-671 -188 0
-671 189 0
-671 190 0
-671 -191 0
-671 -192 0
-672 161 0
-672 162 0
-672 -163 0
-672 -164 0
-672 -165 0
-672 -166 0
-672 -167 0
-672 -168 0
-672 169 0
-672 170 0
-672 -171 0
-672 -172 0
-672 -173 0
-672 -174 0
-672 -175 0
-672 -176 0
-672 177 0
-672 178 0
-672 -179 0
-672 -180 0
-672 -181 0
-672 -182 0
-672 -183 0
-672 -184 0
-672 185 0
-672 186 0
-672 -187 0
-672 -188 0
-672 -189 0
-672 -190 0
-672 -191 0
-672 -192 0
-673 -161 0
-673 -162 0
-673 -163 0
-673 -164 0
-673 -165 0
-673 -166 0
-673 -167 0
-673 -168 0
-673 -169 0
-673 -170 0
-673 171 0
-673 172 0
-673 -173 0
-673 -174 0
-673 175 0
-673 176 0
-673 -177 0
-673 -178 0
-673 -179 0
-673 -180 0
-673 -181 0
-673 -182 0
-673 -183 0
-673 -184 0
-673 -185 0
-673 -186 0
-673 187 0
-673 188 0
-673 -189 0
-673 -190 0
-673 191 0
-673 192 0
-674 -161 0
-674 -162 0
-674 163 0
-674 164 0
-674 -165 0
-674 -166 0
-674 167 0
-674 168 0
-674 -169 0
-674 -170 0
-674 -171 0
-674 -172 0
-674 -173 0
-674 -174 0
-674 -175 0
-674 -176 0
-674 -177 0
-674 -178 0
-674 179 0
-674 180 0
-674 -181 0
-674 -182 0
-674 183 0
-674 184 0
-674 -185 0
-674 -186 0
-674 -187 0
-674 -188 0
-674 -189 0
-674 -190 0
-674 -191 0
-674 -192 0
-675 -161 0
-675 -162 0
-675 -163 0
-675 -164 0
-675 -165 0
-675 -166 0
-675 -167 0
-675 -168 0
-675 169 0
-675 170 0
-675 -171 0
-675 -172 0
-675 173 0
-675 174 0
-675 -175 0
-675 -176 0
-675 -177 0
-675 -178 0
-675 -179 0
-675 -180 0
-675 -181 0
-675 -182 0
-675 -183 0
-675 -184 0
-675 185 0
-675 186 0
-675 -187 0
-675 -188 0
-675 189 0
-675 190 0
-675 -191 0
-675 -192 0
-676 161 0
-676 162 0
-676 -163 0
-676 -164 0
-676 165 0
-676 166 0
-676 -167 0
-676 -168 0
-676 -169 0
-676 -170 0
-676 -171 0
-676 -172 0
-676 -173 0
-676 -174 0
-676 -175 0
-676 -176 0
-676 177 0
-676 178 0
-676 -179 0
-676 -180 0
-676 181 0
-676 182 0
-676 -183 0
-676 -184 0
-676 -185 0
-676 -186 0
-676 -187 0
-676 -188 0
-676 -189 0
-676 -190 0
-676 -191 0
-676 -192 0
-677 -161 0
-677 -162 0
-677 -163 0
-677 -164 0
-677 -165 0
-677 -166 0
-677 -167 0
-677 -168 0
-677 -169 0
-677 -170 0
-677 -171 0
-677 -172 0
-677 -173 0
-677 -174 0
-677 -175 0
-677 -176 0
-677 -177 0
-677 -178 0
-677 179 0
-677 180 0
-677 -181 0
-677 -182 0
-677 183 0
-677 184 0
-677 -185 0
-677 -186 0
-677 187 0
-677 188 0
-677 -189 0
-677 -190 0
-677 191 0
-677 192 0
-678 -161 0
-678 -162 0
-678 163 0
-678 164 0
-678 -165 0
-678 -166 0
-678 167 0
-678 168 0
-678 -169 0
-678 -170 0
-678 171 0
-678 172 0
-678 -173 0
-678 -174 0
-678 175 0
-678 176 0
-678 -177 0
-678 -178 0
-678 -179 0
-678 -180 0
-678 -181 0
-678 -182 0
-678 -183 0
-678 -184 0
-678 -185 0
-678 -186 0
-678 -187 0
-678 -188 0
-678 -189 0
-678 -190 0
-678 -191 0
-678 -192 0
-679 -161 0
-679 -162 0
-679 -163 0
-679 -164 0
-679 -165 0
-679 -166 0
-679 -167 0
-679 -168 0
-679 -169 0
-679 -170 0
-679 -171 0
-679 -172 0
-679 -173 0
-679 -174 0
-679 -175 0
-679 -176 0
-679 177 0
-679 178 0
-679 -179 0
-679 -180 0
-679 181 0
-679 182 0
-679 -183 0
-679 -184 0
-679 185 0
-679 186 0
-679 -187 0
-679 -188 0
-679 189 0
-679 190 0
-679 -191 0
-679 -192 0
-680 161 0
-680 162 0
-680 -163 0
-680 -164 0
-680 165 0
-680 166 0
-680 -167 0
-680 -168 0
-680 169 0
-680 170 0
-680 -171 0
-680 -172 0
-680 173 0
-680 174 0
-680 -175 0
-680 -176 0
-680 -177 0
-680 -178 0
-680 -179 0
-680 -180 0
-680 -181 0
-680 -182 0
-680 -183 0
-680 -184 0
-680 -185 0
-680 -186 0
-680 -187 0
-680 -188 0
-680 -189 0
-680 -190 0
-680 -191 0
-680 -192 0
-681 -161 0
-681 -162 0
-681 -163 3 0
-681 163 -3 0
-681 -164 4 0
-681 164 -4 0
-681 -165 0
-681 -166 0
-681 -167 7 0
-681 167 -7 0
-681 -168 8 0
-681 168 -8 0
-681 -169 0
-681 -170 0
-681 -171 11 0
-681 171 -11 0
-681 -172 12 0
-681 172 -12 0
-681 -173 0
-681 -174 0
-681 -175 15 0
-681 175 -15 0
-681 -176 16 0
-681 176 -16 0
-681 -177 0
-681 -178 0
-681 -179 19 0
-681 179 -19 0
-681 -180 20 0
-681 180 -20 0
-681 -181 0
-681 -182 0
-681 -183 23 0
-681 183 -23 0
-681 -184 24 0
-681 184 -24 0
-681 -185 0
-681 -186 0
-681 -187 27 0
-681 187 -27 0
-681 -188 28 0
-681 188 -28 0
-681 -189 0
-681 -190 0
-681 -191 31 0
-681 191 -31 0
-681 -192 32 0
-681 192 -32 0
-682 -161 0
-682 -162 0
-682 -163 -3 0
-682 163 3 0
-682 -164 -4 0
-682 164 4 0
-682 -165 0
-682 -166 0
-682 -167 -7 0
-682 167 7 0
-682 -168 -8 0
-682 168 8 0
-682 -169 0
-682 -170 0
-682 -171 -11 0
-682 171 11 0
-682 -172 -12 0
-682 172 12 0
-682 -173 0
-682 -174 0
-682 -175 -15 0
-682 175 15 0
-682 -176 -16 0
-682 176 16 0
-682 -177 0
-682 -178 0
-682 -179 -19 0
-682 179 19 0
-682 -180 -20 0
-682 180 20 0
-682 -181 0
-682 -182 0
-682 -183 -23 0
-682 183 23 0
-682 -184 -24 0
-682 184 24 0
-682 -185 0
-682 -186 0
-682 -187 -27 0
-682 187 27 0
-682 -188 -28 0
-682 188 28 0
-682 -189 0
-682 -190 0
-682 -191 -31 0
-682 191 31 0
-682 -192 -32 0
-682 192 32 0
-683 -161 1 0
-683 161 -1 0
-683 -162 2 0
-683 162 -2 0
-683 -163 0
-683 -164 0
-683 -165 5 0
-683 165 -5 0
-683 -166 6 0
-683 166 -6 0
-683 -167 0
-683 -168 0
-683 -169 9 0
-683 169 -9 0
-683 -170 10 0
-683 170 -10 0
-683 -171 0
-683 -172 0
-683 -173 13 0
-683 173 -13 0
-683 -174 14 0
-683 174 -14 0
-683 -175 0
-683 -176 0
-683 -177 17 0
-683 177 -17 0
-683 -178 18 0
-683 178 -18 0
-683 -179 0
-683 -180 0
-683 -181 21 0
-683 181 -21 0
-683 -182 22 0
-683 182 -22 0
-683 -183 0
-683 -184 0
-683 -185 25 0
-683 185 -25 0
-683 -186 26 0
-683 186 -26 0
-683 -187 0
-683 -188 0
-683 -189 29 0
-683 189 -29 0
-683 -190 30 0
-683 190 -30 0
-683 -191 0
-683 -192 0
-684 -161 -1 0
-684 161 1 0
-684 -162 -2 0
-684 162 2 0
-684 -163 0
-684 -164 0
-684 -165 -5 0
-684 165 5 0
-684 -166 -6 0
-684 166 6 0
-684 -167 0
-684 -168 0
-684 -169 -9 0
-684 169 9 0
-684 -170 -10 0
-684 170 10 0
-684 -171 0
-684 -172 0
-684 -173 -13 0
-684 173 13 0
-684 -174 -14 0
-684 174 14 0
-684 -175 0
-684 -176 0
-684 -177 -17 0
-684 177 17 0
-684 -178 -18 0
-684 178 18 0
-684 -179 0
-684 -180 0
-684 -181 -21 0
-684 181 21 0
-684 -182 -22 0
-684 182 22 0
-684 -183 0
-684 -184 0
-684 -185 -25 0
-684 185 25 0
-684 -186 -26 0
-684 186 26 0
-684 -187 0
-684 -188 0
-684 -189 -29 0
-684 189 29 0
-684 -190 -30 0
-684 190 30 0
-684 -191 0
-684 -192 0
-685 -161 0
-685 -162 0
-685 -163 35 0
-685 163 -35 0
-685 -164 36 0
-685 164 -36 0
-685 -165 0
-685 -166 0
-685 -167 39 0
-685 167 -39 0
-685 -168 40 0
-685 168 -40 0
-685 -169 0
-685 -170 0
-685 -171 43 0
-685 171 -43 0
-685 -172 44 0
-685 172 -44 0
-685 -173 0
-685 -174 0
-685 -175 47 0
-685 175 -47 0
-685 -176 48 0
-685 176 -48 0
-685 -177 0
-685 -178 0
-685 -179 51 0
-685 179 -51 0
-685 -180 52 0
-685 180 -52 0
-685 -181 0
-685 -182 0
-685 -183 55 0
-685 183 -55 0
-685 -184 56 0
-685 184 -56 0
-685 -185 0
-685 -186 0
-685 -187 59 0
-685 187 -59 0
-685 -188 60 0
-685 188 -60 0
-685 -189 0
-685 -190 0
-685 -191 63 0
-685 191 -63 0
-685 -192 64 0
-685 192 -64 0
-686 -161 0
-686 -162 0
-686 -163 -35 0
-686 163 35 0
-686 -164 -36 0
-686 164 36 0
-686 -165 0
-686 -166 0
-686 -167 -39 0
-686 167 39 0
-686 -168 -40 0
-686 168 40 0
-686 -169 0
-686 -170 0
-686 -171 -43 0
-686 171 43 0
-686 -172 -44 0
-686 172 44 0
-686 -173 0
-686 -174 0
-686 -175 -47 0
-686 175 47 0
-686 -176 -48 0
-686 176 48 0
-686 -177 0
-686 -178 0
-686 -179 -51 0
-686 179 51 0
-686 -180 -52 0
-686 180 52 0
-686 -181 0
-686 -182 0
-686 -183 -55 0
-686 183 55 0
-686 -184 -56 0
-686 184 56 0
-686 -185 0
-686 -186 0
-686 -187 -59 0
-686 187 59 0
-686 -188 -60 0
-686 188 60 0
-686 -189 0
-686 -190 0
-686 -191 -63 0
-686 191 63 0
-686 -192 -64 0
-686 192 64 0
-687 -161 33 0
-687 161 -33 0
-687 -162 34 0
-687 162 -34 0
-687 -163 0
-687 -164 0
-687 -165 37 0
-687 165 -37 0
-687 -166 38 0
-687 166 -38 0
-687 -167 0
-687 -168 0
-687 -169 41 0
-687 169 -41 0
-687 -170 42 0
-687 170 -42 0
-687 -171 0
-687 -172 0
-687 -173 45 0
-687 173 -45 0
-687 -174 46 0
-687 174 -46 0
-687 -175 0
-687 -176 0
-687 -177 49 0
-687 177 -49 0
-687 -178 50 0
-687 178 -50 0
-687 -179 0
-687 -180 0
-687 -181 53 0
-687 181 -53 0
-687 -182 54 0
-687 182 -54 0
-687 -183 0
-687 -184 0
-687 -185 57 0
-687 185 -57 0
-687 -186 58 0
-687 186 -58 0
-687 -187 0
-687 -188 0
-687 -189 61 0
-687 189 -61 0
-687 -190 62 0
-687 190 -62 0
-687 -191 0
-687 -192 0
-688 -161 -33 0
-688 161 33 0
-688 -162 -34 0
-688 162 34 0
-688 -163 0
-688 -164 0
-688 -165 -37 0
-688 165 37 0
-688 -166 -38 0
-688 166 38 0
-688 -167 0
-688 -168 0
-688 -169 -41 0
-688 169 41 0
-688 -170 -42 0
-688 170 42 0
-688 -171 0
-688 -172 0
-688 -173 -45 0
-688 173 45 0
-688 -174 -46 0
-688 174 46 0
-688 -175 0
-688 -176 0
-688 -177 -49 0
-688 177 49 0
-688 -178 -50 0
-688 178 50 0
-688 -179 0
-688 -180 0
-688 -181 -53 0
-688 181 53 0
-688 -182 -54 0
-688 182 54 0
-688 -183 0
-688 -184 0
-688 -185 -57 0
-688 185 57 0
-688 -186 -58 0
-688 186 58 0
-688 -187 0
-688 -188 0
-688 -189 -61 0
-688 189 61 0
-688 -190 -62 0
-688 190 62 0
-688 -191 0
-688 -192 0
-689 -161 0
-689 -162 0
-689 -163 67 0
-689 163 -67 0
-689 -164 68 0
-689 164 -68 0
-689 -165 0
-689 -166 0
-689 -167 71 0
-689 167 -71 0
-689 -168 72 0
-689 168 -72 0
-689 -169 0
-689 -170 0
-689 -171 75 0
-689 171 -75 0
-689 -172 76 0
-689 172 -76 0
-689 -173 0
-689 -174 0
-689 -175 79 0
-689 175 -79 0
-689 -176 80 0
-689 176 -80 0
-689 -177 0
-689 -178 0
-689 -179 83 0
-689 179 -83 0
-689 -180 84 0
-689 180 -84 0
-689 -181 0
-689 -182 0
-689 -183 87 0
-689 183 -87 0
-689 -184 88 0
-689 184 -88 0
-689 -185 0
-689 -186 0
-689 -187 91 0
-689 187 -91 0
-689 -188 92 0
-689 188 -92 0
-689 -189 0
-689 -190 0
-689 -191 95 0
-689 191 -95 0
-689 -192 96 0
-689 192 -96 0
-690 -161 0
-690 -162 0
-690 -163 -67 0
-690 163 67 0
-690 -164 -68 0
-690 164 68 0
-690 -165 0
-690 -166 0
-690 -167 -71 0
-690 167 71 0
-690 -168 -72 0
-690 168 72 0
-690 -169 0
-690 -170 0
-690 -171 -75 0
-690 171 75 0
-690 -172 -76 0
-690 172 76 0
-690 -173 0
-690 -174 0
-690 -175 -79 0
-690 175 79 0
-690 -176 -80 0
-690 176 80 0
-690 -177 0
-690 -178 0
-690 -179 -83 0
-690 179 83 0
-690 -180 -84 0
-690 180 84 0
-690 -181 0
-690 -182 0
-690 -183 -87 0
-690 183 87 0
-690 -184 -88 0
-690 184 88 0
-690 -185 0
-690 -186 0
-690 -187 -91 0
-690 187 91 0
-690 -188 -92 0
-690 188 92 0
-690 -189 0
-690 -190 0
-690 -191 -95 0
-690 191 95 0
-690 -192 -96 0
-690 192 96 0
-691 -161 65 0
-691 161 -65 0
-691 -162 66 0
-691 162 -66 0
-691 -163 0
-691 -164 0
-691 -165 69 0
-691 165 -69 0
-691 -166 70 0
-691 166 -70 0
-691 -167 0
-691 -168 0
-691 -169 73 0
-691 169 -73 0
-691 -170 74 0
-691 170 -74 0
-691 -171 0
-691 -172 0
-691 -173 77 0
-691 173 -77 0
-691 -174 78 0
-691 174 -78 0
-691 -175 0
-691 -176 0
-691 -177 81 0
-691 177 -81 0
-691 -178 82 0
-691 178 -82 0
-691 -179 0
-691 -180 0
-691 -181 85 0
-691 181 -85 0
-691 -182 86 0
-691 182 -86 0
-691 -183 0
-691 -184 0
-691 -185 89 0
-691 185 -89 0
-691 -186 90 0
-691 186 -90 0
-691 -187 0
-691 -188 0
-691 -189 93 0
-691 189 -93 0
-691 -190 94 0
-691 190 -94 0
-691 -191 0
-691 -192 0
-692 -161 -65 0
-692 161 65 0
-692 -162 -66 0
-692 162 66 0
-692 -163 0
-692 -164 0
-692 -165 -69 0
-692 165 69 0
-692 -166 -70 0
-692 166 70 0
-692 -167 0
-692 -168 0
-692 -169 -73 0
-692 169 73 0
-692 -170 -74 0
-692 170 74 0
-692 -171 0
-692 -172 0
-692 -173 -77 0
-692 173 77 0
-692 -174 -78 0
-692 174 78 0
-692 -175 0
-692 -176 0
-692 -177 -81 0
-692 177 81 0
-692 -178 -82 0
-692 178 82 0
-692 -179 0
-692 -180 0
-692 -181 -85 0
-692 181 85 0
-692 -182 -86 0
-692 182 86 0
-692 -183 0
-692 -184 0
-692 -185 -89 0
-692 185 89 0
-692 -186 -90 0
-692 186 90 0
-692 -187 0
-692 -188 0
-692 -189 -93 0
-692 189 93 0
-692 -190 -94 0
-692 190 94 0
-692 -191 0
-692 -192 0
-693 -161 0
-693 -162 0
-693 -163 99 0
-693 163 -99 0
-693 -164 100 0
-693 164 -100 0
-693 -165 0
-693 -166 0
-693 -167 103 0
-693 167 -103 0
-693 -168 104 0
-693 168 -104 0
-693 -169 0
-693 -170 0
-693 -171 107 0
-693 171 -107 0
-693 -172 108 0
-693 172 -108 0
-693 -173 0
-693 -174 0
-693 -175 111 0
-693 175 -111 0
-693 -176 112 0
-693 176 -112 0
-693 -177 0
-693 -178 0
-693 -179 115 0
-693 179 -115 0
-693 -180 116 0
-693 180 -116 0
-693 -181 0
-693 -182 0
-693 -183 119 0
-693 183 -119 0
-693 -184 120 0
-693 184 -120 0
-693 -185 0
-693 -186 0
-693 -187 123 0
-693 187 -123 0
-693 -188 124 0
-693 188 -124 0
-693 -189 0
-693 -190 0
-693 -191 127 0
-693 191 -127 0
-693 -192 128 0
-693 192 -128 0
-694 -161 0
-694 -162 0
-694 -163 -99 0
-694 163 99 0
-694 -164 -100 0
-694 164 100 0
-694 -165 0
-694 -166 0
-694 -167 -103 0
-694 167 103 0
-694 -168 -104 0
-694 168 104 0
-694 -169 0
-694 -170 0
-694 -171 -107 0
-694 171 107 0
-694 -172 -108 0
-694 172 108 0
-694 -173 0
-694 -174 0
-694 -175 -111 0
-694 175 111 0
-694 -176 -112 0
-694 176 112 0
-694 -177 0
-694 -178 0
-694 -179 -115 0
-694 179 115 0
-694 -180 -116 0
-694 180 116 0
-694 -181 0
-694 -182 0
-694 -183 -119 0
-694 183 119 0
-694 -184 -120 0
-694 184 120 0
-694 -185 0
-694 -186 0
-694 -187 -123 0
-694 187 123 0
-694 -188 -124 0
-694 188 124 0
-694 -189 0
-694 -190 0
-694 -191 -127 0
-694 191 127 0
-694 -192 -128 0
-694 192 128 0
-695 -161 97 0
-695 161 -97 0
-695 -162 98 0
-695 162 -98 0
-695 -163 0
-695 -164 0
-695 -165 101 0
-695 165 -101 0
-695 -166 102 0
-695 166 -102 0
-695 -167 0
-695 -168 0
-695 -169 105 0
-695 169 -105 0
-695 -170 106 0
-695 170 -106 0
-695 -171 0
-695 -172 0
-695 -173 109 0
-695 173 -109 0
-695 -174 110 0
-695 174 -110 0
-695 -175 0
-695 -176 0
-695 -177 113 0
-695 177 -113 0
-695 -178 114 0
-695 178 -114 0
-695 -179 0
-695 -180 0
-695 -181 117 0
-695 181 -117 0
-695 -182 118 0
-695 182 -118 0
-695 -183 0
-695 -184 0
-695 -185 121 0
-695 185 -121 0
-695 -186 122 0
-695 186 -122 0
-695 -187 0
-695 -188 0
-695 -189 125 0
-695 189 -125 0
-695 -190 126 0
-695 190 -126 0
-695 -191 0
-695 -192 0
-696 -161 -97 0
-696 161 97 0
-696 -162 -98 0
-696 162 98 0
-696 -163 0
-696 -164 0
-696 -165 -101 0
-696 165 101 0
-696 -166 -102 0
-696 166 102 0
-696 -167 0
-696 -168 0
-696 -169 -105 0
-696 169 105 0
-696 -170 -106 0
-696 170 106 0
-696 -171 0
-696 -172 0
-696 -173 -109 0
-696 173 109 0
-696 -174 -110 0
-696 174 110 0
-696 -175 0
-696 -176 0
-696 -177 -113 0
-696 177 113 0
-696 -178 -114 0
-696 178 114 0
-696 -179 0
-696 -180 0
-696 -181 -117 0
-696 181 117 0
-696 -182 -118 0
-696 182 118 0
-696 -183 0
-696 -184 0
-696 -185 -121 0
-696 185 121 0
-696 -186 -122 0
-696 186 122 0
-696 -187 0
-696 -188 0
-696 -189 -125 0
-696 189 125 0
-696 -190 -126 0
-696 190 126 0
-696 -191 0
-696 -192 0
-697 -161 0
-697 -162 0
-697 -163 131 0
-697 163 -131 0
-697 -164 132 0
-697 164 -132 0
-697 -165 0
-697 -166 0
-697 -167 135 0
-697 167 -135 0
-697 -168 136 0
-697 168 -136 0
-697 -169 0
-697 -170 0
-697 -171 139 0
-697 171 -139 0
-697 -172 140 0
-697 172 -140 0
-697 -173 0
-697 -174 0
-697 -175 143 0
-697 175 -143 0
-697 -176 144 0
-697 176 -144 0
-697 -177 0
-697 -178 0
-697 -179 147 0
-697 179 -147 0
-697 -180 148 0
-697 180 -148 0
-697 -181 0
-697 -182 0
-697 -183 151 0
-697 183 -151 0
-697 -184 152 0
-697 184 -152 0
-697 -185 0
-697 -186 0
-697 -187 155 0
-697 187 -155 0
-697 -188 156 0
-697 188 -156 0
-697 -189 0
-697 -190 0
-697 -191 159 0
-697 191 -159 0
-697 -192 160 0
-697 192 -160 0
-698 -161 0
-698 -162 0
-698 -163 -131 0
-698 163 131 0
-698 -164 -132 0
-698 164 132 0
-698 -165 0
-698 -166 0
-698 -167 -135 0
-698 167 135 0
-698 -168 -136 0
-698 168 136 0
-698 -169 0
-698 -170 0
-698 -171 -139 0
-698 171 139 0
-698 -172 -140 0
-698 172 140 0
-698 -173 0
-698 -174 0
-698 -175 -143 0
-698 175 143 0
-698 -176 -144 0
-698 176 144 0
-698 -177 0
-698 -178 0
-698 -179 -147 0
-698 179 147 0
-698 -180 -148 0
-698 180 148 0
-698 -181 0
-698 -182 0
-698 -183 -151 0
-698 183 151 0
-698 -184 -152 0
-698 184 152 0
-698 -185 0
-698 -186 0
-698 -187 -155 0
-698 187 155 0
-698 -188 -156 0
-698 188 156 0
-698 -189 0
-698 -190 0
-698 -191 -159 0
-698 191 159 0
-698 -192 -160 0
-698 192 160 0
-699 -161 129 0
-699 161 -129 0
-699 -162 130 0
-699 162 -130 0
-699 -163 0
-699 -164 0
-699 -165 133 0
-699 165 -133 0
-699 -166 134 0
-699 166 -134 0
-699 -167 0
-699 -168 0
-699 -169 137 0
-699 169 -137 0
-699 -170 138 0
-699 170 -138 0
-699 -171 0
-699 -172 0
-699 -173 141 0
-699 173 -141 0
-699 -174 142 0
-699 174 -142 0
-699 -175 0
-699 -176 0
-699 -177 145 0
-699 177 -145 0
-699 -178 146 0
-699 178 -146 0
-699 -179 0
-699 -180 0
-699 -181 149 0
-699 181 -149 0
-699 -182 150 0
-699 182 -150 0
-699 -183 0
-699 -184 0
-699 -185 153 0
-699 185 -153 0
-699 -186 154 0
-699 186 -154 0
-699 -187 0
-699 -188 0
-699 -189 157 0
-699 189 -157 0
-699 -190 158 0
-699 190 -158 0
-699 -191 0
-699 -192 0
-700 -161 -129 0
-700 161 129 0
-700 -162 -130 0
-700 162 130 0
-700 -163 0
-700 -164 0
-700 -165 -133 0
-700 165 133 0
-700 -166 -134 0
-700 166 134 0
-700 -167 0
-700 -168 0
-700 -169 -137 0
-700 169 137 0
-700 -170 -138 0
-700 170 138 0
-700 -171 0
-700 -172 0
-700 -173 -141 0
-700 173 141 0
-700 -174 -142 0
-700 174 142 0
-700 -175 0
-700 -176 0
-700 -177 -145 0
-700 177 145 0
-700 -178 -146 0
-700 178 146 0
-700 -179 0
-700 -180 0
-700 -181 -149 0
-700 181 149 0
-700 -182 -150 0
-700 182 150 0
-700 -183 0
-700 -184 0
-700 -185 -153 0
-700 185 153 0
-700 -186 -154 0
-700 186 154 0
-700 -187 0
-700 -188 0
-700 -189 -157 0
-700 189 157 0
-700 -190 -158 0
-700 190 158 0
-700 -191 0
-700 -192 0
-701 -161 0
-701 -162 0
-701 -163 0
-701 -164 0
-701 -165 0
-701 -166 0
-701 -167 0
-701 -168 0
-701 -169 0
-701 -170 0
-701 -171 0
-701 -172 0
-701 173 0
-701 174 0
-701 175 0
-701 176 0
-701 -177 0
-701 -178 0
-701 -179 0
-701 -180 0
-701 -181 0
-701 -182 0
-701 -183 0
-701 -184 0
-701 -185 0
-701 -186 0
-701 -187 0
-701 -188 0
-701 189 0
-701 190 0
-701 191 0
-701 192 0
-702 -161 0
-702 -162 0
-702 -163 0
-702 -164 0
-702 165 0
-702 166 0
-702 167 0
-702 168 0
-702 -169 0
-702 -170 0
-702 -171 0
-702 -172 0
-702 -173 0
-702 -174 0
-702 -175 0
-702 -176 0
-702 -177 0
-702 -178 0
-702 -179 0
-702 -180 0
-702 181 0
-702 182 0
-702 183 0
-702 184 0
-702 -185 0
-702 -186 0
-702 -187 0
-702 -188 0
-702 -189 0
-702 -190 0
-702 -191 0
-702 -192 0
-703 -161 0
-703 -162 0
-703 -163 0
-703 -164 0
-703 -165 0
-703 -166 0
-703 -167 0
-703 -168 0
-703 169 0
-703 170 0
-703 171 0
-703 172 0
-703 -173 0
-703 -174 0
-703 -175 0
-703 -176 0
-703 -177 0
-703 -178 0
-703 -179 0
-703 -180 0
-703 -181 0
-703 -182 0
-703 -183 0
-703 -184 0
-703 185 0
-703 186 0
-703 187 0
-703 188 0
-703 -189 0
-703 -190 0
-703 -191 0
-703 -192 0
-704 161 0
-704 162 0
-704 163 0
-704 164 0
-704 -165 0
-704 -166 0
-704 -167 0
-704 -168 0
-704 -169 0
-704 -170 0
-704 -171 0
-704 -172 0
-704 -173 0
-704 -174 0
-704 -175 0
-704 -176 0
-704 177 0
-704 178 0
-704 179 0
-704 180 0
-704 -181 0
-704 -182 0
-704 -183 0
-704 -184 0
-704 -185 0
-704 -186 0
-704 -187 0
-704 -188 0
-704 -189 0
-704 -190 0
-704 -191 0
-704 -192 0
-705 -161 0
-705 -162 0
-705 -163 0
-705 -164 0
-705 -165 0
-705 -166 0
-705 -167 0
-705 -168 0
-705 -169 0
-705 -170 0
-705 -171 0
-705 -172 0
-705 -173 0
-705 -174 0
-705 -175 0
-705 -176 0
-705 -177 0
-705 -178 0
-705 -179 0
-705 -180 0
-705 181 0
-705 182 0
-705 183 0
-705 184 0
-705 -185 0
-705 -186 0
-705 -187 0
-705 -188 0
-705 189 0
-705 190 0
-705 191 0
-705 192 0
-706 -161 0
-706 -162 0
-706 -163 0
-706 -164 0
-706 165 0
-706 166 0
-706 167 0
-706 168 0
-706 -169 0
-706 -170 0
-706 -171 0
-706 -172 0
-706 173 0
-706 174 0
-706 175 0
-706 176 0
-706 -177 0
-706 -178 0
-706 -179 0
-706 -180 0
-706 -181 0
-706 -182 0
-706 -183 0
-706 -184 0
-706 -185 0
-706 -186 0
-706 -187 0
-706 -188 0
-706 -189 0
-706 -190 0
-706 -191 0
-706 -192 0
-707 -161 0
-707 -162 0
-707 -163 0
-707 -164 0
-707 -165 0
-707 -166 0
-707 -167 0
-707 -168 0
-707 -169 0
-707 -170 0
-707 -171 0
-707 -172 0
-707 -173 0
-707 -174 0
-707 -175 0
-707 -176 0
-707 177 0
-707 178 0
-707 179 0
-707 180 0
-707 -181 0
-707 -182 0
-707 -183 0
-707 -184 0
-707 185 0
-707 186 0
-707 187 0
-707 188 0
-707 -189 0
-707 -190 0
-707 -191 0
-707 -192 0
-708 161 0
-708 162 0
-708 163 0
-708 164 0
-708 -165 0
-708 -166 0
-708 -167 0
-708 -168 0
-708 169 0
-708 170 0
-708 171 0
-708 172 0
-708 -173 0
-708 -174 0
-708 -175 0
-708 -176 0
-708 -177 0
-708 -178 0
-708 -179 0
-708 -180 0
-708 -181 0
-708 -182 0
-708 -183 0
-708 -184 0
-708 -185 0
-708 -186 0
-708 -187 0
-708 -188 0
-708 -189 0
-708 -190 0
-708 -191 0
-708 -192 0
-709 -161 0
-709 -162 0
-709 -163 0
-709 -164 0
-709 -165 5 0
-709 165 -5 0
-709 -166 6 0
-709 166 -6 0
-709 -167 7 0
-709 167 -7 0
-709 -168 8 0
-709 168 -8 0
-709 -169 0
-709 -170 0
-709 -171 0
-709 -172 0
-709 -173 13 0
-709 173 -13 0
-709 -174 14 0
-709 174 -14 0
-709 -175 15 0
-709 175 -15 0
-709 -176 16 0
-709 176 -16 0
-709 -177 0
-709 -178 0
-709 -179 0
-709 -180 0
-709 -181 21 0
-709 181 -21 0
-709 -182 22 0
-709 182 -22 0
-709 -183 23 0
-709 183 -23 0
-709 -184 24 0
-709 184 -24 0
-709 -185 0
-709 -186 0
-709 -187 0
-709 -188 0
-709 -189 29 0
-709 189 -29 0
-709 -190 30 0
-709 190 -30 0
-709 -191 31 0
-709 191 -31 0
-709 -192 32 0
-709 192 -32 0
-710 -161 0
-710 -162 0
-710 -163 0
-710 -164 0
-710 -165 -5 0
-710 165 5 0
-710 -166 -6 0
-710 166 6 0
-710 -167 -7 0
-710 167 7 0
-710 -168 -8 0
-710 168 8 0
-710 -169 0
-710 -170 0
-710 -171 0
-710 -172 0
-710 -173 -13 0
-710 173 13 0
-710 -174 -14 0
-710 174 14 0
-710 -175 -15 0
-710 175 15 0
-710 -176 -16 0
-710 176 16 0
-710 -177 0
-710 -178 0
-710 -179 0
-710 -180 0
-710 -181 -21 0
-710 181 21 0
-710 -182 -22 0
-710 182 22 0
-710 -183 -23 0
-710 183 23 0
-710 -184 -24 0
-710 184 24 0
-710 -185 0
-710 -186 0
-710 -187 0
-710 -188 0
-710 -189 -29 0
-710 189 29 0
-710 -190 -30 0
-710 190 30 0
-710 -191 -31 0
-710 191 31 0
-710 -192 -32 0
-710 192 32 0
-711 -161 1 0
-711 161 -1 0
-711 -162 2 0
-711 162 -2 0
-711 -163 3 0
-711 163 -3 0
-711 -164 4 0
-711 164 -4 0
-711 -165 0
-711 -166 0
-711 -167 0
-711 -168 0
-711 -169 9 0
-711 169 -9 0
-711 -170 10 0
-711 170 -10 0
-711 -171 11 0
-711 171 -11 0
-711 -172 12 0
-711 172 -12 0
-711 -173 0
-711 -174 0
-711 -175 0
-711 -176 0
-711 -177 17 0
-711 177 -17 0
-711 -178 18 0
-711 178 -18 0
-711 -179 19 0
-711 179 -19 0
-711 -180 20 0
-711 180 -20 0
-711 -181 0
-711 -182 0
-711 -183 0
-711 -184 0
-711 -185 25 0
-711 185 -25 0
-711 -186 26 0
-711 186 -26 0
-711 -187 27 0
-711 187 -27 0
-711 -188 28 0
-711 188 -28 0
-711 -189 0
-711 -190 0
-711 -191 0
-711 -192 0
-712 -161 -1 0
-712 161 1 0
-712 -162 -2 0
-712 162 2 0
-712 -163 -3 0
-712 163 3 0
-712 -164 -4 0
-712 164 4 0
-712 -165 0
-712 -166 0
-712 -167 0
-712 -168 0
-712 -169 -9 0
-712 169 9 0
-712 -170 -10 0
-712 170 10 0
-712 -171 -11 0
-712 171 11 0
-712 -172 -12 0
-712 172 12 0
-712 -173 0
-712 -174 0
-712 -175 0
-712 -176 0
-712 -177 -17 0
-712 177 17 0
-712 -178 -18 0
-712 178 18 0
-712 -179 -19 0
-712 179 19 0
-712 -180 -20 0
-712 180 20 0
-712 -181 0
-712 -182 0
-712 -183 0
-712 -184 0
-712 -185 -25 0
-712 185 25 0
-712 -186 -26 0
-712 186 26 0
-712 -187 -27 0
-712 187 27 0
-712 -188 -28 0
-712 188 28 0
-712 -189 0
-712 -190 0
-712 -191 0
-712 -192 0
-713 -161 0
-713 -162 0
-713 -163 0
-713 -164 0
-713 -165 37 0
-713 165 -37 0
-713 -166 38 0
-713 166 -38 0
-713 -167 39 0
-713 167 -39 0
-713 -168 40 0
-713 168 -40 0
-713 -169 0
-713 -170 0
-713 -171 0
-713 -172 0
-713 -173 45 0
-713 173 -45 0
-713 -174 46 0
-713 174 -46 0
-713 -175 47 0
-713 175 -47 0
-713 -176 48 0
-713 176 -48 0
-713 -177 0
-713 -178 0
-713 -179 0
-713 -180 0
-713 -181 53 0
-713 181 -53 0
-713 -182 54 0
-713 182 -54 0
-713 -183 55 0
-713 183 -55 0
-713 -184 56 0
-713 184 -56 0
-713 -185 0
-713 -186 0
-713 -187 0
-713 -188 0
-713 -189 61 0
-713 189 -61 0
-713 -190 62 0
-713 190 -62 0
-713 -191 63 0
-713 191 -63 0
-713 -192 64 0
-713 192 -64 0
-714 -161 0
-714 -162 0
-714 -163 0
-714 -164 0
-714 -165 -37 0
-714 165 37 0
-714 -166 -38 0
-714 166 38 0
-714 -167 -39 0
-714 167 39 0
-714 -168 -40 0
-714 168 40 0
-714 -169 0
-714 -170 0
-714 -171 0
-714 -172 0
-714 -173 -45 0
-714 173 45 0
-714 -174 -46 0
-714 174 46 0
-714 -175 -47 0
-714 175 47 0
-714 -176 -48 0
-714 176 48 0
-714 -177 0
-714 -178 0
-714 -179 0
-714 -180 0
-714 -181 -53 0
-714 181 53 0
-714 -182 -54 0
-714 182 54 0
-714 -183 -55 0
-714 183 55 0
-714 -184 -56 0
-714 184 56 0
-714 -185 0
-714 -186 0
-714 -187 0
-714 -188 0
-714 -189 -61 0
-714 189 61 0
-714 -190 -62 0
-714 190 62 0
-714 -191 -63 0
-714 191 63 0
-714 -192 -64 0
-714 192 64 0
-715 -161 33 0
-715 161 -33 0
-715 -162 34 0
-715 162 -34 0
-715 -163 35 0
-715 163 -35 0
-715 -164 36 0
-715 164 -36 0
-715 -165 0
-715 -166 0
-715 -167 0
-715 -168 0
-715 -169 41 0
-715 169 -41 0
-715 -170 42 0
-715 170 -42 0
-715 -171 43 0
-715 171 -43 0
-715 -172 44 0
-715 172 -44 0
-715 -173 0
-715 -174 0
-715 -175 0
-715 -176 0
-715 -177 49 0
-715 177 -49 0
-715 -178 50 0
-715 178 -50 0
-715 -179 51 0
-715 179 -51 0
-715 -180 52 0
-715 180 -52 0
-715 -181 0
-715 -182 0
-715 -183 0
-715 -184 0
-715 -185 57 0
-715 185 -57 0
-715 -186 58 0
-715 186 -58 0
-715 -187 59 0
-715 187 -59 0
-715 -188 60 0
-715 188 -60 0
-715 -189 0
-715 -190 0
-715 -191 0
-715 -192 0
-716 -161 -33 0
-716 161 33 0
-716 -162 -34 0
-716 162 34 0
-716 -163 -35 0
-716 163 35 0
-716 -164 -36 0
-716 164 36 0
-716 -165 0
-716 -166 0
-716 -167 0
-716 -168 0
-716 -169 -41 0
-716 169 41 0
-716 -170 -42 0
-716 170 42 0
-716 -171 -43 0
-716 171 43 0
-716 -172 -44 0
-716 172 44 0
-716 -173 0
-716 -174 0
-716 -175 0
-716 -176 0
-716 -177 -49 0
-716 177 49 0
-716 -178 -50 0
-716 178 50 0
-716 -179 -51 0
-716 179 51 0
-716 -180 -52 0
-716 180 52 0
-716 -181 0
-716 -182 0
-716 -183 0
-716 -184 0
-716 -185 -57 0
-716 185 57 0
-716 -186 -58 0
-716 186 58 0
-716 -187 -59 0
-716 187 59 0
-716 -188 -60 0
-716 188 60 0
-716 -189 0
-716 -190 0
-716 -191 0
-716 -192 0
-717 -161 0
-717 -162 0
-717 -163 0
-717 -164 0
-717 -165 69 0
-717 165 -69 0
-717 -166 70 0
-717 166 -70 0
-717 -167 71 0
-717 167 -71 0
-717 -168 72 0
-717 168 -72 0
-717 -169 0
-717 -170 0
-717 -171 0
-717 -172 0
-717 -173 77 0
-717 173 -77 0
-717 -174 78 0
-717 174 -78 0
-717 -175 79 0
-717 175 -79 0
-717 -176 80 0
-717 176 -80 0
-717 -177 0
-717 -178 0
-717 -179 0
-717 -180 0
-717 -181 85 0
-717 181 -85 0
-717 -182 86 0
-717 182 -86 0
-717 -183 87 0
-717 183 -87 0
-717 -184 88 0
-717 184 -88 0
-717 -185 0
-717 -186 0
-717 -187 0
-717 -188 0
-717 -189 93 0
-717 189 -93 0
-717 -190 94 0
-717 190 -94 0
-717 -191 95 0
-717 191 -95 0
-717 -192 96 0
-717 192 -96 0
-718 -161 0
-718 -162 0
-718 -163 0
-718 -164 0
-718 -165 -69 0
-718 165 69 0
-718 -166 -70 0
-718 166 70 0
-718 -167 -71 0
-718 167 71 0
-718 -168 -72 0
-718 168 72 0
-718 -169 0
-718 -170 0
-718 -171 0
-718 -172 0
-718 -173 -77 0
-718 173 77 0
-718 -174 -78 0
-718 174 78 0
-718 -175 -79 0
-718 175 79 0
-718 -176 -80 0
-718 176 80 0
-718 -177 0
-718 -178 0
-718 -179 0
-718 -180 0
-718 -181 -85 0
-718 181 85 0
-718 -182 -86 0
-718 182 86 0
-718 -183 -87 0
-718 183 87 0
-718 -184 -88 0
-718 184 88 0
-718 -185 0
-718 -186 0
-718 -187 0
-718 -188 0
-718 -189 -93 0
-718 189 93 0
-718 -190 -94 0
-718 190 94 0
-718 -191 -95 0
-718 191 95 0
-718 -192 -96 0
-718 192 96 0
-719 -161 65 0
-719 161 -65 0
-719 -162 66 0
-719 162 -66 0
-719 -163 67 0
-719 163 -67 0
-719 -164 68 0
-719 164 -68 0
-719 -165 0
-719 -166 0
-719 -167 0
-719 -168 0
-719 -169 73 0
-719 169 -73 0
-719 -170 74 0
-719 170 -74 0
-719 -171 75 0
-719 171 -75 0
-719 -172 76 0
-719 172 -76 0
-719 -173 0
-719 -174 0
-719 -175 0
-719 -176 0
-719 -177 81 0
-719 177 -81 0
-719 -178 82 0
-719 178 -82 0
-719 -179 83 0
-719 179 -83 0
-719 -180 84 0
-719 180 -84 0
-719 -181 0
-719 -182 0
-719 -183 0
-719 -184 0
-719 -185 89 0
-719 185 -89 0
-719 -186 90 0
-719 186 -90 0
-719 -187 91 0
-719 187 -91 0
-719 -188 92 0
-719 188 -92 0
-719 -189 0
-719 -190 0
-719 -191 0
-719 -192 0
-720 -161 -65 0
-720 161 65 0
-720 -162 -66 0
-720 162 66 0
-720 -163 -67 0
-720 163 67 0
-720 -164 -68 0
-720 164 68 0
-720 -165 0
-720 -166 0
-720 -167 0
-720 -168 0
-720 -169 -73 0
-720 169 73 0
-720 -170 -74 0
-720 170 74 0
-720 -171 -75 0
-720 171 75 0
-720 -172 -76 0
-720 172 76 0
-720 -173 0
-720 -174 0
-720 -175 0
-720 -176 0
-720 -177 -81 0
-720 177 81 0
-720 -178 -82 0
-720 178 82 0
-720 -179 -83 0
-720 179 83 0
-720 -180 -84 0
-720 180 84 0
-720 -181 0
-720 -182 0
-720 -183 0
-720 -184 0
-720 -185 -89 0
-720 185 89 0
-720 -186 -90 0
-720 186 90 0
-720 -187 -91 0
-720 187 91 0
-720 -188 -92 0
-720 188 92 0
-720 -189 0
-720 -190 0
-720 -191 0
-720 -192 0
-721 -161 0
-721 -162 0
-721 -163 0
-721 -164 0
-721 -165 101 0
-721 165 -101 0
-721 -166 102 0
-721 166 -102 0
-721 -167 103 0
-721 167 -103 0
-721 -168 104 0
-721 168 -104 0
-721 -169 0
-721 -170 0
-721 -171 0
-721 -172 0
-721 -173 109 0
-721 173 -109 0
-721 -174 110 0
-721 174 -110 0
-721 -175 111 0
-721 175 -111 0
-721 -176 112 0
-721 176 -112 0
-721 -177 0
-721 -178 0
-721 -179 0
-721 -180 0
-721 -181 117 0
-721 181 -117 0
-721 -182 118 0
-721 182 -118 0
-721 -183 119 0
-721 183 -119 0
-721 -184 120 0
-721 184 -120 0
-721 -185 0
-721 -186 0
-721 -187 0
-721 -188 0
-721 -189 125 0
-721 189 -125 0
-721 -190 126 0
-721 190 -126 0
-721 -191 127 0
-721 191 -127 0
-721 -192 128 0
-721 192 -128 0
-722 -161 0
-722 -162 0
-722 -163 0
-722 -164 0
-722 -165 -101 0
-722 165 101 0
-722 -166 -102 0
-722 166 102 0
-722 -167 -103 0
-722 167 103 0
-722 -168 -104 0
-722 168 104 0
-722 -169 0
-722 -170 0
-722 -171 0
-722 -172 0
-722 -173 -109 0
-722 173 109 0
-722 -174 -110 0
-722 174 110 0
-722 -175 -111 0
-722 175 111 0
-722 -176 -112 0
-722 176 112 0
-722 -177 0
-722 -178 0
-722 -179 0
-722 -180 0
-722 -181 -117 0
-722 181 117 0
-722 -182 -118 0
-722 182 118 0
-722 -183 -119 0
-722 183 119 0
-722 -184 -120 0
-722 184 120 0
-722 -185 0
-722 -186 0
-722 -187 0
-722 -188 0
-722 -189 -125 0
-722 189 125 0
-722 -190 -126 0
-722 190 126 0
-722 -191 -127 0
-722 191 127 0
-722 -192 -128 0
-722 192 128 0
-723 -161 97 0
-723 161 -97 0
-723 -162 98 0
-723 162 -98 0
-723 -163 99 0
-723 163 -99 0
-723 -164 100 0
-723 164 -100 0
-723 -165 0
-723 -166 0
-723 -167 0
-723 -168 0
-723 -169 105 0
-723 169 -105 0
-723 -170 106 0
-723 170 -106 0
-723 -171 107 0
-723 171 -107 0
-723 -172 108 0
-723 172 -108 0
-723 -173 0
-723 -174 0
-723 -175 0
-723 -176 0
-723 -177 113 0
-723 177 -113 0
-723 -178 114 0
-723 178 -114 0
-723 -179 115 0
-723 179 -115 0
-723 -180 116 0
-723 180 -116 0
-723 -181 0
-723 -182 0
-723 -183 0
-723 -184 0
-723 -185 121 0
-723 185 -121 0
-723 -186 122 0
-723 186 -122 0
-723 -187 123 0
-723 187 -123 0
-723 -188 124 0
-723 188 -124 0
-723 -189 0
-723 -190 0
-723 -191 0
-723 -192 0
-724 -161 -97 0
-724 161 97 0
-724 -162 -98 0
-724 162 98 0
-724 -163 -99 0
-724 163 99 0
-724 -164 -100 0
-724 164 100 0
-724 -165 0
-724 -166 0
-724 -167 0
-724 -168 0
-724 -169 -105 0
-724 169 105 0
-724 -170 -106 0
-724 170 106 0
-724 -171 -107 0
-724 171 107 0
-724 -172 -108 0
-724 172 108 0
-724 -173 0
-724 -174 0
-724 -175 0
-724 -176 0
-724 -177 -113 0
-724 177 113 0
-724 -178 -114 0
-724 178 114 0
-724 -179 -115 0
-724 179 115 0
-724 -180 -116 0
-724 180 116 0
-724 -181 0
-724 -182 0
-724 -183 0
-724 -184 0
-724 -185 -121 0
-724 185 121 0
-724 -186 -122 0
-724 186 122 0
-724 -187 -123 0
-724 187 123 0
-724 -188 -124 0
-724 188 124 0
-724 -189 0
-724 -190 0
-724 -191 0
-724 -192 0
-725 -161 0
-725 -162 0
-725 -163 0
-725 -164 0
-725 -165 133 0
-725 165 -133 0
-725 -166 134 0
-725 166 -134 0
-725 -167 135 0
-725 167 -135 0
-725 -168 136 0
-725 168 -136 0
-725 -169 0
-725 -170 0
-725 -171 0
-725 -172 0
-725 -173 141 0
-725 173 -141 0
-725 -174 142 0
-725 174 -142 0
-725 -175 143 0
-725 175 -143 0
-725 -176 144 0
-725 176 -144 0
-725 -177 0
-725 -178 0
-725 -179 0
-725 -180 0
-725 -181 149 0
-725 181 -149 0
-725 -182 150 0
-725 182 -150 0
-725 -183 151 0
-725 183 -151 0
-725 -184 152 0
-725 184 -152 0
-725 -185 0
-725 -186 0
-725 -187 0
-725 -188 0
-725 -189 157 0
-725 189 -157 0
-725 -190 158 0
-725 190 -158 0
-725 -191 159 0
-725 191 -159 0
-725 -192 160 0
-725 192 -160 0
-726 -161 0
-726 -162 0
-726 -163 0
-726 -164 0
-726 -165 -133 0
-726 165 133 0
-726 -166 -134 0
-726 166 134 0
-726 -167 -135 0
-726 167 135 0
-726 -168 -136 0
-726 168 136 0
-726 -169 0
-726 -170 0
-726 -171 0
-726 -172 0
-726 -173 -141 0
-726 173 141 0
-726 -174 -142 0
-726 174 142 0
-726 -175 -143 0
-726 175 143 0
-726 -176 -144 0
-726 176 144 0
-726 -177 0
-726 -178 0
-726 -179 0
-726 -180 0
-726 -181 -149 0
-726 181 149 0
-726 -182 -150 0
-726 182 150 0
-726 -183 -151 0
-726 183 151 0
-726 -184 -152 0
-726 184 152 0
-726 -185 0
-726 -186 0
-726 -187 0
-726 -188 0
-726 -189 -157 0
-726 189 157 0
-726 -190 -158 0
-726 190 158 0
-726 -191 -159 0
-726 191 159 0
-726 -192 -160 0
-726 192 160 0
-727 -161 129 0
-727 161 -129 0
-727 -162 130 0
-727 162 -130 0
-727 -163 131 0
-727 163 -131 0
-727 -164 132 0
-727 164 -132 0
-727 -165 0
-727 -166 0
-727 -167 0
-727 -168 0
-727 -169 137 0
-727 169 -137 0
-727 -170 138 0
-727 170 -138 0
-727 -171 139 0
-727 171 -139 0
-727 -172 140 0
-727 172 -140 0
-727 -173 0
-727 -174 0
-727 -175 0
-727 -176 0
-727 -177 145 0
-727 177 -145 0
-727 -178 146 0
-727 178 -146 0
-727 -179 147 0
-727 179 -147 0
-727 -180 148 0
-727 180 -148 0
-727 -181 0
-727 -182 0
-727 -183 0
-727 -184 0
-727 -185 153 0
-727 185 -153 0
-727 -186 154 0
-727 186 -154 0
-727 -187 155 0
-727 187 -155 0
-727 -188 156 0
-727 188 -156 0
-727 -189 0
-727 -190 0
-727 -191 0
-727 -192 0
-728 -161 -129 0
-728 161 129 0
-728 -162 -130 0
-728 162 130 0
-728 -163 -131 0
-728 163 131 0
-728 -164 -132 0
-728 164 132 0
-728 -165 0
-728 -166 0
-728 -167 0
-728 -168 0
-728 -169 -137 0
-728 169 137 0
-728 -170 -138 0
-728 170 138 0
-728 -171 -139 0
-728 171 139 0
-728 -172 -140 0
-728 172 140 0
-728 -173 0
-728 -174 0
-728 -175 0
-728 -176 0
-728 -177 -145 0
-728 177 145 0
-728 -178 -146 0
-728 178 146 0
-728 -179 -147 0
-728 179 147 0
-728 -180 -148 0
-728 180 148 0
-728 -181 0
-728 -182 0
-728 -183 0
-728 -184 0
-728 -185 -153 0
-728 185 153 0
-728 -186 -154 0
-728 186 154 0
-728 -187 -155 0
-728 187 155 0
-728 -188 -156 0
-728 188 156 0
-728 -189 0
-728 -190 0
-728 -191 0
-728 -192 0
-729 -161 0
-729 -162 0
-729 -163 0
-729 -164 0
-729 -165 0
-729 -166 0
-729 -167 0
-729 -168 0
-729 -169 0
-729 -170 0
-729 -171 0
-729 -172 0
-729 -173 0
-729 -174 0
-729 -175 0
-729 -176 0
-729 -177 0
-729 -178 0
-729 -179 0
-729 -180 0
-729 -181 0
-729 -182 0
-729 -183 0
-729 -184 0
-729 185 0
-729 186 0
-729 187 0
-729 188 0
-729 189 0
-729 190 0
-729 191 0
-729 192 0
-730 -161 0
-730 -162 0
-730 -163 0
-730 -164 0
-730 -165 0
-730 -166 0
-730 -167 0
-730 -168 0
-730 169 0
-730 170 0
-730 171 0
-730 172 0
-730 173 0
-730 174 0
-730 175 0
-730 176 0
-730 -177 0
-730 -178 0
-730 -179 0
-730 -180 0
-730 -181 0
-730 -182 0
-730 -183 0
-730 -184 0
-730 -185 0
-730 -186 0
-730 -187 0
-730 -188 0
-730 -189 0
-730 -190 0
-730 -191 0
-730 -192 0
-731 -161 0
-731 -162 0
-731 -163 0
-731 -164 0
-731 -165 0
-731 -166 0
-731 -167 0
-731 -168 0
-731 -169 0
-731 -170 0
-731 -171 0
-731 -172 0
-731 -173 0
-731 -174 0
-731 -175 0
-731 -176 0
-731 177 0
-731 178 0
-731 179 0
-731 180 0
-731 181 0
-731 182 0
-731 183 0
-731 184 0
-731 -185 0
-731 -186 0
-731 -187 0
-731 -188 0
-731 -189 0
-731 -190 0
-731 -191 0
-731 -192 0
-732 161 0
-732 162 0
-732 163 0
-732 164 0
-732 165 0
-732 166 0
-732 167 0
-732 168 0
-732 -169 0
-732 -170 0
-732 -171 0
-732 -172 0
-732 -173 0
-732 -174 0
-732 -175 0
-732 -176 0
-732 -177 0
-732 -178 0
-732 -179 0
-732 -180 0
-732 -181 0
-732 -182 0
-732 -183 0
-732 -184 0
-732 -185 0
-732 -186 0
-732 -187 0
-732 -188 0
-732 -189 0
-732 -190 0
-732 -191 0
-732 -192 0
-733 -161 0
-733 -162 0
-733 -163 0
-733 -164 0
-733 -165 0
-733 -166 0
-733 -167 0
-733 -168 0
-733 -169 9 0
-733 169 -9 0
-733 -170 10 0
-733 170 -10 0
-733 -171 11 0
-733 171 -11 0
-733 -172 12 0
-733 172 -12 0
-733 -173 13 0
-733 173 -13 0
-733 -174 14 0
-733 174 -14 0
-733 -175 15 0
-733 175 -15 0
-733 -176 16 0
-733 176 -16 0
-733 -177 0
-733 -178 0
-733 -179 0
-733 -180 0
-733 -181 0
-733 -182 0
-733 -183 0
-733 -184 0
-733 -185 25 0
-733 185 -25 0
-733 -186 26 0
-733 186 -26 0
-733 -187 27 0
-733 187 -27 0
-733 -188 28 0
-733 188 -28 0
-733 -189 29 0
-733 189 -29 0
-733 -190 30 0
-733 190 -30 0
-733 -191 31 0
-733 191 -31 0
-733 -192 32 0
-733 192 -32 0
-734 -161 0
-734 -162 0
-734 -163 0
-734 -164 0
-734 -165 0
-734 -166 0
-734 -167 0
-734 -168 0
-734 -169 -9 0
-734 169 9 0
-734 -170 -10 0
-734 170 10 0
-734 -171 -11 0
-734 171 11 0
-734 -172 -12 0
-734 172 12 0
-734 -173 -13 0
-734 173 13 0
-734 -174 -14 0
-734 174 14 0
-734 -175 -15 0
-734 175 15 0
-734 -176 -16 0
-734 176 16 0
-734 -177 0
-734 -178 0
-734 -179 0
-734 -180 0
-734 -181 0
-734 -182 0
-734 -183 0
-734 -184 0
-734 -185 -25 0
-734 185 25 0
-734 -186 -26 0
-734 186 26 0
-734 -187 -27 0
-734 187 27 0
-734 -188 -28 0
-734 188 28 0
-734 -189 -29 0
-734 189 29 0
-734 -190 -30 0
-734 190 30 0
-734 -191 -31 0
-734 191 31 0
-734 -192 -32 0
-734 192 32 0
-735 -161 1 0
-735 161 -1 0
-735 -162 2 0
-735 162 -2 0
-735 -163 3 0
-735 163 -3 0
-735 -164 4 0
-735 164 -4 0
-735 -165 5 0
-735 165 -5 0
-735 -166 6 0
-735 166 -6 0
-735 -167 7 0
-735 167 -7 0
-735 -168 8 0
-735 168 -8 0
-735 -169 0
-735 -170 0
-735 -171 0
-735 -172 0
-735 -173 0
-735 -174 0
-735 -175 0
-735 -176 0
-735 -177 17 0
-735 177 -17 0
-735 -178 18 0
-735 178 -18 0
-735 -179 19 0
-735 179 -19 0
-735 -180 20 0
-735 180 -20 0
-735 -181 21 0
-735 181 -21 0
-735 -182 22 0
-735 182 -22 0
-735 -183 23 0
-735 183 -23 0
-735 -184 24 0
-735 184 -24 0
-735 -185 0
-735 -186 0
-735 -187 0
-735 -188 0
-735 -189 0
-735 -190 0
-735 -191 0
-735 -192 0
-736 -161 -1 0
-736 161 1 0
-736 -162 -2 0
-736 162 2 0
-736 -163 -3 0
-736 163 3 0
-736 -164 -4 0
-736 164 4 0
-736 -165 -5 0
-736 165 5 0
-736 -166 -6 0
-736 166 6 0
-736 -167 -7 0
-736 167 7 0
-736 -168 -8 0
-736 168 8 0
-736 -169 0
-736 -170 0
-736 -171 0
-736 -172 0
-736 -173 0
-736 -174 0
-736 -175 0
-736 -176 0
-736 -177 -17 0
-736 177 17 0
-736 -178 -18 0
-736 178 18 0
-736 -179 -19 0
-736 179 19 0
-736 -180 -20 0
-736 180 20 0
-736 -181 -21 0
-736 181 21 0
-736 -182 -22 0
-736 182 22 0
-736 -183 -23 0
-736 183 23 0
-736 -184 -24 0
-736 184 24 0
-736 -185 0
-736 -186 0
-736 -187 0
-736 -188 0
-736 -189 0
-736 -190 0
-736 -191 0
-736 -192 0
-737 -161 0
-737 -162 0
-737 -163 0
-737 -164 0
-737 -165 0
-737 -166 0
-737 -167 0
-737 -168 0
-737 -169 41 0
-737 169 -41 0
-737 -170 42 0
-737 170 -42 0
-737 -171 43 0
-737 171 -43 0
-737 -172 44 0
-737 172 -44 0
-737 -173 45 0
-737 173 -45 0
-737 -174 46 0
-737 174 -46 0
-737 -175 47 0
-737 175 -47 0
-737 -176 48 0
-737 176 -48 0
-737 -177 0
-737 -178 0
-737 -179 0
-737 -180 0
-737 -181 0
-737 -182 0
-737 -183 0
-737 -184 0
-737 -185 57 0
-737 185 -57 0
-737 -186 58 0
-737 186 -58 0
-737 -187 59 0
-737 187 -59 0
-737 -188 60 0
-737 188 -60 0
-737 -189 61 0
-737 189 -61 0
-737 -190 62 0
-737 190 -62 0
-737 -191 63 0
-737 191 -63 0
-737 -192 64 0
-737 192 -64 0
-738 -161 0
-738 -162 0
-738 -163 0
-738 -164 0
-738 -165 0
-738 -166 0
-738 -167 0
-738 -168 0
-738 -169 -41 0
-738 169 41 0
-738 -170 -42 0
-738 170 42 0
-738 -171 -43 0
-738 171 43 0
-738 -172 -44 0
-738 172 44 0
-738 -173 -45 0
-738 173 45 0
-738 -174 -46 0
-738 174 46 0
-738 -175 -47 0
-738 175 47 0
-738 -176 -48 0
-738 176 48 0
-738 -177 0
-738 -178 0
-738 -179 0
-738 -180 0
-738 -181 0
-738 -182 0
-738 -183 0
-738 -184 0
-738 -185 -57 0
-738 185 57 0
-738 -186 -58 0
-738 186 58 0
-738 -187 -59 0
-738 187 59 0
-738 -188 -60 0
-738 188 60 0
-738 -189 -61 0
-738 189 61 0
-738 -190 -62 0
-738 190 62 0
-738 -191 -63 0
-738 191 63 0
-738 -192 -64 0
-738 192 64 0
-739 -161 33 0
-739 161 -33 0
-739 -162 34 0
-739 162 -34 0
-739 -163 35 0
-739 163 -35 0
-739 -164 36 0
-739 164 -36 0
-739 -165 37 0
-739 165 -37 0
-739 -166 38 0
-739 166 -38 0
-739 -167 39 0
-739 167 -39 0
-739 -168 40 0
-739 168 -40 0
-739 -169 0
-739 -170 0
-739 -171 0
-739 -172 0
-739 -173 0
-739 -174 0
-739 -175 0
-739 -176 0
-739 -177 49 0
-739 177 -49 0
-739 -178 50 0
-739 178 -50 0
-739 -179 51 0
-739 179 -51 0
-739 -180 52 0
-739 180 -52 0
-739 -181 53 0
-739 181 -53 0
-739 -182 54 0
-739 182 -54 0
-739 -183 55 0
-739 183 -55 0
-739 -184 56 0
-739 184 -56 0
-739 -185 0
-739 -186 0
-739 -187 0
-739 -188 0
-739 -189 0
-739 -190 0
-739 -191 0
-739 -192 0
-740 -161 -33 0
-740 161 33 0
-740 -162 -34 0
-740 162 34 0
-740 -163 -35 0
-740 163 35 0
-740 -164 -36 0
-740 164 36 0
-740 -165 -37 0
-740 165 37 0
-740 -166 -38 0
-740 166 38 0
-740 -167 -39 0
-740 167 39 0
-740 -168 -40 0
-740 168 40 0
-740 -169 0
-740 -170 0
-740 -171 0
-740 -172 0
-740 -173 0
-740 -174 0
-740 -175 0
-740 -176 0
-740 -177 -49 0
-740 177 49 0
-740 -178 -50 0
-740 178 50 0
-740 -179 -51 0
-740 179 51 0
-740 -180 -52 0
-740 180 52 0
-740 -181 -53 0
-740 181 53 0
-740 -182 -54 0
-740 182 54 0
-740 -183 -55 0
-740 183 55 0
-740 -184 -56 0
-740 184 56 0
-740 -185 0
-740 -186 0
-740 -187 0
-740 -188 0
-740 -189 0
-740 -190 0
-740 -191 0
-740 -192 0
-741 -161 0
-741 -162 0
-741 -163 0
-741 -164 0
-741 -165 0
-741 -166 0
-741 -167 0
-741 -168 0
-741 -169 73 0
-741 169 -73 0
-741 -170 74 0
-741 170 -74 0
-741 -171 75 0
-741 171 -75 0
-741 -172 76 0
-741 172 -76 0
-741 -173 77 0
-741 173 -77 0
-741 -174 78 0
-741 174 -78 0
-741 -175 79 0
-741 175 -79 0
-741 -176 80 0
-741 176 -80 0
-741 -177 0
-741 -178 0
-741 -179 0
-741 -180 0
-741 -181 0
-741 -182 0
-741 -183 0
-741 -184 0
-741 -185 89 0
-741 185 -89 0
-741 -186 90 0
-741 186 -90 0
-741 -187 91 0
-741 187 -91 0
-741 -188 92 0
-741 188 -92 0
-741 -189 93 0
-741 189 -93 0
-741 -190 94 0
-741 190 -94 0
-741 -191 95 0
-741 191 -95 0
-741 -192 96 0
-741 192 -96 0
-742 -161 0
-742 -162 0
-742 -163 0
-742 -164 0
-742 -165 0
-742 -166 0
-742 -167 0
-742 -168 0
-742 -169 -73 0
-742 169 73 0
-742 -170 -74 0
-742 170 74 0
-742 -171 -75 0
-742 171 75 0
-742 -172 -76 0
-742 172 76 0
-742 -173 -77 0
-742 173 77 0
-742 -174 -78 0
-742 174 78 0
-742 -175 -79 0
-742 175 79 0
-742 -176 -80 0
-742 176 80 0
-742 -177 0
-742 -178 0
-742 -179 0
-742 -180 0
-742 -181 0
-742 -182 0
-742 -183 0
-742 -184 0
-742 -185 -89 0
-742 185 89 0
-742 -186 -90 0
-742 186 90 0
-742 -187 -91 0
-742 187 91 0
-742 -188 -92 0
-742 188 92 0
-742 -189 -93 0
-742 189 93 0
-742 -190 -94 0
-742 190 94 0
-742 -191 -95 0
-742 191 95 0
-742 -192 -96 0
-742 192 96 0
-743 -161 65 0
-743 161 -65 0
-743 -162 66 0
-743 162 -66 0
-743 -163 67 0
-743 163 -67 0
-743 -164 68 0
-743 164 -68 0
-743 -165 69 0
-743 165 -69 0
-743 -166 70 0
-743 166 -70 0
-743 -167 71 0
-743 167 -71 0
-743 -168 72 0
-743 168 -72 0
-743 -169 0
-743 -170 0
-743 -171 0
-743 -172 0
-743 -173 0
-743 -174 0
-743 -175 0
-743 -176 0
-743 -177 81 0
-743 177 -81 0
-743 -178 82 0
-743 178 -82 0
-743 -179 83 0
-743 179 -83 0
-743 -180 84 0
-743 180 -84 0
-743 -181 85 0
-743 181 -85 0
-743 -182 86 0
-743 182 -86 0
-743 -183 87 0
-743 183 -87 0
-743 -184 88 0
-743 184 -88 0
-743 -185 0
-743 -186 0
-743 -187 0
-743 -188 0
-743 -189 0
-743 -190 0
-743 -191 0
-743 -192 0
-744 -161 -65 0
-744 161 65 0
-744 -162 -66 0
-744 162 66 0
-744 -163 -67 0
-744 163 67 0
-744 -164 -68 0
-744 164 68 0
-744 -165 -69 0
-744 165 69 0
-744 -166 -70 0
-744 166 70 0
-744 -167 -71 0
-744 167 71 0
-744 -168 -72 0
-744 168 72 0
-744 -169 0
-744 -170 0
-744 -171 0
-744 -172 0
-744 -173 0
-744 -174 0
-744 -175 0
-744 -176 0
-744 -177 -81 0
-744 177 81 0
-744 -178 -82 0
-744 178 82 0
-744 -179 -83 0
-744 179 83 0
-744 -180 -84 0
-744 180 84 0
-744 -181 -85 0
-744 181 85 0
-744 -182 -86 0
-744 182 86 0
-744 -183 -87 0
-744 183 87 0
-744 -184 -88 0
-744 184 88 0
-744 -185 0
-744 -186 0
-744 -187 0
-744 -188 0
-744 -189 0
-744 -190 0
-744 -191 0
-744 -192 0
-745 -161 0
-745 -162 0
-745 -163 0
-745 -164 0
-745 -165 0
-745 -166 0
-745 -167 0
-745 -168 0
-745 -169 105 0
-745 169 -105 0
-745 -170 106 0
-745 170 -106 0
-745 -171 107 0
-745 171 -107 0
-745 -172 108 0
-745 172 -108 0
-745 -173 109 0
-745 173 -109 0
-745 -174 110 0
-745 174 -110 0
-745 -175 111 0
-745 175 -111 0
-745 -176 112 0
-745 176 -112 0
-745 -177 0
-745 -178 0
-745 -179 0
-745 -180 0
-745 -181 0
-745 -182 0
-745 -183 0
-745 -184 0
-745 -185 121 0
-745 185 -121 0
-745 -186 122 0
-745 186 -122 0
-745 -187 123 0
-745 187 -123 0
-745 -188 124 0
-745 188 -124 0
-745 -189 125 0
-745 189 -125 0
-745 -190 126 0
-745 190 -126 0
-745 -191 127 0
-745 191 -127 0
-745 -192 128 0
-745 192 -128 0
-746 -161 0
-746 -162 0
-746 -163 0
-746 -164 0
-746 -165 0
-746 -166 0
-746 -167 0
-746 -168 0
-746 -169 -105 0
-746 169 105 0
-746 -170 -106 0
-746 170 106 0
-746 -171 -107 0
-746 171 107 0
-746 -172 -108 0
-746 172 108 0
-746 -173 -109 0
-746 173 109 0
-746 -174 -110 0
-746 174 110 0
-746 -175 -111 0
-746 175 111 0
-746 -176 -112 0
-746 176 112 0
-746 -177 0
-746 -178 0
-746 -179 0
-746 -180 0
-746 -181 0
-746 -182 0
-746 -183 0
-746 -184 0
-746 -185 -121 0
-746 185 121 0
-746 -186 -122 0
-746 186 122 0
-746 -187 -123 0
-746 187 123 0
-746 -188 -124 0
-746 188 124 0
-746 -189 -125 0
-746 189 125 0
-746 -190 -126 0
-746 190 126 0
-746 -191 -127 0
-746 191 127 0
-746 -192 -128 0
-746 192 128 0
-747 -161 97 0
-747 161 -97 0
-747 -162 98 0
-747 162 -98 0
-747 -163 99 0
-747 163 -99 0
-747 -164 100 0
-747 164 -100 0
-747 -165 101 0
-747 165 -101 0
-747 -166 102 0
-747 166 -102 0
-747 -167 103 0
-747 167 -103 0
-747 -168 104 0
-747 168 -104 0
-747 -169 0
-747 -170 0
-747 -171 0
-747 -172 0
-747 -173 0
-747 -174 0
-747 -175 0
-747 -176 0
-747 -177 113 0
-747 177 -113 0
-747 -178 114 0
-747 178 -114 0
-747 -179 115 0
-747 179 -115 0
-747 -180 116 0
-747 180 -116 0
-747 -181 117 0
-747 181 -117 0
-747 -182 118 0
-747 182 -118 0
-747 -183 119 0
-747 183 -119 0
-747 -184 120 0
-747 184 -120 0
-747 -185 0
-747 -186 0
-747 -187 0
-747 -188 0
-747 -189 0
-747 -190 0
-747 -191 0
-747 -192 0
-748 -161 -97 0
-748 161 97 0
-748 -162 -98 0
-748 162 98 0
-748 -163 -99 0
-748 163 99 0
-748 -164 -100 0
-748 164 100 0
-748 -165 -101 0
-748 165 101 0
-748 -166 -102 0
-748 166 102 0
-748 -167 -103 0
-748 167 103 0
-748 -168 -104 0
-748 168 104 0
-748 -169 0
-748 -170 0
-748 -171 0
-748 -172 0
-748 -173 0
-748 -174 0
-748 -175 0
-748 -176 0
-748 -177 -113 0
-748 177 113 0
-748 -178 -114 0
-748 178 114 0
-748 -179 -115 0
-748 179 115 0
-748 -180 -116 0
-748 180 116 0
-748 -181 -117 0
-748 181 117 0
-748 -182 -118 0
-748 182 118 0
-748 -183 -119 0
-748 183 119 0
-748 -184 -120 0
-748 184 120 0
-748 -185 0
-748 -186 0
-748 -187 0
-748 -188 0
-748 -189 0
-748 -190 0
-748 -191 0
-748 -192 0
-749 -161 0
-749 -162 0
-749 -163 0
-749 -164 0
-749 -165 0
-749 -166 0
-749 -167 0
-749 -168 0
-749 -169 137 0
-749 169 -137 0
-749 -170 138 0
-749 170 -138 0
-749 -171 139 0
-749 171 -139 0
-749 -172 140 0
-749 172 -140 0
-749 -173 141 0
-749 173 -141 0
-749 -174 142 0
-749 174 -142 0
-749 -175 143 0
-749 175 -143 0
-749 -176 144 0
-749 176 -144 0
-749 -177 0
-749 -178 0
-749 -179 0
-749 -180 0
-749 -181 0
-749 -182 0
-749 -183 0
-749 -184 0
-749 -185 153 0
-749 185 -153 0
-749 -186 154 0
-749 186 -154 0
-749 -187 155 0
-749 187 -155 0
-749 -188 156 0
-749 188 -156 0
-749 -189 157 0
-749 189 -157 0
-749 -190 158 0
-749 190 -158 0
-749 -191 159 0
-749 191 -159 0
-749 -192 160 0
-749 192 -160 0
-750 -161 0
-750 -162 0
-750 -163 0
-750 -164 0
-750 -165 0
-750 -166 0
-750 -167 0
-750 -168 0
-750 -169 -137 0
-750 169 137 0
-750 -170 -138 0
-750 170 138 0
-750 -171 -139 0
-750 171 139 0
-750 -172 -140 0
-750 172 140 0
-750 -173 -141 0
-750 173 141 0
-750 -174 -142 0
-750 174 142 0
-750 -175 -143 0
-750 175 143 0
-750 -176 -144 0
-750 176 144 0
-750 -177 0
-750 -178 0
-750 -179 0
-750 -180 0
-750 -181 0
-750 -182 0
-750 -183 0
-750 -184 0
-750 -185 -153 0
-750 185 153 0
-750 -186 -154 0
-750 186 154 0
-750 -187 -155 0
-750 187 155 0
-750 -188 -156 0
-750 188 156 0
-750 -189 -157 0
-750 189 157 0
-750 -190 -158 0
-750 190 158 0
-750 -191 -159 0
-750 191 159 0
-750 -192 -160 0
-750 192 160 0
-751 -161 129 0
-751 161 -129 0
-751 -162 130 0
-751 162 -130 0
-751 -163 131 0
-751 163 -131 0
-751 -164 132 0
-751 164 -132 0
-751 -165 133 0
-751 165 -133 0
-751 -166 134 0
-751 166 -134 0
-751 -167 135 0
-751 167 -135 0
-751 -168 136 0
-751 168 -136 0
-751 -169 0
-751 -170 0
-751 -171 0
-751 -172 0
-751 -173 0
-751 -174 0
-751 -175 0
-751 -176 0
-751 -177 145 0
-751 177 -145 0
-751 -178 146 0
-751 178 -146 0
-751 -179 147 0
-751 179 -147 0
-751 -180 148 0
-751 180 -148 0
-751 -181 149 0
-751 181 -149 0
-751 -182 150 0
-751 182 -150 0
-751 -183 151 0
-751 183 -151 0
-751 -184 152 0
-751 184 -152 0
-751 -185 0
-751 -186 0
-751 -187 0
-751 -188 0
-751 -189 0
-751 -190 0
-751 -191 0
-751 -192 0
-752 -161 -129 0
-752 161 129 0
-752 -162 -130 0
-752 162 130 0
-752 -163 -131 0
-752 163 131 0
-752 -164 -132 0
-752 164 132 0
-752 -165 -133 0
-752 165 133 0
-752 -166 -134 0
-752 166 134 0
-752 -167 -135 0
-752 167 135 0
-752 -168 -136 0
-752 168 136 0
-752 -169 0
-752 -170 0
-752 -171 0
-752 -172 0
-752 -173 0
-752 -174 0
-752 -175 0
-752 -176 0
-752 -177 -145 0
-752 177 145 0
-752 -178 -146 0
-752 178 146 0
-752 -179 -147 0
-752 179 147 0
-752 -180 -148 0
-752 180 148 0
-752 -181 -149 0
-752 181 149 0
-752 -182 -150 0
-752 182 150 0
-752 -183 -151 0
-752 183 151 0
-752 -184 -152 0
-752 184 152 0
-752 -185 0
-752 -186 0
-752 -187 0
-752 -188 0
-752 -189 0
-752 -190 0
-752 -191 0
-752 -192 0
-753 -161 0
-753 -162 0
-753 -163 0
-753 -164 0
-753 -165 0
-753 -166 0
-753 -167 0
-753 -168 0
-753 -169 0
-753 -170 0
-753 -171 0
-753 -172 0
-753 -173 0
-753 -174 0
-753 -175 0
-753 -176 0
-753 -177 17 0
-753 177 -17 0
-753 -178 18 0
-753 178 -18 0
-753 -179 19 0
-753 179 -19 0
-753 -180 20 0
-753 180 -20 0
-753 -181 21 0
-753 181 -21 0
-753 -182 22 0
-753 182 -22 0
-753 -183 23 0
-753 183 -23 0
-753 -184 24 0
-753 184 -24 0
-753 -185 25 0
-753 185 -25 0
-753 -186 26 0
-753 186 -26 0
-753 -187 27 0
-753 187 -27 0
-753 -188 28 0
-753 188 -28 0
-753 -189 29 0
-753 189 -29 0
-753 -190 30 0
-753 190 -30 0
-753 -191 31 0
-753 191 -31 0
-753 -192 32 0
-753 192 -32 0
-754 -161 0
-754 -162 0
-754 -163 0
-754 -164 0
-754 -165 0
-754 -166 0
-754 -167 0
-754 -168 0
-754 -169 0
-754 -170 0
-754 -171 0
-754 -172 0
-754 -173 0
-754 -174 0
-754 -175 0
-754 -176 0
-754 -177 -17 0
-754 177 17 0
-754 -178 -18 0
-754 178 18 0
-754 -179 -19 0
-754 179 19 0
-754 -180 -20 0
-754 180 20 0
-754 -181 -21 0
-754 181 21 0
-754 -182 -22 0
-754 182 22 0
-754 -183 -23 0
-754 183 23 0
-754 -184 -24 0
-754 184 24 0
-754 -185 -25 0
-754 185 25 0
-754 -186 -26 0
-754 186 26 0
-754 -187 -27 0
-754 187 27 0
-754 -188 -28 0
-754 188 28 0
-754 -189 -29 0
-754 189 29 0
-754 -190 -30 0
-754 190 30 0
-754 -191 -31 0
-754 191 31 0
-754 -192 -32 0
-754 192 32 0
-755 -161 1 0
-755 161 -1 0
-755 -162 2 0
-755 162 -2 0
-755 -163 3 0
-755 163 -3 0
-755 -164 4 0
-755 164 -4 0
-755 -165 5 0
-755 165 -5 0
-755 -166 6 0
-755 166 -6 0
-755 -167 7 0
-755 167 -7 0
-755 -168 8 0
-755 168 -8 0
-755 -169 9 0
-755 169 -9 0
-755 -170 10 0
-755 170 -10 0
-755 -171 11 0
-755 171 -11 0
-755 -172 12 0
-755 172 -12 0
-755 -173 13 0
-755 173 -13 0
-755 -174 14 0
-755 174 -14 0
-755 -175 15 0
-755 175 -15 0
-755 -176 16 0
-755 176 -16 0
-755 -177 0
-755 -178 0
-755 -179 0
-755 -180 0
-755 -181 0
-755 -182 0
-755 -183 0
-755 -184 0
-755 -185 0
-755 -186 0
-755 -187 0
-755 -188 0
-755 -189 0
-755 -190 0
-755 -191 0
-755 -192 0
-756 -161 -1 0
-756 161 1 0
-756 -162 -2 0
-756 162 2 0
-756 -163 -3 0
-756 163 3 0
-756 -164 -4 0
-756 164 4 0
-756 -165 -5 0
-756 165 5 0
-756 -166 -6 0
-756 166 6 0
-756 -167 -7 0
-756 167 7 0
-756 -168 -8 0
-756 168 8 0
-756 -169 -9 0
-756 169 9 0
-756 -170 -10 0
-756 170 10 0
-756 -171 -11 0
-756 171 11 0
-756 -172 -12 0
-756 172 12 0
-756 -173 -13 0
-756 173 13 0
-756 -174 -14 0
-756 174 14 0
-756 -175 -15 0
-756 175 15 0
-756 -176 -16 0
-756 176 16 0
-756 -177 0
-756 -178 0
-756 -179 0
-756 -180 0
-756 -181 0
-756 -182 0
-756 -183 0
-756 -184 0
-756 -185 0
-756 -186 0
-756 -187 0
-756 -188 0
-756 -189 0
-756 -190 0
-756 -191 0
-756 -192 0
-757 -161 0
-757 -162 0
-757 -163 0
-757 -164 0
-757 -165 0
-757 -166 0
-757 -167 0
-757 -168 0
-757 -169 0
-757 -170 0
-757 -171 0
-757 -172 0
-757 -173 0
-757 -174 0
-757 -175 0
-757 -176 0
-757 -177 49 0
-757 177 -49 0
-757 -178 50 0
-757 178 -50 0
-757 -179 51 0
-757 179 -51 0
-757 -180 52 0
-757 180 -52 0
-757 -181 53 0
-757 181 -53 0
-757 -182 54 0
-757 182 -54 0
-757 -183 55 0
-757 183 -55 0
-757 -184 56 0
-757 184 -56 0
-757 -185 57 0
-757 185 -57 0
-757 -186 58 0
-757 186 -58 0
-757 -187 59 0
-757 187 -59 0
-757 -188 60 0
-757 188 -60 0
-757 -189 61 0
-757 189 -61 0
-757 -190 62 0
-757 190 -62 0
-757 -191 63 0
-757 191 -63 0
-757 -192 64 0
-757 192 -64 0
-758 -161 0
-758 -162 0
-758 -163 0
-758 -164 0
-758 -165 0
-758 -166 0
-758 -167 0
-758 -168 0
-758 -169 0
-758 -170 0
-758 -171 0
-758 -172 0
-758 -173 0
-758 -174 0
-758 -175 0
-758 -176 0
-758 -177 -49 0
-758 177 49 0
-758 -178 -50 0
-758 178 50 0
-758 -179 -51 0
-758 179 51 0
-758 -180 -52 0
-758 180 52 0
-758 -181 -53 0
-758 181 53 0
-758 -182 -54 0
-758 182 54 0
-758 -183 -55 0
-758 183 55 0
-758 -184 -56 0
-758 184 56 0
-758 -185 -57 0
-758 185 57 0
-758 -186 -58 0
-758 186 58 0
-758 -187 -59 0
-758 187 59 0
-758 -188 -60 0
-758 188 60 0
-758 -189 -61 0
-758 189 61 0
-758 -190 -62 0
-758 190 62 0
-758 -191 -63 0
-758 191 63 0
-758 -192 -64 0
-758 192 64 0
-759 -161 33 0
-759 161 -33 0
-759 -162 34 0
-759 162 -34 0
-759 -163 35 0
-759 163 -35 0
-759 -164 36 0
-759 164 -36 0
-759 -165 37 0
-759 165 -37 0
-759 -166 38 0
-759 166 -38 0
-759 -167 39 0
-759 167 -39 0
-759 -168 40 0
-759 168 -40 0
-759 -169 41 0
-759 169 -41 0
-759 -170 42 0
-759 170 -42 0
-759 -171 43 0
-759 171 -43 0
-759 -172 44 0
-759 172 -44 0
-759 -173 45 0
-759 173 -45 0
-759 -174 46 0
-759 174 -46 0
-759 -175 47 0
-759 175 -47 0
-759 -176 48 0
-759 176 -48 0
-759 -177 0
-759 -178 0
-759 -179 0
-759 -180 0
-759 -181 0
-759 -182 0
-759 -183 0
-759 -184 0
-759 -185 0
-759 -186 0
-759 -187 0
-759 -188 0
-759 -189 0
-759 -190 0
-759 -191 0
-759 -192 0
-760 -161 -33 0
-760 161 33 0
-760 -162 -34 0
-760 162 34 0
-760 -163 -35 0
-760 163 35 0
-760 -164 -36 0
-760 164 36 0
-760 -165 -37 0
-760 165 37 0
-760 -166 -38 0
-760 166 38 0
-760 -167 -39 0
-760 167 39 0
-760 -168 -40 0
-760 168 40 0
-760 -169 -41 0
-760 169 41 0
-760 -170 -42 0
-760 170 42 0
-760 -171 -43 0
-760 171 43 0
-760 -172 -44 0
-760 172 44 0
-760 -173 -45 0
-760 173 45 0
-760 -174 -46 0
-760 174 46 0
-760 -175 -47 0
-760 175 47 0
-760 -176 -48 0
-760 176 48 0
-760 -177 0
-760 -178 0
-760 -179 0
-760 -180 0
-760 -181 0
-760 -182 0
-760 -183 0
-760 -184 0
-760 -185 0
-760 -186 0
-760 -187 0
-760 -188 0
-760 -189 0
-760 -190 0
-760 -191 0
-760 -192 0
-761 -161 0
-761 -162 0
-761 -163 0
-761 -164 0
-761 -165 0
-761 -166 0
-761 -167 0
-761 -168 0
-761 -169 0
-761 -170 0
-761 -171 0
-761 -172 0
-761 -173 0
-761 -174 0
-761 -175 0
-761 -176 0
-761 -177 81 0
-761 177 -81 0
-761 -178 82 0
-761 178 -82 0
-761 -179 83 0
-761 179 -83 0
-761 -180 84 0
-761 180 -84 0
-761 -181 85 0
-761 181 -85 0
-761 -182 86 0
-761 182 -86 0
-761 -183 87 0
-761 183 -87 0
-761 -184 88 0
-761 184 -88 0
-761 -185 89 0
-761 185 -89 0
-761 -186 90 0
-761 186 -90 0
-761 -187 91 0
-761 187 -91 0
-761 -188 92 0
-761 188 -92 0
-761 -189 93 0
-761 189 -93 0
-761 -190 94 0
-761 190 -94 0
-761 -191 95 0
-761 191 -95 0
-761 -192 96 0
-761 192 -96 0
-762 -161 0
-762 -162 0
-762 -163 0
-762 -164 0
-762 -165 0
-762 -166 0
-762 -167 0
-762 -168 0
-762 -169 0
-762 -170 0
-762 -171 0
-762 -172 0
-762 -173 0
-762 -174 0
-762 -175 0
-762 -176 0
-762 -177 -81 0
-762 177 81 0
-762 -178 -82 0
-762 178 82 0
-762 -179 -83 0
-762 179 83 0
-762 -180 -84 0
-762 180 84 0
-762 -181 -85 0
-762 181 85 0
-762 -182 -86 0
-762 182 86 0
-762 -183 -87 0
-762 183 87 0
-762 -184 -88 0
-762 184 88 0
-762 -185 -89 0
-762 185 89 0
-762 -186 -90 0
-762 186 90 0
-762 -187 -91 0
-762 187 91 0
-762 -188 -92 0
-762 188 92 0
-762 -189 -93 0
-762 189 93 0
-762 -190 -94 0
-762 190 94 0
-762 -191 -95 0
-762 191 95 0
-762 -192 -96 0
-762 192 96 0
-763 -161 65 0
-763 161 -65 0
-763 -162 66 0
-763 162 -66 0
-763 -163 67 0
-763 163 -67 0
-763 -164 68 0
-763 164 -68 0
-763 -165 69 0
-763 165 -69 0
-763 -166 70 0
-763 166 -70 0
-763 -167 71 0
-763 167 -71 0
-763 -168 72 0
-763 168 -72 0
-763 -169 73 0
-763 169 -73 0
-763 -170 74 0
-763 170 -74 0
-763 -171 75 0
-763 171 -75 0
-763 -172 76 0
-763 172 -76 0
-763 -173 77 0
-763 173 -77 0
-763 -174 78 0
-763 174 -78 0
-763 -175 79 0
-763 175 -79 0
-763 -176 80 0
-763 176 -80 0
-763 -177 0
-763 -178 0
-763 -179 0
-763 -180 0
-763 -181 0
-763 -182 0
-763 -183 0
-763 -184 0
-763 -185 0
-763 -186 0
-763 -187 0
-763 -188 0
-763 -189 0
-763 -190 0
-763 -191 0
-763 -192 0
-764 -161 -65 0
-764 161 65 0
-764 -162 -66 0
-764 162 66 0
-764 -163 -67 0
-764 163 67 0
-764 -164 -68 0
-764 164 68 0
-764 -165 -69 0
-764 165 69 0
-764 -166 -70 0
-764 166 70 0
-764 -167 -71 0
-764 167 71 0
-764 -168 -72 0
-764 168 72 0
-764 -169 -73 0
-764 169 73 0
-764 -170 -74 0
-764 170 74 0
-764 -171 -75 0
-764 171 75 0
-764 -172 -76 0
-764 172 76 0
-764 -173 -77 0
-764 173 77 0
-764 -174 -78 0
-764 174 78 0
-764 -175 -79 0
-764 175 79 0
-764 -176 -80 0
-764 176 80 0
-764 -177 0
-764 -178 0
-764 -179 0
-764 -180 0
-764 -181 0
-764 -182 0
-764 -183 0
-764 -184 0
-764 -185 0
-764 -186 0
-764 -187 0
-764 -188 0
-764 -189 0
-764 -190 0
-764 -191 0
-764 -192 0
-765 -161 0
-765 -162 0
-765 -163 0
-765 -164 0
-765 -165 0
-765 -166 0
-765 -167 0
-765 -168 0
-765 -169 0
-765 -170 0
-765 -171 0
-765 -172 0
-765 -173 0
-765 -174 0
-765 -175 0
-765 -176 0
-765 -177 113 0
-765 177 -113 0
-765 -178 114 0
-765 178 -114 0
-765 -179 115 0
-765 179 -115 0
-765 -180 116 0
-765 180 -116 0
-765 -181 117 0
-765 181 -117 0
-765 -182 118 0
-765 182 -118 0
-765 -183 119 0
-765 183 -119 0
-765 -184 120 0
-765 184 -120 0
-765 -185 121 0
-765 185 -121 0
-765 -186 122 0
-765 186 -122 0
-765 -187 123 0
-765 187 -123 0
-765 -188 124 0
-765 188 -124 0
-765 -189 125 0
-765 189 -125 0
-765 -190 126 0
-765 190 -126 0
-765 -191 127 0
-765 191 -127 0
-765 -192 128 0
-765 192 -128 0
-766 -161 0
-766 -162 0
-766 -163 0
-766 -164 0
-766 -165 0
-766 -166 0
-766 -167 0
-766 -168 0
-766 -169 0
-766 -170 0
-766 -171 0
-766 -172 0
-766 -173 0
-766 -174 0
-766 -175 0
-766 -176 0
-766 -177 -113 0
-766 177 113 0
-766 -178 -114 0
-766 178 114 0
-766 -179 -115 0
-766 179 115 0
-766 -180 -116 0
-766 180 116 0
-766 -181 -117 0
-766 181 117 0
-766 -182 -118 0
-766 182 118 0
-766 -183 -119 0
-766 183 119 0
-766 -184 -120 0
-766 184 120 0
-766 -185 -121 0
-766 185 121 0
-766 -186 -122 0
-766 186 122 0
-766 -187 -123 0
-766 187 123 0
-766 -188 -124 0
-766 188 124 0
-766 -189 -125 0
-766 189 125 0
-766 -190 -126 0
-766 190 126 0
-766 -191 -127 0
-766 191 127 0
-766 -192 -128 0
-766 192 128 0
-767 -161 97 0
-767 161 -97 0
-767 -162 98 0
-767 162 -98 0
-767 -163 99 0
-767 163 -99 0
-767 -164 100 0
-767 164 -100 0
-767 -165 101 0
-767 165 -101 0
-767 -166 102 0
-767 166 -102 0
-767 -167 103 0
-767 167 -103 0
-767 -168 104 0
-767 168 -104 0
-767 -169 105 0
-767 169 -105 0
-767 -170 106 0
-767 170 -106 0
-767 -171 107 0
-767 171 -107 0
-767 -172 108 0
-767 172 -108 0
-767 -173 109 0
-767 173 -109 0
-767 -174 110 0
-767 174 -110 0
-767 -175 111 0
-767 175 -111 0
-767 -176 112 0
-767 176 -112 0
-767 -177 0
-767 -178 0
-767 -179 0
-767 -180 0
-767 -181 0
-767 -182 0
-767 -183 0
-767 -184 0
-767 -185 0
-767 -186 0
-767 -187 0
-767 -188 0
-767 -189 0
-767 -190 0
-767 -191 0
-767 -192 0
-768 -161 -97 0
-768 161 97 0
-768 -162 -98 0
-768 162 98 0
-768 -163 -99 0
-768 163 99 0
-768 -164 -100 0
-768 164 100 0
-768 -165 -101 0
-768 165 101 0
-768 -166 -102 0
-768 166 102 0
-768 -167 -103 0
-768 167 103 0
-768 -168 -104 0
-768 168 104 0
-768 -169 -105 0
-768 169 105 0
-768 -170 -106 0
-768 170 106 0
-768 -171 -107 0
-768 171 107 0
-768 -172 -108 0
-768 172 108 0
-768 -173 -109 0
-768 173 109 0
-768 -174 -110 0
-768 174 110 0
-768 -175 -111 0
-768 175 111 0
-768 -176 -112 0
-768 176 112 0
-768 -177 0
-768 -178 0
-768 -179 0
-768 -180 0
-768 -181 0
-768 -182 0
-768 -183 0
-768 -184 0
-768 -185 0
-768 -186 0
-768 -187 0
-768 -188 0
-768 -189 0
-768 -190 0
-768 -191 0
-768 -192 0
-769 -161 0
-769 -162 0
-769 -163 0
-769 -164 0
-769 -165 0
-769 -166 0
-769 -167 0
-769 -168 0
-769 -169 0
-769 -170 0
-769 -171 0
-769 -172 0
-769 -173 0
-769 -174 0
-769 -175 0
-769 -176 0
-769 -177 145 0
-769 177 -145 0
-769 -178 146 0
-769 178 -146 0
-769 -179 147 0
-769 179 -147 0
-769 -180 148 0
-769 180 -148 0
-769 -181 149 0
-769 181 -149 0
-769 -182 150 0
-769 182 -150 0
-769 -183 151 0
-769 183 -151 0
-769 -184 152 0
-769 184 -152 0
-769 -185 153 0
-769 185 -153 0
-769 -186 154 0
-769 186 -154 0
-769 -187 155 0
-769 187 -155 0
-769 -188 156 0
-769 188 -156 0
-769 -189 157 0
-769 189 -157 0
-769 -190 158 0
-769 190 -158 0
-769 -191 159 0
-769 191 -159 0
-769 -192 160 0
-769 192 -160 0
-770 -161 0
-770 -162 0
-770 -163 0
-770 -164 0
-770 -165 0
-770 -166 0
-770 -167 0
-770 -168 0
-770 -169 0
-770 -170 0
-770 -171 0
-770 -172 0
-770 -173 0
-770 -174 0
-770 -175 0
-770 -176 0
-770 -177 -145 0
-770 177 145 0
-770 -178 -146 0
-770 178 146 0
-770 -179 -147 0
-770 179 147 0
-770 -180 -148 0
-770 180 148 0
-770 -181 -149 0
-770 181 149 0
-770 -182 -150 0
-770 182 150 0
-770 -183 -151 0
-770 183 151 0
-770 -184 -152 0
-770 184 152 0
-770 -185 -153 0
-770 185 153 0
-770 -186 -154 0
-770 186 154 0
-770 -187 -155 0
-770 187 155 0
-770 -188 -156 0
-770 188 156 0
-770 -189 -157 0
-770 189 157 0
-770 -190 -158 0
-770 190 158 0
-770 -191 -159 0
-770 191 159 0
-770 -192 -160 0
-770 192 160 0
-771 -161 129 0
-771 161 -129 0
-771 -162 130 0
-771 162 -130 0
-771 -163 131 0
-771 163 -131 0
-771 -164 132 0
-771 164 -132 0
-771 -165 133 0
-771 165 -133 0
-771 -166 134 0
-771 166 -134 0
-771 -167 135 0
-771 167 -135 0
-771 -168 136 0
-771 168 -136 0
-771 -169 137 0
-771 169 -137 0
-771 -170 138 0
-771 170 -138 0
-771 -171 139 0
-771 171 -139 0
-771 -172 140 0
-771 172 -140 0
-771 -173 141 0
-771 173 -141 0
-771 -174 142 0
-771 174 -142 0
-771 -175 143 0
-771 175 -143 0
-771 -176 144 0
-771 176 -144 0
-771 -177 0
-771 -178 0
-771 -179 0
-771 -180 0
-771 -181 0
-771 -182 0
-771 -183 0
-771 -184 0
-771 -185 0
-771 -186 0
-771 -187 0
-771 -188 0
-771 -189 0
-771 -190 0
-771 -191 0
-771 -192 0
-772 -161 -129 0
-772 161 129 0
-772 -162 -130 0
-772 162 130 0
-772 -163 -131 0
-772 163 131 0
-772 -164 -132 0
-772 164 132 0
-772 -165 -133 0
-772 165 133 0
-772 -166 -134 0
-772 166 134 0
-772 -167 -135 0
-772 167 135 0
-772 -168 -136 0
-772 168 136 0
-772 -169 -137 0
-772 169 137 0
-772 -170 -138 0
-772 170 138 0
-772 -171 -139 0
-772 171 139 0
-772 -172 -140 0
-772 172 140 0
-772 -173 -141 0
-772 173 141 0
-772 -174 -142 0
-772 174 142 0
-772 -175 -143 0
-772 175 143 0
-772 -176 -144 0
-772 176 144 0
-772 -177 0
-772 -178 0
-772 -179 0
-772 -180 0
-772 -181 0
-772 -182 0
-772 -183 0
-772 -184 0
-772 -185 0
-772 -186 0
-772 -187 0
-772 -188 0
-772 -189 0
-772 -190 0
-772 -191 0
-772 -192 0
-773 -161 1 0
-773 -161 33 0
-773 161 -1 -33 0
-773 -162 2 0
-773 -162 34 0
-773 162 -2 -34 0
-773 -163 3 0
-773 -163 35 0
-773 163 -3 -35 0
-773 -164 4 0
-773 -164 36 0
-773 164 -4 -36 0
-773 -165 5 0
-773 -165 37 0
-773 165 -5 -37 0
-773 -166 6 0
-773 -166 38 0
-773 166 -6 -38 0
-773 -167 7 0
-773 -167 39 0
-773 167 -7 -39 0
-773 -168 8 0
-773 -168 40 0
-773 168 -8 -40 0
-773 -169 9 0
-773 -169 41 0
-773 169 -9 -41 0
-773 -170 10 0
-773 -170 42 0
-773 170 -10 -42 0
-773 -171 11 0
-773 -171 43 0
-773 171 -11 -43 0
-773 -172 12 0
-773 -172 44 0
-773 172 -12 -44 0
-773 -173 13 0
-773 -173 45 0
-773 173 -13 -45 0
-773 -174 14 0
-773 -174 46 0
-773 174 -14 -46 0
-773 -175 15 0
-773 -175 47 0
-773 175 -15 -47 0
-773 -176 16 0
-773 -176 48 0
-773 176 -16 -48 0
-773 -177 17 0
-773 -177 49 0
-773 177 -17 -49 0
-773 -178 18 0
-773 -178 50 0
-773 178 -18 -50 0
-773 -179 19 0
-773 -179 51 0
-773 179 -19 -51 0
-773 -180 20 0
-773 -180 52 0
-773 180 -20 -52 0
-773 -181 21 0
-773 -181 53 0
-773 181 -21 -53 0
-773 -182 22 0
-773 -182 54 0
-773 182 -22 -54 0
-773 -183 23 0
-773 -183 55 0
-773 183 -23 -55 0
-773 -184 24 0
-773 -184 56 0
-773 184 -24 -56 0
-773 -185 25 0
-773 -185 57 0
-773 185 -25 -57 0
-773 -186 26 0
-773 -186 58 0
-773 186 -26 -58 0
-773 -187 27 0
-773 -187 59 0
-773 187 -27 -59 0
-773 -188 28 0
-773 -188 60 0
-773 188 -28 -60 0
-773 -189 29 0
-773 -189 61 0
-773 189 -29 -61 0
-773 -190 30 0
-773 -190 62 0
-773 190 -30 -62 0
-773 -191 31 0
-773 -191 63 0
-773 191 -31 -63 0
-773 -192 32 0
-773 -192 64 0
-773 192 -32 -64 0
-774 -161 1 0
-774 -161 -33 0
-774 161 -1 33 0
-774 -162 2 0
-774 -162 -34 0
-774 162 -2 34 0
-774 -163 3 0
-774 -163 -35 0
-774 163 -3 35 0
-774 -164 4 0
-774 -164 -36 0
-774 164 -4 36 0
-774 -165 5 0
-774 -165 -37 0
-774 165 -5 37 0
-774 -166 6 0
-774 -166 -38 0
-774 166 -6 38 0
-774 -167 7 0
-774 -167 -39 0
-774 167 -7 39 0
-774 -168 8 0
-774 -168 -40 0
-774 168 -8 40 0
-774 -169 9 0
-774 -169 -41 0
-774 169 -9 41 0
-774 -170 10 0
-774 -170 -42 0
-774 170 -10 42 0
-774 -171 11 0
-774 -171 -43 0
-774 171 -11 43 0
-774 -172 12 0
-774 -172 -44 0
-774 172 -12 44 0
-774 -173 13 0
-774 -173 -45 0
-774 173 -13 45 0
-774 -174 14 0
-774 -174 -46 0
-774 174 -14 46 0
-774 -175 15 0
-774 -175 -47 0
-774 175 -15 47 0
-774 -176 16 0
-774 -176 -48 0
-774 176 -16 48 0
-774 -177 17 0
-774 -177 -49 0
-774 177 -17 49 0
-774 -178 18 0
-774 -178 -50 0
-774 178 -18 50 0
-774 -179 19 0
-774 -179 -51 0
-774 179 -19 51 0
-774 -180 20 0
-774 -180 -52 0
-774 180 -20 52 0
-774 -181 21 0
-774 -181 -53 0
-774 181 -21 53 0
-774 -182 22 0
-774 -182 -54 0
-774 182 -22 54 0
-774 -183 23 0
-774 -183 -55 0
-774 183 -23 55 0
-774 -184 24 0
-774 -184 -56 0
-774 184 -24 56 0
-774 -185 25 0
-774 -185 -57 0
-774 185 -25 57 0
-774 -186 26 0
-774 -186 -58 0
-774 186 -26 58 0
-774 -187 27 0
-774 -187 -59 0
-774 187 -27 59 0
-774 -188 28 0
-774 -188 -60 0
-774 188 -28 60 0
-774 -189 29 0
-774 -189 -61 0
-774 189 -29 61 0
-774 -190 30 0
-774 -190 -62 0
-774 190 -30 62 0
-774 -191 31 0
-774 -191 -63 0
-774 191 -31 63 0
-774 -192 32 0
-774 -192 -64 0
-774 192 -32 64 0
-775 -161 -1 0
-775 -161 33 0
-775 161 1 -33 0
-775 -162 -2 0
-775 -162 34 0
-775 162 2 -34 0
-775 -163 -3 0
-775 -163 35 0
-775 163 3 -35 0
-775 -164 -4 0
-775 -164 36 0
-775 164 4 -36 0
-775 -165 -5 0
-775 -165 37 0
-775 165 5 -37 0
-775 -166 -6 0
-775 -166 38 0
-775 166 6 -38 0
-775 -167 -7 0
-775 -167 39 0
-775 167 7 -39 0
-775 -168 -8 0
-775 -168 40 0
-775 168 8 -40 0
-775 -169 -9 0
-775 -169 41 0
-775 169 9 -41 0
-775 -170 -10 0
-775 -170 42 0
-775 170 10 -42 0
-775 -171 -11 0
-775 -171 43 0
-775 171 11 -43 0
-775 -172 -12 0
-775 -172 44 0
-775 172 12 -44 0
-775 -173 -13 0
-775 -173 45 0
-775 173 13 -45 0
-775 -174 -14 0
-775 -174 46 0
-775 174 14 -46 0
-775 -175 -15 0
-775 -175 47 0
-775 175 15 -47 0
-775 -176 -16 0
-775 -176 48 0
-775 176 16 -48 0
-775 -177 -17 0
-775 -177 49 0
-775 177 17 -49 0
-775 -178 -18 0
-775 -178 50 0
-775 178 18 -50 0
-775 -179 -19 0
-775 -179 51 0
-775 179 19 -51 0
-775 -180 -20 0
-775 -180 52 0
-775 180 20 -52 0
-775 -181 -21 0
-775 -181 53 0
-775 181 21 -53 0
-775 -182 -22 0
-775 -182 54 0
-775 182 22 -54 0
-775 -183 -23 0
-775 -183 55 0
-775 183 23 -55 0
-775 -184 -24 0
-775 -184 56 0
-775 184 24 -56 0
-775 -185 -25 0
-775 -185 57 0
-775 185 25 -57 0
-775 -186 -26 0
-775 -186 58 0
-775 186 26 -58 0
-775 -187 -27 0
-775 -187 59 0
-775 187 27 -59 0
-775 -188 -28 0
-775 -188 60 0
-775 188 28 -60 0
-775 -189 -29 0
-775 -189 61 0
-775 189 29 -61 0
-775 -190 -30 0
-775 -190 62 0
-775 190 30 -62 0
-775 -191 -31 0
-775 -191 63 0
-775 191 31 -63 0
-775 -192 -32 0
-775 -192 64 0
-775 192 32 -64 0
-776 -161 -1 0
-776 -161 -33 0
-776 161 1 33 0
-776 -162 -2 0
-776 -162 -34 0
-776 162 2 34 0
-776 -163 -3 0
-776 -163 -35 0
-776 163 3 35 0
-776 -164 -4 0
-776 -164 -36 0
-776 164 4 36 0
-776 -165 -5 0
-776 -165 -37 0
-776 165 5 37 0
-776 -166 -6 0
-776 -166 -38 0
-776 166 6 38 0
-776 -167 -7 0
-776 -167 -39 0
-776 167 7 39 0
-776 -168 -8 0
-776 -168 -40 0
-776 168 8 40 0
-776 -169 -9 0
-776 -169 -41 0
-776 169 9 41 0
-776 -170 -10 0
-776 -170 -42 0
-776 170 10 42 0
-776 -171 -11 0
-776 -171 -43 0
-776 171 11 43 0
-776 -172 -12 0
-776 -172 -44 0
-776 172 12 44 0
-776 -173 -13 0
-776 -173 -45 0
-776 173 13 45 0
-776 -174 -14 0
-776 -174 -46 0
-776 174 14 46 0
-776 -175 -15 0
-776 -175 -47 0
-776 175 15 47 0
-776 -176 -16 0
-776 -176 -48 0
-776 176 16 48 0
-776 -177 -17 0
-776 -177 -49 0
-776 177 17 49 0
-776 -178 -18 0
-776 -178 -50 0
-776 178 18 50 0
-776 -179 -19 0
-776 -179 -51 0
-776 179 19 51 0
-776 -180 -20 0
-776 -180 -52 0
-776 180 20 52 0
-776 -181 -21 0
-776 -181 -53 0
-776 181 21 53 0
-776 -182 -22 0
-776 -182 -54 0
-776 182 22 54 0
-776 -183 -23 0
-776 -183 -55 0
-776 183 23 55 0
-776 -184 -24 0
-776 -184 -56 0
-776 184 24 56 0
-776 -185 -25 0
-776 -185 -57 0
-776 185 25 57 0
-776 -186 -26 0
-776 -186 -58 0
-776 186 26 58 0
-776 -187 -27 0
-776 -187 -59 0
-776 187 27 59 0
-776 -188 -28 0
-776 -188 -60 0
-776 188 28 60 0
-776 -189 -29 0
-776 -189 -61 0
-776 189 29 61 0
-776 -190 -30 0
-776 -190 -62 0
-776 190 30 62 0
-776 -191 -31 0
-776 -191 -63 0
-776 191 31 63 0
-776 -192 -32 0
-776 -192 -64 0
-776 192 32 64 0
-777 -161 1 0
-777 -161 65 0
-777 161 -1 -65 0
-777 -162 2 0
-777 -162 66 0
-777 162 -2 -66 0
-777 -163 3 0
-777 -163 67 0
-777 163 -3 -67 0
-777 -164 4 0
-777 -164 68 0
-777 164 -4 -68 0
-777 -165 5 0
-777 -165 69 0
-777 165 -5 -69 0
-777 -166 6 0
-777 -166 70 0
-777 166 -6 -70 0
-777 -167 7 0
-777 -167 71 0
-777 167 -7 -71 0
-777 -168 8 0
-777 -168 72 0
-777 168 -8 -72 0
-777 -169 9 0
-777 -169 73 0
-777 169 -9 -73 0
-777 -170 10 0
-777 -170 74 0
-777 170 -10 -74 0
-777 -171 11 0
-777 -171 75 0
-777 171 -11 -75 0
-777 -172 12 0
-777 -172 76 0
-777 172 -12 -76 0
-777 -173 13 0
-777 -173 77 0
-777 173 -13 -77 0
-777 -174 14 0
-777 -174 78 0
-777 174 -14 -78 0
-777 -175 15 0
-777 -175 79 0
-777 175 -15 -79 0
-777 -176 16 0
-777 -176 80 0
-777 176 -16 -80 0
-777 -177 17 0
-777 -177 81 0
-777 177 -17 -81 0
-777 -178 18 0
-777 -178 82 0
-777 178 -18 -82 0
-777 -179 19 0
-777 -179 83 0
-777 179 -19 -83 0
-777 -180 20 0
-777 -180 84 0
-777 180 -20 -84 0
-777 -181 21 0
-777 -181 85 0
-777 181 -21 -85 0
-777 -182 22 0
-777 -182 86 0
-777 182 -22 -86 0
-777 -183 23 0
-777 -183 87 0
-777 183 -23 -87 0
-777 -184 24 0
-777 -184 88 0
-777 184 -24 -88 0
-777 -185 25 0
-777 -185 89 0
-777 185 -25 -89 0
-777 -186 26 0
-777 -186 90 0
-777 186 -26 -90 0
-777 -187 27 0
-777 -187 91 0
-777 187 -27 -91 0
-777 -188 28 0
-777 -188 92 0
-777 188 -28 -92 0
-777 -189 29 0
-777 -189 93 0
-777 189 -29 -93 0
-777 -190 30 0
-777 -190 94 0
-777 190 -30 -94 0
-777 -191 31 0
-777 -191 95 0
-777 191 -31 -95 0
-777 -192 32 0
-777 -192 96 0
-777 192 -32 -96 0
-778 -161 1 0
-778 -161 -65 0
-778 161 -1 65 0
-778 -162 2 0
-778 -162 -66 0
-778 162 -2 66 0
-778 -163 3 0
-778 -163 -67 0
-778 163 -3 67 0
-778 -164 4 0
-778 -164 -68 0
-778 164 -4 68 0
-778 -165 5 0
-778 -165 -69 0
-778 165 -5 69 0
-778 -166 6 0
-778 -166 -70 0
-778 166 -6 70 0
-778 -167 7 0
-778 -167 -71 0
-778 167 -7 71 0
-778 -168 8 0
-778 -168 -72 0
-778 168 -8 72 0
-778 -169 9 0
-778 -169 -73 0
-778 169 -9 73 0
-778 -170 10 0
-778 -170 -74 0
-778 170 -10 74 0
-778 -171 11 0
-778 -171 -75 0
-778 171 -11 75 0
-778 -172 12 0
-778 -172 -76 0
-778 172 -12 76 0
-778 -173 13 0
-778 -173 -77 0
-778 173 -13 77 0
-778 -174 14 0
-778 -174 -78 0
-778 174 -14 78 0
-778 -175 15 0
-778 -175 -79 0
-778 175 -15 79 0
-778 -176 16 0
-778 -176 -80 0
-778 176 -16 80 0
-778 -177 17 0
-778 -177 -81 0
-778 177 -17 81 0
-778 -178 18 0
-778 -178 -82 0
-778 178 -18 82 0
-778 -179 19 0
-778 -179 -83 0
-778 179 -19 83 0
-778 -180 20 0
-778 -180 -84 0
-778 180 -20 84 0
-778 -181 21 0
-778 -181 -85 0
-778 181 -21 85 0
-778 -182 22 0
-778 -182 -86 0
-778 182 -22 86 0
-778 -183 23 0
-778 -183 -87 0
-778 183 -23 87 0
-778 -184 24 0
-778 -184 -88 0
-778 184 -24 88 0
-778 -185 25 0
-778 -185 -89 0
-778 185 -25 89 0
-778 -186 26 0
-778 -186 -90 0
-778 186 -26 90 0
-778 -187 27 0
-778 -187 -91 0
-778 187 -27 91 0
-778 -188 28 0
-778 -188 -92 0
-778 188 -28 92 0
-778 -189 29 0
-778 -189 -93 0
-778 189 -29 93 0
-778 -190 30 0
-778 -190 -94 0
-778 190 -30 94 0
-778 -191 31 0
-778 -191 -95 0
-778 191 -31 95 0
-778 -192 32 0
-778 -192 -96 0
-778 192 -32 96 0
-779 -161 -1 0
-779 -161 65 0
-779 161 1 -65 0
-779 -162 -2 0
-779 -162 66 0
-779 162 2 -66 0
-779 -163 -3 0
-779 -163 67 0
-779 163 3 -67 0
-779 -164 -4 0
-779 -164 68 0
-779 164 4 -68 0
-779 -165 -5 0
-779 -165 69 0
-779 165 5 -69 0
-779 -166 -6 0
-779 -166 70 0
-779 166 6 -70 0
-779 -167 -7 0
-779 -167 71 0
-779 167 7 -71 0
-779 -168 -8 0
-779 -168 72 0
-779 168 8 -72 0
-779 -169 -9 0
-779 -169 73 0
-779 169 9 -73 0
-779 -170 -10 0
-779 -170 74 0
-779 170 10 -74 0
-779 -171 -11 0
-779 -171 75 0
-779 171 11 -75 0
-779 -172 -12 0
-779 -172 76 0
-779 172 12 -76 0
-779 -173 -13 0
-779 -173 77 0
-779 173 13 -77 0
-779 -174 -14 0
-779 -174 78 0
-779 174 14 -78 0
-779 -175 -15 0
-779 -175 79 0
-779 175 15 -79 0
-779 -176 -16 0
-779 -176 80 0
-779 176 16 -80 0
-779 -177 -17 0
-779 -177 81 0
-779 177 17 -81 0
-779 -178 -18 0
-779 -178 82 0
-779 178 18 -82 0
-779 -179 -19 0
-779 -179 83 0
-779 179 19 -83 0
-779 -180 -20 0
-779 -180 84 0
-779 180 20 -84 0
-779 -181 -21 0
-779 -181 85 0
-779 181 21 -85 0
-779 -182 -22 0
-779 -182 86 0
-779 182 22 -86 0
-779 -183 -23 0
-779 -183 87 0
-779 183 23 -87 0
-779 -184 -24 0
-779 -184 88 0
-779 184 24 -88 0
-779 -185 -25 0
-779 -185 89 0
-779 185 25 -89 0
-779 -186 -26 0
-779 -186 90 0
-779 186 26 -90 0
-779 -187 -27 0
-779 -187 91 0
-779 187 27 -91 0
-779 -188 -28 0
-779 -188 92 0
-779 188 28 -92 0
-779 -189 -29 0
-779 -189 93 0
-779 189 29 -93 0
-779 -190 -30 0
-779 -190 94 0
-779 190 30 -94 0
-779 -191 -31 0
-779 -191 95 0
-779 191 31 -95 0
-779 -192 -32 0
-779 -192 96 0
-779 192 32 -96 0
-780 -161 -1 0
-780 -161 -65 0
-780 161 1 65 0
-780 -162 -2 0
-780 -162 -66 0
-780 162 2 66 0
-780 -163 -3 0
-780 -163 -67 0
-780 163 3 67 0
-780 -164 -4 0
-780 -164 -68 0
-780 164 4 68 0
-780 -165 -5 0
-780 -165 -69 0
-780 165 5 69 0
-780 -166 -6 0
-780 -166 -70 0
-780 166 6 70 0
-780 -167 -7 0
-780 -167 -71 0
-780 167 7 71 0
-780 -168 -8 0
-780 -168 -72 0
-780 168 8 72 0
-780 -169 -9 0
-780 -169 -73 0
-780 169 9 73 0
-780 -170 -10 0
-780 -170 -74 0
-780 170 10 74 0
-780 -171 -11 0
-780 -171 -75 0
-780 171 11 75 0
-780 -172 -12 0
-780 -172 -76 0
-780 172 12 76 0
-780 -173 -13 0
-780 -173 -77 0
-780 173 13 77 0
-780 -174 -14 0
-780 -174 -78 0
-780 174 14 78 0
-780 -175 -15 0
-780 -175 -79 0
-780 175 15 79 0
-780 -176 -16 0
-780 -176 -80 0
-780 176 16 80 0
-780 -177 -17 0
-780 -177 -81 0
-780 177 17 81 0
-780 -178 -18 0
-780 -178 -82 0
-780 178 18 82 0
-780 -179 -19 0
-780 -179 -83 0
-780 179 19 83 0
-780 -180 -20 0
-780 -180 -84 0
-780 180 20 84 0
-780 -181 -21 0
-780 -181 -85 0
-780 181 21 85 0
-780 -182 -22 0
-780 -182 -86 0
-780 182 22 86 0
-780 -183 -23 0
-780 -183 -87 0
-780 183 23 87 0
-780 -184 -24 0
-780 -184 -88 0
-780 184 24 88 0
-780 -185 -25 0
-780 -185 -89 0
-780 185 25 89 0
-780 -186 -26 0
-780 -186 -90 0
-780 186 26 90 0
-780 -187 -27 0
-780 -187 -91 0
-780 187 27 91 0
-780 -188 -28 0
-780 -188 -92 0
-780 188 28 92 0
-780 -189 -29 0
-780 -189 -93 0
-780 189 29 93 0
-780 -190 -30 0
-780 -190 -94 0
-780 190 30 94 0
-780 -191 -31 0
-780 -191 -95 0
-780 191 31 95 0
-780 -192 -32 0
-780 -192 -96 0
-780 192 32 96 0
-781 -161 1 0
-781 -161 97 0
-781 161 -1 -97 0
-781 -162 2 0
-781 -162 98 0
-781 162 -2 -98 0
-781 -163 3 0
-781 -163 99 0
-781 163 -3 -99 0
-781 -164 4 0
-781 -164 100 0
-781 164 -4 -100 0
-781 -165 5 0
-781 -165 101 0
-781 165 -5 -101 0
-781 -166 6 0
-781 -166 102 0
-781 166 -6 -102 0
-781 -167 7 0
-781 -167 103 0
-781 167 -7 -103 0
-781 -168 8 0
-781 -168 104 0
-781 168 -8 -104 0
-781 -169 9 0
-781 -169 105 0
-781 169 -9 -105 0
-781 -170 10 0
-781 -170 106 0
-781 170 -10 -106 0
-781 -171 11 0
-781 -171 107 0
-781 171 -11 -107 0
-781 -172 12 0
-781 -172 108 0
-781 172 -12 -108 0
-781 -173 13 0
-781 -173 109 0
-781 173 -13 -109 0
-781 -174 14 0
-781 -174 110 0
-781 174 -14 -110 0
-781 -175 15 0
-781 -175 111 0
-781 175 -15 -111 0
-781 -176 16 0
-781 -176 112 0
-781 176 -16 -112 0
-781 -177 17 0
-781 -177 113 0
-781 177 -17 -113 0
-781 -178 18 0
-781 -178 114 0
-781 178 -18 -114 0
-781 -179 19 0
-781 -179 115 0
-781 179 -19 -115 0
-781 -180 20 0
-781 -180 116 0
-781 180 -20 -116 0
-781 -181 21 0
-781 -181 117 0
-781 181 -21 -117 0
-781 -182 22 0
-781 -182 118 0
-781 182 -22 -118 0
-781 -183 23 0
-781 -183 119 0
-781 183 -23 -119 0
-781 -184 24 0
-781 -184 120 0
-781 184 -24 -120 0
-781 -185 25 0
-781 -185 121 0
-781 185 -25 -121 0
-781 -186 26 0
-781 -186 122 0
-781 186 -26 -122 0
-781 -187 27 0
-781 -187 123 0
-781 187 -27 -123 0
-781 -188 28 0
-781 -188 124 0
-781 188 -28 -124 0
-781 -189 29 0
-781 -189 125 0
-781 189 -29 -125 0
-781 -190 30 0
-781 -190 126 0
-781 190 -30 -126 0
-781 -191 31 0
-781 -191 127 0
-781 191 -31 -127 0
-781 -192 32 0
-781 -192 128 0
-781 192 -32 -128 0
-782 -161 1 0
-782 -161 -97 0
-782 161 -1 97 0
-782 -162 2 0
-782 -162 -98 0
-782 162 -2 98 0
-782 -163 3 0
-782 -163 -99 0
-782 163 -3 99 0
-782 -164 4 0
-782 -164 -100 0
-782 164 -4 100 0
-782 -165 5 0
-782 -165 -101 0
-782 165 -5 101 0
-782 -166 6 0
-782 -166 -102 0
-782 166 -6 102 0
-782 -167 7 0
-782 -167 -103 0
-782 167 -7 103 0
-782 -168 8 0
-782 -168 -104 0
-782 168 -8 104 0
-782 -169 9 0
-782 -169 -105 0
-782 169 -9 105 0
-782 -170 10 0
-782 -170 -106 0
-782 170 -10 106 0
-782 -171 11 0
-782 -171 -107 0
-782 171 -11 107 0
-782 -172 12 0
-782 -172 -108 0
-782 172 -12 108 0
-782 -173 13 0
-782 -173 -109 0
-782 173 -13 109 0
-782 -174 14 0
-782 -174 -110 0
-782 174 -14 110 0
-782 -175 15 0
-782 -175 -111 0
-782 175 -15 111 0
-782 -176 16 0
-782 -176 -112 0
-782 176 -16 112 0
-782 -177 17 0
-782 -177 -113 0
-782 177 -17 113 0
-782 -178 18 0
-782 -178 -114 0
-782 178 -18 114 0
-782 -179 19 0
-782 -179 -115 0
-782 179 -19 115 0
-782 -180 20 0
-782 -180 -116 0
-782 180 -20 116 0
-782 -181 21 0
-782 -181 -117 0
-782 181 -21 117 0
-782 -182 22 0
-782 -182 -118 0
-782 182 -22 118 0
-782 -183 23 0
-782 -183 -119 0
-782 183 -23 119 0
-782 -184 24 0
-782 -184 -120 0
-782 184 -24 120 0
-782 -185 25 0
-782 -185 -121 0
-782 185 -25 121 0
-782 -186 26 0
-782 -186 -122 0
-782 186 -26 122 0
-782 -187 27 0
-782 -187 -123 0
-782 187 -27 123 0
-782 -188 28 0
-782 -188 -124 0
-782 188 -28 124 0
-782 -189 29 0
-782 -189 -125 0
-782 189 -29 125 0
-782 -190 30 0
-782 -190 -126 0
-782 190 -30 126 0
-782 -191 31 0
-782 -191 -127 0
-782 191 -31 127 0
-782 -192 32 0
-782 -192 -128 0
-782 192 -32 128 0
-783 -161 -1 0
-783 -161 97 0
-783 161 1 -97 0
-783 -162 -2 0
-783 -162 98 0
-783 162 2 -98 0
-783 -163 -3 0
-783 -163 99 0
-783 163 3 -99 0
-783 -164 -4 0
-783 -164 100 0
-783 164 4 -100 0
-783 -165 -5 0
-783 -165 101 0
-783 165 5 -101 0
-783 -166 -6 0
-783 -166 102 0
-783 166 6 -102 0
-783 -167 -7 0
-783 -167 103 0
-783 167 7 -103 0
-783 -168 -8 0
-783 -168 104 0
-783 168 8 -104 0
-783 -169 -9 0
-783 -169 105 0
-783 169 9 -105 0
-783 -170 -10 0
-783 -170 106 0
-783 170 10 -106 0
-783 -171 -11 0
-783 -171 107 0
-783 171 11 -107 0
-783 -172 -12 0
-783 -172 108 0
-783 172 12 -108 0
-783 -173 -13 0
-783 -173 109 0
-783 173 13 -109 0
-783 -174 -14 0
-783 -174 110 0
-783 174 14 -110 0
-783 -175 -15 0
-783 -175 111 0
-783 175 15 -111 0
-783 -176 -16 0
-783 -176 112 0
-783 176 16 -112 0
-783 -177 -17 0
-783 -177 113 0
-783 177 17 -113 0
-783 -178 -18 0
-783 -178 114 0
-783 178 18 -114 0
-783 -179 -19 0
-783 -179 115 0
-783 179 19 -115 0
-783 -180 -20 0
-783 -180 116 0
-783 180 20 -116 0
-783 -181 -21 0
-783 -181 117 0
-783 181 21 -117 0
-783 -182 -22 0
-783 -182 118 0
-783 182 22 -118 0
-783 -183 -23 0
-783 -183 119 0
-783 183 23 -119 0
-783 -184 -24 0
-783 -184 120 0
-783 184 24 -120 0
-783 -185 -25 0
-783 -185 121 0
-783 185 25 -121 0
-783 -186 -26 0
-783 -186 122 0
-783 186 26 -122 0
-783 -187 -27 0
-783 -187 123 0
-783 187 27 -123 0
-783 -188 -28 0
-783 -188 124 0
-783 188 28 -124 0
-783 -189 -29 0
-783 -189 125 0
-783 189 29 -125 0
-783 -190 -30 0
-783 -190 126 0
-783 190 30 -126 0
-783 -191 -31 0
-783 -191 127 0
-783 191 31 -127 0
-783 -192 -32 0
-783 -192 128 0
-783 192 32 -128 0
-784 -161 -1 0
-784 -161 -97 0
-784 161 1 97 0
-784 -162 -2 0
-784 -162 -98 0
-784 162 2 98 0
-784 -163 -3 0
-784 -163 -99 0
-784 163 3 99 0
-784 -164 -4 0
-784 -164 -100 0
-784 164 4 100 0
-784 -165 -5 0
-784 -165 -101 0
-784 165 5 101 0
-784 -166 -6 0
-784 -166 -102 0
-784 166 6 102 0
-784 -167 -7 0
-784 -167 -103 0
-784 167 7 103 0
-784 -168 -8 0
-784 -168 -104 0
-784 168 8 104 0
-784 -169 -9 0
-784 -169 -105 0
-784 169 9 105 0
-784 -170 -10 0
-784 -170 -106 0
-784 170 10 106 0
-784 -171 -11 0
-784 -171 -107 0
-784 171 11 107 0
-784 -172 -12 0
-784 -172 -108 0
-784 172 12 108 0
-784 -173 -13 0
-784 -173 -109 0
-784 173 13 109 0
-784 -174 -14 0
-784 -174 -110 0
-784 174 14 110 0
-784 -175 -15 0
-784 -175 -111 0
-784 175 15 111 0
-784 -176 -16 0
-784 -176 -112 0
-784 176 16 112 0
-784 -177 -17 0
-784 -177 -113 0
-784 177 17 113 0
-784 -178 -18 0
-784 -178 -114 0
-784 178 18 114 0
-784 -179 -19 0
-784 -179 -115 0
-784 179 19 115 0
-784 -180 -20 0
-784 -180 -116 0
-784 180 20 116 0
-784 -181 -21 0
-784 -181 -117 0
-784 181 21 117 0
-784 -182 -22 0
-784 -182 -118 0
-784 182 22 118 0
-784 -183 -23 0
-784 -183 -119 0
-784 183 23 119 0
-784 -184 -24 0
-784 -184 -120 0
-784 184 24 120 0
-784 -185 -25 0
-784 -185 -121 0
-784 185 25 121 0
-784 -186 -26 0
-784 -186 -122 0
-784 186 26 122 0
-784 -187 -27 0
-784 -187 -123 0
-784 187 27 123 0
-784 -188 -28 0
-784 -188 -124 0
-784 188 28 124 0
-784 -189 -29 0
-784 -189 -125 0
-784 189 29 125 0
-784 -190 -30 0
-784 -190 -126 0
-784 190 30 126 0
-784 -191 -31 0
-784 -191 -127 0
-784 191 31 127 0
-784 -192 -32 0
-784 -192 -128 0
-784 192 32 128 0
-785 -161 1 0
-785 -161 129 0
-785 161 -1 -129 0
-785 -162 2 0
-785 -162 130 0
-785 162 -2 -130 0
-785 -163 3 0
-785 -163 131 0
-785 163 -3 -131 0
-785 -164 4 0
-785 -164 132 0
-785 164 -4 -132 0
-785 -165 5 0
-785 -165 133 0
-785 165 -5 -133 0
-785 -166 6 0
-785 -166 134 0
-785 166 -6 -134 0
-785 -167 7 0
-785 -167 135 0
-785 167 -7 -135 0
-785 -168 8 0
-785 -168 136 0
-785 168 -8 -136 0
-785 -169 9 0
-785 -169 137 0
-785 169 -9 -137 0
-785 -170 10 0
-785 -170 138 0
-785 170 -10 -138 0
-785 -171 11 0
-785 -171 139 0
-785 171 -11 -139 0
-785 -172 12 0
-785 -172 140 0
-785 172 -12 -140 0
-785 -173 13 0
-785 -173 141 0
-785 173 -13 -141 0
-785 -174 14 0
-785 -174 142 0
-785 174 -14 -142 0
-785 -175 15 0
-785 -175 143 0
-785 175 -15 -143 0
-785 -176 16 0
-785 -176 144 0
-785 176 -16 -144 0
-785 -177 17 0
-785 -177 145 0
-785 177 -17 -145 0
-785 -178 18 0
-785 -178 146 0
-785 178 -18 -146 0
-785 -179 19 0
-785 -179 147 0
-785 179 -19 -147 0
-785 -180 20 0
-785 -180 148 0
-785 180 -20 -148 0
-785 -181 21 0
-785 -181 149 0
-785 181 -21 -149 0
-785 -182 22 0
-785 -182 150 0
-785 182 -22 -150 0
-785 -183 23 0
-785 -183 151 0
-785 183 -23 -151 0
-785 -184 24 0
-785 -184 152 0
-785 184 -24 -152 0
-785 -185 25 0
-785 -185 153 0
-785 185 -25 -153 0
-785 -186 26 0
-785 -186 154 0
-785 186 -26 -154 0
-785 -187 27 0
-785 -187 155 0
-785 187 -27 -155 0
-785 -188 28 0
-785 -188 156 0
-785 188 -28 -156 0
-785 -189 29 0
-785 -189 157 0
-785 189 -29 -157 0
-785 -190 30 0
-785 -190 158 0
-785 190 -30 -158 0
-785 -191 31 0
-785 -191 159 0
-785 191 -31 -159 0
-785 -192 32 0
-785 -192 160 0
-785 192 -32 -160 0
-786 -161 1 0
-786 -161 -129 0
-786 161 -1 129 0
-786 -162 2 0
-786 -162 -130 0
-786 162 -2 130 0
-786 -163 3 0
-786 -163 -131 0
-786 163 -3 131 0
-786 -164 4 0
-786 -164 -132 0
-786 164 -4 132 0
-786 -165 5 0
-786 -165 -133 0
-786 165 -5 133 0
-786 -166 6 0
-786 -166 -134 0
-786 166 -6 134 0
-786 -167 7 0
-786 -167 -135 0
-786 167 -7 135 0
-786 -168 8 0
-786 -168 -136 0
-786 168 -8 136 0
-786 -169 9 0
-786 -169 -137 0
-786 169 -9 137 0
-786 -170 10 0
-786 -170 -138 0
-786 170 -10 138 0
-786 -171 11 0
-786 -171 -139 0
-786 171 -11 139 0
-786 -172 12 0
-786 -172 -140 0
-786 172 -12 140 0
-786 -173 13 0
-786 -173 -141 0
-786 173 -13 141 0
-786 -174 14 0
-786 -174 -142 0
-786 174 -14 142 0
-786 -175 15 0
-786 -175 -143 0
-786 175 -15 143 0
-786 -176 16 0
-786 -176 -144 0
-786 176 -16 144 0
-786 -177 17 0
-786 -177 -145 0
-786 177 -17 145 0
-786 -178 18 0
-786 -178 -146 0
-786 178 -18 146 0
-786 -179 19 0
-786 -179 -147 0
-786 179 -19 147 0
-786 -180 20 0
-786 -180 -148 0
-786 180 -20 148 0
-786 -181 21 0
-786 -181 -149 0
-786 181 -21 149 0
-786 -182 22 0
-786 -182 -150 0
-786 182 -22 150 0
-786 -183 23 0
-786 -183 -151 0
-786 183 -23 151 0
-786 -184 24 0
-786 -184 -152 0
-786 184 -24 152 0
-786 -185 25 0
-786 -185 -153 0
-786 185 -25 153 0
-786 -186 26 0
-786 -186 -154 0
-786 186 -26 154 0
-786 -187 27 0
-786 -187 -155 0
-786 187 -27 155 0
-786 -188 28 0
-786 -188 -156 0
-786 188 -28 156 0
-786 -189 29 0
-786 -189 -157 0
-786 189 -29 157 0
-786 -190 30 0
-786 -190 -158 0
-786 190 -30 158 0
-786 -191 31 0
-786 -191 -159 0
-786 191 -31 159 0
-786 -192 32 0
-786 -192 -160 0
-786 192 -32 160 0
-787 -161 -1 0
-787 -161 129 0
-787 161 1 -129 0
-787 -162 -2 0
-787 -162 130 0
-787 162 2 -130 0
-787 -163 -3 0
-787 -163 131 0
-787 163 3 -131 0
-787 -164 -4 0
-787 -164 132 0
-787 164 4 -132 0
-787 -165 -5 0
-787 -165 133 0
-787 165 5 -133 0
-787 -166 -6 0
-787 -166 134 0
-787 166 6 -134 0
-787 -167 -7 0
-787 -167 135 0
-787 167 7 -135 0
-787 -168 -8 0
-787 -168 136 0
-787 168 8 -136 0
-787 -169 -9 0
-787 -169 137 0
-787 169 9 -137 0
-787 -170 -10 0
-787 -170 138 0
-787 170 10 -138 0
-787 -171 -11 0
-787 -171 139 0
-787 171 11 -139 0
-787 -172 -12 0
-787 -172 140 0
-787 172 12 -140 0
-787 -173 -13 0
-787 -173 141 0
-787 173 13 -141 0
-787 -174 -14 0
-787 -174 142 0
-787 174 14 -142 0
-787 -175 -15 0
-787 -175 143 0
-787 175 15 -143 0
-787 -176 -16 0
-787 -176 144 0
-787 176 16 -144 0
-787 -177 -17 0
-787 -177 145 0
-787 177 17 -145 0
-787 -178 -18 0
-787 -178 146 0
-787 178 18 -146 0
-787 -179 -19 0
-787 -179 147 0
-787 179 19 -147 0
-787 -180 -20 0
-787 -180 148 0
-787 180 20 -148 0
-787 -181 -21 0
-787 -181 149 0
-787 181 21 -149 0
-787 -182 -22 0
-787 -182 150 0
-787 182 22 -150 0
-787 -183 -23 0
-787 -183 151 0
-787 183 23 -151 0
-787 -184 -24 0
-787 -184 152 0
-787 184 24 -152 0
-787 -185 -25 0
-787 -185 153 0
-787 185 25 -153 0
-787 -186 -26 0
-787 -186 154 0
-787 186 26 -154 0
-787 -187 -27 0
-787 -187 155 0
-787 187 27 -155 0
-787 -188 -28 0
-787 -188 156 0
-787 188 28 -156 0
-787 -189 -29 0
-787 -189 157 0
-787 189 29 -157 0
-787 -190 -30 0
-787 -190 158 0
-787 190 30 -158 0
-787 -191 -31 0
-787 -191 159 0
-787 191 31 -159 0
-787 -192 -32 0
-787 -192 160 0
-787 192 32 -160 0
-788 -161 -1 0
-788 -161 -129 0
-788 161 1 129 0
-788 -162 -2 0
-788 -162 -130 0
-788 162 2 130 0
-788 -163 -3 0
-788 -163 -131 0
-788 163 3 131 0
-788 -164 -4 0
-788 -164 -132 0
-788 164 4 132 0
-788 -165 -5 0
-788 -165 -133 0
-788 165 5 133 0
-788 -166 -6 0
-788 -166 -134 0
-788 166 6 134 0
-788 -167 -7 0
-788 -167 -135 0
-788 167 7 135 0
-788 -168 -8 0
-788 -168 -136 0
-788 168 8 136 0
-788 -169 -9 0
-788 -169 -137 0
-788 169 9 137 0
-788 -170 -10 0
-788 -170 -138 0
-788 170 10 138 0
-788 -171 -11 0
-788 -171 -139 0
-788 171 11 139 0
-788 -172 -12 0
-788 -172 -140 0
-788 172 12 140 0
-788 -173 -13 0
-788 -173 -141 0
-788 173 13 141 0
-788 -174 -14 0
-788 -174 -142 0
-788 174 14 142 0
-788 -175 -15 0
-788 -175 -143 0
-788 175 15 143 0
-788 -176 -16 0
-788 -176 -144 0
-788 176 16 144 0
-788 -177 -17 0
-788 -177 -145 0
-788 177 17 145 0
-788 -178 -18 0
-788 -178 -146 0
-788 178 18 146 0
-788 -179 -19 0
-788 -179 -147 0
-788 179 19 147 0
-788 -180 -20 0
-788 -180 -148 0
-788 180 20 148 0
-788 -181 -21 0
-788 -181 -149 0
-788 181 21 149 0
-788 -182 -22 0
-788 -182 -150 0
-788 182 22 150 0
-788 -183 -23 0
-788 -183 -151 0
-788 183 23 151 0
-788 -184 -24 0
-788 -184 -152 0
-788 184 24 152 0
-788 -185 -25 0
-788 -185 -153 0
-788 185 25 153 0
-788 -186 -26 0
-788 -186 -154 0
-788 186 26 154 0
-788 -187 -27 0
-788 -187 -155 0
-788 187 27 155 0
-788 -188 -28 0
-788 -188 -156 0
-788 188 28 156 0
-788 -189 -29 0
-788 -189 -157 0
-788 189 29 157 0
-788 -190 -30 0
-788 -190 -158 0
-788 190 30 158 0
-788 -191 -31 0
-788 -191 -159 0
-788 191 31 159 0
-788 -192 -32 0
-788 -192 -160 0
-788 192 32 160 0
-789 -161 33 0
-789 -161 65 0
-789 161 -33 -65 0
-789 -162 34 0
-789 -162 66 0
-789 162 -34 -66 0
-789 -163 35 0
-789 -163 67 0
-789 163 -35 -67 0
-789 -164 36 0
-789 -164 68 0
-789 164 -36 -68 0
-789 -165 37 0
-789 -165 69 0
-789 165 -37 -69 0
-789 -166 38 0
-789 -166 70 0
-789 166 -38 -70 0
-789 -167 39 0
-789 -167 71 0
-789 167 -39 -71 0
-789 -168 40 0
-789 -168 72 0
-789 168 -40 -72 0
-789 -169 41 0
-789 -169 73 0
-789 169 -41 -73 0
-789 -170 42 0
-789 -170 74 0
-789 170 -42 -74 0
-789 -171 43 0
-789 -171 75 0
-789 171 -43 -75 0
-789 -172 44 0
-789 -172 76 0
-789 172 -44 -76 0
-789 -173 45 0
-789 -173 77 0
-789 173 -45 -77 0
-789 -174 46 0
-789 -174 78 0
-789 174 -46 -78 0
-789 -175 47 0
-789 -175 79 0
-789 175 -47 -79 0
-789 -176 48 0
-789 -176 80 0
-789 176 -48 -80 0
-789 -177 49 0
-789 -177 81 0
-789 177 -49 -81 0
-789 -178 50 0
-789 -178 82 0
-789 178 -50 -82 0
-789 -179 51 0
-789 -179 83 0
-789 179 -51 -83 0
-789 -180 52 0
-789 -180 84 0
-789 180 -52 -84 0
-789 -181 53 0
-789 -181 85 0
-789 181 -53 -85 0
-789 -182 54 0
-789 -182 86 0
-789 182 -54 -86 0
-789 -183 55 0
-789 -183 87 0
-789 183 -55 -87 0
-789 -184 56 0
-789 -184 88 0
-789 184 -56 -88 0
-789 -185 57 0
-789 -185 89 0
-789 185 -57 -89 0
-789 -186 58 0
-789 -186 90 0
-789 186 -58 -90 0
-789 -187 59 0
-789 -187 91 0
-789 187 -59 -91 0
-789 -188 60 0
-789 -188 92 0
-789 188 -60 -92 0
-789 -189 61 0
-789 -189 93 0
-789 189 -61 -93 0
-789 -190 62 0
-789 -190 94 0
-789 190 -62 -94 0
-789 -191 63 0
-789 -191 95 0
-789 191 -63 -95 0
-789 -192 64 0
-789 -192 96 0
-789 192 -64 -96 0
-790 -161 33 0
-790 -161 -65 0
-790 161 -33 65 0
-790 -162 34 0
-790 -162 -66 0
-790 162 -34 66 0
-790 -163 35 0
-790 -163 -67 0
-790 163 -35 67 0
-790 -164 36 0
-790 -164 -68 0
-790 164 -36 68 0
-790 -165 37 0
-790 -165 -69 0
-790 165 -37 69 0
-790 -166 38 0
-790 -166 -70 0
-790 166 -38 70 0
-790 -167 39 0
-790 -167 -71 0
-790 167 -39 71 0
-790 -168 40 0
-790 -168 -72 0
-790 168 -40 72 0
-790 -169 41 0
-790 -169 -73 0
-790 169 -41 73 0
-790 -170 42 0
-790 -170 -74 0
-790 170 -42 74 0
-790 -171 43 0
-790 -171 -75 0
-790 171 -43 75 0
-790 -172 44 0
-790 -172 -76 0
-790 172 -44 76 0
-790 -173 45 0
-790 -173 -77 0
-790 173 -45 77 0
-790 -174 46 0
-790 -174 -78 0
-790 174 -46 78 0
-790 -175 47 0
-790 -175 -79 0
-790 175 -47 79 0
-790 -176 48 0
-790 -176 -80 0
-790 176 -48 80 0
-790 -177 49 0
-790 -177 -81 0
-790 177 -49 81 0
-790 -178 50 0
-790 -178 -82 0
-790 178 -50 82 0
-790 -179 51 0
-790 -179 -83 0
-790 179 -51 83 0
-790 -180 52 0
-790 -180 -84 0
-790 180 -52 84 0
-790 -181 53 0
-790 -181 -85 0
-790 181 -53 85 0
-790 -182 54 0
-790 -182 -86 0
-790 182 -54 86 0
-790 -183 55 0
-790 -183 -87 0
-790 183 -55 87 0
-790 -184 56 0
-790 -184 -88 0
-790 184 -56 88 0
-790 -185 57 0
-790 -185 -89 0
-790 185 -57 89 0
-790 -186 58 0
-790 -186 -90 0
-790 186 -58 90 0
-790 -187 59 0
-790 -187 -91 0
-790 187 -59 91 0
-790 -188 60 0
-790 -188 -92 0
-790 188 -60 92 0
-790 -189 61 0
-790 -189 -93 0
-790 189 -61 93 0
-790 -190 62 0
-790 -190 -94 0
-790 190 -62 94 0
-790 -191 63 0
-790 -191 -95 0
-790 191 -63 95 0
-790 -192 64 0
-790 -192 -96 0
-790 192 -64 96 0
-791 -161 -33 0
-791 -161 65 0
-791 161 33 -65 0
-791 -162 -34 0
-791 -162 66 0
-791 162 34 -66 0
-791 -163 -35 0
-791 -163 67 0
-791 163 35 -67 0
-791 -164 -36 0
-791 -164 68 0
-791 164 36 -68 0
-791 -165 -37 0
-791 -165 69 0
-791 165 37 -69 0
-791 -166 -38 0
-791 -166 70 0
-791 166 38 -70 0
-791 -167 -39 0
-791 -167 71 0
-791 167 39 -71 0
-791 -168 -40 0
-791 -168 72 0
-791 168 40 -72 0
-791 -169 -41 0
-791 -169 73 0
-791 169 41 -73 0
-791 -170 -42 0
-791 -170 74 0
-791 170 42 -74 0
-791 -171 -43 0
-791 -171 75 0
-791 171 43 -75 0
-791 -172 -44 0
-791 -172 76 0
-791 172 44 -76 0
-791 -173 -45 0
-791 -173 77 0
-791 173 45 -77 0
-791 -174 -46 0
-791 -174 78 0
-791 174 46 -78 0
-791 -175 -47 0
-791 -175 79 0
-791 175 47 -79 0
-791 -176 -48 0
-791 -176 80 0
-791 176 48 -80 0
-791 -177 -49 0
-791 -177 81 0
-791 177 49 -81 0
-791 -178 -50 0
-791 -178 82 0
-791 178 50 -82 0
-791 -179 -51 0
-791 -179 83 0
-791 179 51 -83 0
-791 -180 -52 0
-791 -180 84 0
-791 180 52 -84 0
-791 -181 -53 0
-791 -181 85 0
-791 181 53 -85 0
-791 -182 -54 0
-791 -182 86 0
-791 182 54 -86 0
-791 -183 -55 0
-791 -183 87 0
-791 183 55 -87 0
-791 -184 -56 0
-791 -184 88 0
-791 184 56 -88 0
-791 -185 -57 0
-791 -185 89 0
-791 185 57 -89 0
-791 -186 -58 0
-791 -186 90 0
-791 186 58 -90 0
-791 -187 -59 0
-791 -187 91 0
-791 187 59 -91 0
-791 -188 -60 0
-791 -188 92 0
-791 188 60 -92 0
-791 -189 -61 0
-791 -189 93 0
-791 189 61 -93 0
-791 -190 -62 0
-791 -190 94 0
-791 190 62 -94 0
-791 -191 -63 0
-791 -191 95 0
-791 191 63 -95 0
-791 -192 -64 0
-791 -192 96 0
-791 192 64 -96 0
-792 -161 -33 0
-792 -161 -65 0
-792 161 33 65 0
-792 -162 -34 0
-792 -162 -66 0
-792 162 34 66 0
-792 -163 -35 0
-792 -163 -67 0
-792 163 35 67 0
-792 -164 -36 0
-792 -164 -68 0
-792 164 36 68 0
-792 -165 -37 0
-792 -165 -69 0
-792 165 37 69 0
-792 -166 -38 0
-792 -166 -70 0
-792 166 38 70 0
-792 -167 -39 0
-792 -167 -71 0
-792 167 39 71 0
-792 -168 -40 0
-792 -168 -72 0
-792 168 40 72 0
-792 -169 -41 0
-792 -169 -73 0
-792 169 41 73 0
-792 -170 -42 0
-792 -170 -74 0
-792 170 42 74 0
-792 -171 -43 0
-792 -171 -75 0
-792 171 43 75 0
-792 -172 -44 0
-792 -172 -76 0
-792 172 44 76 0
-792 -173 -45 0
-792 -173 -77 0
-792 173 45 77 0
-792 -174 -46 0
-792 -174 -78 0
-792 174 46 78 0
-792 -175 -47 0
-792 -175 -79 0
-792 175 47 79 0
-792 -176 -48 0
-792 -176 -80 0
-792 176 48 80 0
-792 -177 -49 0
-792 -177 -81 0
-792 177 49 81 0
-792 -178 -50 0
-792 -178 -82 0
-792 178 50 82 0
-792 -179 -51 0
-792 -179 -83 0
-792 179 51 83 0
-792 -180 -52 0
-792 -180 -84 0
-792 180 52 84 0
-792 -181 -53 0
-792 -181 -85 0
-792 181 53 85 0
-792 -182 -54 0
-792 -182 -86 0
-792 182 54 86 0
-792 -183 -55 0
-792 -183 -87 0
-792 183 55 87 0
-792 -184 -56 0
-792 -184 -88 0
-792 184 56 88 0
-792 -185 -57 0
-792 -185 -89 0
-792 185 57 89 0
-792 -186 -58 0
-792 -186 -90 0
-792 186 58 90 0
-792 -187 -59 0
-792 -187 -91 0
-792 187 59 91 0
-792 -188 -60 0
-792 -188 -92 0
-792 188 60 92 0
-792 -189 -61 0
-792 -189 -93 0
-792 189 61 93 0
-792 -190 -62 0
-792 -190 -94 0
-792 190 62 94 0
-792 -191 -63 0
-792 -191 -95 0
-792 191 63 95 0
-792 -192 -64 0
-792 -192 -96 0
-792 192 64 96 0
-793 -161 33 0
-793 -161 97 0
-793 161 -33 -97 0
-793 -162 34 0
-793 -162 98 0
-793 162 -34 -98 0
-793 -163 35 0
-793 -163 99 0
-793 163 -35 -99 0
-793 -164 36 0
-793 -164 100 0
-793 164 -36 -100 0
-793 -165 37 0
-793 -165 101 0
-793 165 -37 -101 0
-793 -166 38 0
-793 -166 102 0
-793 166 -38 -102 0
-793 -167 39 0
-793 -167 103 0
-793 167 -39 -103 0
-793 -168 40 0
-793 -168 104 0
-793 168 -40 -104 0
-793 -169 41 0
-793 -169 105 0
-793 169 -41 -105 0
-793 -170 42 0
-793 -170 106 0
-793 170 -42 -106 0
-793 -171 43 0
-793 -171 107 0
-793 171 -43 -107 0
-793 -172 44 0
-793 -172 108 0
-793 172 -44 -108 0
-793 -173 45 0
-793 -173 109 0
-793 173 -45 -109 0
-793 -174 46 0
-793 -174 110 0
-793 174 -46 -110 0
-793 -175 47 0
-793 -175 111 0
-793 175 -47 -111 0
-793 -176 48 0
-793 -176 112 0
-793 176 -48 -112 0
-793 -177 49 0
-793 -177 113 0
-793 177 -49 -113 0
-793 -178 50 0
-793 -178 114 0
-793 178 -50 -114 0
-793 -179 51 0
-793 -179 115 0
-793 179 -51 -115 0
-793 -180 52 0
-793 -180 116 0
-793 180 -52 -116 0
-793 -181 53 0
-793 -181 117 0
-793 181 -53 -117 0
-793 -182 54 0
-793 -182 118 0
-793 182 -54 -118 0
-793 -183 55 0
-793 -183 119 0
-793 183 -55 -119 0
-793 -184 56 0
-793 -184 120 0
-793 184 -56 -120 0
-793 -185 57 0
-793 -185 121 0
-793 185 -57 -121 0
-793 -186 58 0
-793 -186 122 0
-793 186 -58 -122 0
-793 -187 59 0
-793 -187 123 0
-793 187 -59 -123 0
-793 -188 60 0
-793 -188 124 0
-793 188 -60 -124 0
-793 -189 61 0
-793 -189 125 0
-793 189 -61 -125 0
-793 -190 62 0
-793 -190 126 0
-793 190 -62 -126 0
-793 -191 63 0
-793 -191 127 0
-793 191 -63 -127 0
-793 -192 64 0
-793 -192 128 0
-793 192 -64 -128 0
-794 -161 33 0
-794 -161 -97 0
-794 161 -33 97 0
-794 -162 34 0
-794 -162 -98 0
-794 162 -34 98 0
-794 -163 35 0
-794 -163 -99 0
-794 163 -35 99 0
-794 -164 36 0
-794 -164 -100 0
-794 164 -36 100 0
-794 -165 37 0
-794 -165 -101 0
-794 165 -37 101 0
-794 -166 38 0
-794 -166 -102 0
-794 166 -38 102 0
-794 -167 39 0
-794 -167 -103 0
-794 167 -39 103 0
-794 -168 40 0
-794 -168 -104 0
-794 168 -40 104 0
-794 -169 41 0
-794 -169 -105 0
-794 169 -41 105 0
-794 -170 42 0
-794 -170 -106 0
-794 170 -42 106 0
-794 -171 43 0
-794 -171 -107 0
-794 171 -43 107 0
-794 -172 44 0
-794 -172 -108 0
-794 172 -44 108 0
-794 -173 45 0
-794 -173 -109 0
-794 173 -45 109 0
-794 -174 46 0
-794 -174 -110 0
-794 174 -46 110 0
-794 -175 47 0
-794 -175 -111 0
-794 175 -47 111 0
-794 -176 48 0
-794 -176 -112 0
-794 176 -48 112 0
-794 -177 49 0
-794 -177 -113 0
-794 177 -49 113 0
-794 -178 50 0
-794 -178 -114 0
-794 178 -50 114 0
-794 -179 51 0
-794 -179 -115 0
-794 179 -51 115 0
-794 -180 52 0
-794 -180 -116 0
-794 180 -52 116 0
-794 -181 53 0
-794 -181 -117 0
-794 181 -53 117 0
-794 -182 54 0
-794 -182 -118 0
-794 182 -54 118 0
-794 -183 55 0
-794 -183 -119 0
-794 183 -55 119 0
-794 -184 56 0
-794 -184 -120 0
-794 184 -56 120 0
-794 -185 57 0
-794 -185 -121 0
-794 185 -57 121 0
-794 -186 58 0
-794 -186 -122 0
-794 186 -58 122 0
-794 -187 59 0
-794 -187 -123 0
-794 187 -59 123 0
-794 -188 60 0
-794 -188 -124 0
-794 188 -60 124 0
-794 -189 61 0
-794 -189 -125 0
-794 189 -61 125 0
-794 -190 62 0
-794 -190 -126 0
-794 190 -62 126 0
-794 -191 63 0
-794 -191 -127 0
-794 191 -63 127 0
-794 -192 64 0
-794 -192 -128 0
-794 192 -64 128 0
-795 -161 -33 0
-795 -161 97 0
-795 161 33 -97 0
-795 -162 -34 0
-795 -162 98 0
-795 162 34 -98 0
-795 -163 -35 0
-795 -163 99 0
-795 163 35 -99 0
-795 -164 -36 0
-795 -164 100 0
-795 164 36 -100 0
-795 -165 -37 0
-795 -165 101 0
-795 165 37 -101 0
-795 -166 -38 0
-795 -166 102 0
-795 166 38 -102 0
-795 -167 -39 0
-795 -167 103 0
-795 167 39 -103 0
-795 -168 -40 0
-795 -168 104 0
-795 168 40 -104 0
-795 -169 -41 0
-795 -169 105 0
-795 169 41 -105 0
-795 -170 -42 0
-795 -170 106 0
-795 170 42 -106 0
-795 -171 -43 0
-795 -171 107 0
-795 171 43 -107 0
-795 -172 -44 0
-795 -172 108 0
-795 172 44 -108 0
-795 -173 -45 0
-795 -173 109 0
-795 173 45 -109 0
-795 -174 -46 0
-795 -174 110 0
-795 174 46 -110 0
-795 -175 -47 0
-795 -175 111 0
-795 175 47 -111 0
-795 -176 -48 0
-795 -176 112 0
-795 176 48 -112 0
-795 -177 -49 0
-795 -177 113 0
-795 177 49 -113 0
-795 -178 -50 0
-795 -178 114 0
-795 178 50 -114 0
-795 -179 -51 0
-795 -179 115 0
-795 179 51 -115 0
-795 -180 -52 0
-795 -180 116 0
-795 180 52 -116 0
-795 -181 -53 0
-795 -181 117 0
-795 181 53 -117 0
-795 -182 -54 0
-795 -182 118 0
-795 182 54 -118 0
-795 -183 -55 0
-795 -183 119 0
-795 183 55 -119 0
-795 -184 -56 0
-795 -184 120 0
-795 184 56 -120 0
-795 -185 -57 0
-795 -185 121 0
-795 185 57 -121 0
-795 -186 -58 0
-795 -186 122 0
-795 186 58 -122 0
-795 -187 -59 0
-795 -187 123 0
-795 187 59 -123 0
-795 -188 -60 0
-795 -188 124 0
-795 188 60 -124 0
-795 -189 -61 0
-795 -189 125 0
-795 189 61 -125 0
-795 -190 -62 0
-795 -190 126 0
-795 190 62 -126 0
-795 -191 -63 0
-795 -191 127 0
-795 191 63 -127 0
-795 -192 -64 0
-795 -192 128 0
-795 192 64 -128 0
-796 -161 -33 0
-796 -161 -97 0
-796 161 33 97 0
-796 -162 -34 0
-796 -162 -98 0
-796 162 34 98 0
-796 -163 -35 0
-796 -163 -99 0
-796 163 35 99 0
-796 -164 -36 0
-796 -164 -100 0
-796 164 36 100 0
-796 -165 -37 0
-796 -165 -101 0
-796 165 37 101 0
-796 -166 -38 0
-796 -166 -102 0
-796 166 38 102 0
-796 -167 -39 0
-796 -167 -103 0
-796 167 39 103 0
-796 -168 -40 0
-796 -168 -104 0
-796 168 40 104 0
-796 -169 -41 0
-796 -169 -105 0
-796 169 41 105 0
-796 -170 -42 0
-796 -170 -106 0
-796 170 42 106 0
-796 -171 -43 0
-796 -171 -107 0
-796 171 43 107 0
-796 -172 -44 0
-796 -172 -108 0
-796 172 44 108 0
-796 -173 -45 0
-796 -173 -109 0
-796 173 45 109 0
-796 -174 -46 0
-796 -174 -110 0
-796 174 46 110 0
-796 -175 -47 0
-796 -175 -111 0
-796 175 47 111 0
-796 -176 -48 0
-796 -176 -112 0
-796 176 48 112 0
-796 -177 -49 0
-796 -177 -113 0
-796 177 49 113 0
-796 -178 -50 0
-796 -178 -114 0
-796 178 50 114 0
-796 -179 -51 0
-796 -179 -115 0
-796 179 51 115 0
-796 -180 -52 0
-796 -180 -116 0
-796 180 52 116 0
-796 -181 -53 0
-796 -181 -117 0
-796 181 53 117 0
-796 -182 -54 0
-796 -182 -118 0
-796 182 54 118 0
-796 -183 -55 0
-796 -183 -119 0
-796 183 55 119 0
-796 -184 -56 0
-796 -184 -120 0
-796 184 56 120 0
-796 -185 -57 0
-796 -185 -121 0
-796 185 57 121 0
-796 -186 -58 0
-796 -186 -122 0
-796 186 58 122 0
-796 -187 -59 0
-796 -187 -123 0
-796 187 59 123 0
-796 -188 -60 0
-796 -188 -124 0
-796 188 60 124 0
-796 -189 -61 0
-796 -189 -125 0
-796 189 61 125 0
-796 -190 -62 0
-796 -190 -126 0
-796 190 62 126 0
-796 -191 -63 0
-796 -191 -127 0
-796 191 63 127 0
-796 -192 -64 0
-796 -192 -128 0
-796 192 64 128 0
-797 -161 33 0
-797 -161 129 0
-797 161 -33 -129 0
-797 -162 34 0
-797 -162 130 0
-797 162 -34 -130 0
-797 -163 35 0
-797 -163 131 0
-797 163 -35 -131 0
-797 -164 36 0
-797 -164 132 0
-797 164 -36 -132 0
-797 -165 37 0
-797 -165 133 0
-797 165 -37 -133 0
-797 -166 38 0
-797 -166 134 0
-797 166 -38 -134 0
-797 -167 39 0
-797 -167 135 0
-797 167 -39 -135 0
-797 -168 40 0
-797 -168 136 0
-797 168 -40 -136 0
-797 -169 41 0
-797 -169 137 0
-797 169 -41 -137 0
-797 -170 42 0
-797 -170 138 0
-797 170 -42 -138 0
-797 -171 43 0
-797 -171 139 0
-797 171 -43 -139 0
-797 -172 44 0
-797 -172 140 0
-797 172 -44 -140 0
-797 -173 45 0
-797 -173 141 0
-797 173 -45 -141 0
-797 -174 46 0
-797 -174 142 0
-797 174 -46 -142 0
-797 -175 47 0
-797 -175 143 0
-797 175 -47 -143 0
-797 -176 48 0
-797 -176 144 0
-797 176 -48 -144 0
-797 -177 49 0
-797 -177 145 0
-797 177 -49 -145 0
-797 -178 50 0
-797 -178 146 0
-797 178 -50 -146 0
-797 -179 51 0
-797 -179 147 0
-797 179 -51 -147 0
-797 -180 52 0
-797 -180 148 0
-797 180 -52 -148 0
-797 -181 53 0
-797 -181 149 0
-797 181 -53 -149 0
-797 -182 54 0
-797 -182 150 0
-797 182 -54 -150 0
-797 -183 55 0
-797 -183 151 0
-797 183 -55 -151 0
-797 -184 56 0
-797 -184 152 0
-797 184 -56 -152 0
-797 -185 57 0
-797 -185 153 0
-797 185 -57 -153 0
-797 -186 58 0
-797 -186 154 0
-797 186 -58 -154 0
-797 -187 59 0
-797 -187 155 0
-797 187 -59 -155 0
-797 -188 60 0
-797 -188 156 0
-797 188 -60 -156 0
-797 -189 61 0
-797 -189 157 0
-797 189 -61 -157 0
-797 -190 62 0
-797 -190 158 0
-797 190 -62 -158 0
-797 -191 63 0
-797 -191 159 0
-797 191 -63 -159 0
-797 -192 64 0
-797 -192 160 0
-797 192 -64 -160 0
-798 -161 33 0
-798 -161 -129 0
-798 161 -33 129 0
-798 -162 34 0
-798 -162 -130 0
-798 162 -34 130 0
-798 -163 35 0
-798 -163 -131 0
-798 163 -35 131 0
-798 -164 36 0
-798 -164 -132 0
-798 164 -36 132 0
-798 -165 37 0
-798 -165 -133 0
-798 165 -37 133 0
-798 -166 38 0
-798 -166 -134 0
-798 166 -38 134 0
-798 -167 39 0
-798 -167 -135 0
-798 167 -39 135 0
-798 -168 40 0
-798 -168 -136 0
-798 168 -40 136 0
-798 -169 41 0
-798 -169 -137 0
-798 169 -41 137 0
-798 -170 42 0
-798 -170 -138 0
-798 170 -42 138 0
-798 -171 43 0
-798 -171 -139 0
-798 171 -43 139 0
-798 -172 44 0
-798 -172 -140 0
-798 172 -44 140 0
-798 -173 45 0
-798 -173 -141 0
-798 173 -45 141 0
-798 -174 46 0
-798 -174 -142 0
-798 174 -46 142 0
-798 -175 47 0
-798 -175 -143 0
-798 175 -47 143 0
-798 -176 48 0
-798 -176 -144 0
-798 176 -48 144 0
-798 -177 49 0
-798 -177 -145 0
-798 177 -49 145 0
-798 -178 50 0
-798 -178 -146 0
-798 178 -50 146 0
-798 -179 51 0
-798 -179 -147 0
-798 179 -51 147 0
-798 -180 52 0
-798 -180 -148 0
-798 180 -52 148 0
-798 -181 53 0
-798 -181 -149 0
-798 181 -53 149 0
-798 -182 54 0
-798 -182 -150 0
-798 182 -54 150 0
-798 -183 55 0
-798 -183 -151 0
-798 183 -55 151 0
-798 -184 56 0
-798 -184 -152 0
-798 184 -56 152 0
-798 -185 57 0
-798 -185 -153 0
-798 185 -57 153 0
-798 -186 58 0
-798 -186 -154 0
-798 186 -58 154 0
-798 -187 59 0
-798 -187 -155 0
-798 187 -59 155 0
-798 -188 60 0
-798 -188 -156 0
-798 188 -60 156 0
-798 -189 61 0
-798 -189 -157 0
-798 189 -61 157 0
-798 -190 62 0
-798 -190 -158 0
-798 190 -62 158 0
-798 -191 63 0
-798 -191 -159 0
-798 191 -63 159 0
-798 -192 64 0
-798 -192 -160 0
-798 192 -64 160 0
-799 -161 -33 0
-799 -161 129 0
-799 161 33 -129 0
-799 -162 -34 0
-799 -162 130 0
-799 162 34 -130 0
-799 -163 -35 0
-799 -163 131 0
-799 163 35 -131 0
-799 -164 -36 0
-799 -164 132 0
-799 164 36 -132 0
-799 -165 -37 0
-799 -165 133 0
-799 165 37 -133 0
-799 -166 -38 0
-799 -166 134 0
-799 166 38 -134 0
-799 -167 -39 0
-799 -167 135 0
-799 167 39 -135 0
-799 -168 -40 0
-799 -168 136 0
-799 168 40 -136 0
-799 -169 -41 0
-799 -169 137 0
-799 169 41 -137 0
-799 -170 -42 0
-799 -170 138 0
-799 170 42 -138 0
-799 -171 -43 0
-799 -171 139 0
-799 171 43 -139 0
-799 -172 -44 0
-799 -172 140 0
-799 172 44 -140 0
-799 -173 -45 0
-799 -173 141 0
-799 173 45 -141 0
-799 -174 -46 0
-799 -174 142 0
-799 174 46 -142 0
-799 -175 -47 0
-799 -175 143 0
-799 175 47 -143 0
-799 -176 -48 0
-799 -176 144 0
-799 176 48 -144 0
-799 -177 -49 0
-799 -177 145 0
-799 177 49 -145 0
-799 -178 -50 0
-799 -178 146 0
-799 178 50 -146 0
-799 -179 -51 0
-799 -179 147 0
-799 179 51 -147 0
-799 -180 -52 0
-799 -180 148 0
-799 180 52 -148 0
-799 -181 -53 0
-799 -181 149 0
-799 181 53 -149 0
-799 -182 -54 0
-799 -182 150 0
-799 182 54 -150 0
-799 -183 -55 0
-799 -183 151 0
-799 183 55 -151 0
-799 -184 -56 0
-799 -184 152 0
-799 184 56 -152 0
-799 -185 -57 0
-799 -185 153 0
-799 185 57 -153 0
-799 -186 -58 0
-799 -186 154 0
-799 186 58 -154 0
-799 -187 -59 0
-799 -187 155 0
-799 187 59 -155 0
-799 -188 -60 0
-799 -188 156 0
-799 188 60 -156 0
-799 -189 -61 0
-799 -189 157 0
-799 189 61 -157 0
-799 -190 -62 0
-799 -190 158 0
-799 190 62 -158 0
-799 -191 -63 0
-799 -191 159 0
-799 191 63 -159 0
-799 -192 -64 0
-799 -192 160 0
-799 192 64 -160 0
-800 -161 -33 0
-800 -161 -129 0
-800 161 33 129 0
-800 -162 -34 0
-800 -162 -130 0
-800 162 34 130 0
-800 -163 -35 0
-800 -163 -131 0
-800 163 35 131 0
-800 -164 -36 0
-800 -164 -132 0
-800 164 36 132 0
-800 -165 -37 0
-800 -165 -133 0
-800 165 37 133 0
-800 -166 -38 0
-800 -166 -134 0
-800 166 38 134 0
-800 -167 -39 0
-800 -167 -135 0
-800 167 39 135 0
-800 -168 -40 0
-800 -168 -136 0
-800 168 40 136 0
-800 -169 -41 0
-800 -169 -137 0
-800 169 41 137 0
-800 -170 -42 0
-800 -170 -138 0
-800 170 42 138 0
-800 -171 -43 0
-800 -171 -139 0
-800 171 43 139 0
-800 -172 -44 0
-800 -172 -140 0
-800 172 44 140 0
-800 -173 -45 0
-800 -173 -141 0
-800 173 45 141 0
-800 -174 -46 0
-800 -174 -142 0
-800 174 46 142 0
-800 -175 -47 0
-800 -175 -143 0
-800 175 47 143 0
-800 -176 -48 0
-800 -176 -144 0
-800 176 48 144 0
-800 -177 -49 0
-800 -177 -145 0
-800 177 49 145 0
-800 -178 -50 0
-800 -178 -146 0
-800 178 50 146 0
-800 -179 -51 0
-800 -179 -147 0
-800 179 51 147 0
-800 -180 -52 0
-800 -180 -148 0
-800 180 52 148 0
-800 -181 -53 0
-800 -181 -149 0
-800 181 53 149 0
-800 -182 -54 0
-800 -182 -150 0
-800 182 54 150 0
-800 -183 -55 0
-800 -183 -151 0
-800 183 55 151 0
-800 -184 -56 0
-800 -184 -152 0
-800 184 56 152 0
-800 -185 -57 0
-800 -185 -153 0
-800 185 57 153 0
-800 -186 -58 0
-800 -186 -154 0
-800 186 58 154 0
-800 -187 -59 0
-800 -187 -155 0
-800 187 59 155 0
-800 -188 -60 0
-800 -188 -156 0
-800 188 60 156 0
-800 -189 -61 0
-800 -189 -157 0
-800 189 61 157 0
-800 -190 -62 0
-800 -190 -158 0
-800 190 62 158 0
-800 -191 -63 0
-800 -191 -159 0
-800 191 63 159 0
-800 -192 -64 0
-800 -192 -160 0
-800 192 64 160 0
-801 -161 65 0
-801 -161 97 0
-801 161 -65 -97 0
-801 -162 66 0
-801 -162 98 0
-801 162 -66 -98 0
-801 -163 67 0
-801 -163 99 0
-801 163 -67 -99 0
-801 -164 68 0
-801 -164 100 0
-801 164 -68 -100 0
-801 -165 69 0
-801 -165 101 0
-801 165 -69 -101 0
-801 -166 70 0
-801 -166 102 0
-801 166 -70 -102 0
-801 -167 71 0
-801 -167 103 0
-801 167 -71 -103 0
-801 -168 72 0
-801 -168 104 0
-801 168 -72 -104 0
-801 -169 73 0
-801 -169 105 0
-801 169 -73 -105 0
-801 -170 74 0
-801 -170 106 0
-801 170 -74 -106 0
-801 -171 75 0
-801 -171 107 0
-801 171 -75 -107 0
-801 -172 76 0
-801 -172 108 0
-801 172 -76 -108 0
-801 -173 77 0
-801 -173 109 0
-801 173 -77 -109 0
-801 -174 78 0
-801 -174 110 0
-801 174 -78 -110 0
-801 -175 79 0
-801 -175 111 0
-801 175 -79 -111 0
-801 -176 80 0
-801 -176 112 0
-801 176 -80 -112 0
-801 -177 81 0
-801 -177 113 0
-801 177 -81 -113 0
-801 -178 82 0
-801 -178 114 0
-801 178 -82 -114 0
-801 -179 83 0
-801 -179 115 0
-801 179 -83 -115 0
-801 -180 84 0
-801 -180 116 0
-801 180 -84 -116 0
-801 -181 85 0
-801 -181 117 0
-801 181 -85 -117 0
-801 -182 86 0
-801 -182 118 0
-801 182 -86 -118 0
-801 -183 87 0
-801 -183 119 0
-801 183 -87 -119 0
-801 -184 88 0
-801 -184 120 0
-801 184 -88 -120 0
-801 -185 89 0
-801 -185 121 0
-801 185 -89 -121 0
-801 -186 90 0
-801 -186 122 0
-801 186 -90 -122 0
-801 -187 91 0
-801 -187 123 0
-801 187 -91 -123 0
-801 -188 92 0
-801 -188 124 0
-801 188 -92 -124 0
-801 -189 93 0
-801 -189 125 0
-801 189 -93 -125 0
-801 -190 94 0
-801 -190 126 0
-801 190 -94 -126 0
-801 -191 95 0
-801 -191 127 0
-801 191 -95 -127 0
-801 -192 96 0
-801 -192 128 0
-801 192 -96 -128 0
-802 -161 65 0
-802 -161 -97 0
-802 161 -65 97 0
-802 -162 66 0
-802 -162 -98 0
-802 162 -66 98 0
-802 -163 67 0
-802 -163 -99 0
-802 163 -67 99 0
-802 -164 68 0
-802 -164 -100 0
-802 164 -68 100 0
-802 -165 69 0
-802 -165 -101 0
-802 165 -69 101 0
-802 -166 70 0
-802 -166 -102 0
-802 166 -70 102 0
-802 -167 71 0
-802 -167 -103 0
-802 167 -71 103 0
-802 -168 72 0
-802 -168 -104 0
-802 168 -72 104 0
-802 -169 73 0
-802 -169 -105 0
-802 169 -73 105 0
-802 -170 74 0
-802 -170 -106 0
-802 170 -74 106 0
-802 -171 75 0
-802 -171 -107 0
-802 171 -75 107 0
-802 -172 76 0
-802 -172 -108 0
-802 172 -76 108 0
-802 -173 77 0
-802 -173 -109 0
-802 173 -77 109 0
-802 -174 78 0
-802 -174 -110 0
-802 174 -78 110 0
-802 -175 79 0
-802 -175 -111 0
-802 175 -79 111 0
-802 -176 80 0
-802 -176 -112 0
-802 176 -80 112 0
-802 -177 81 0
-802 -177 -113 0
-802 177 -81 113 0
-802 -178 82 0
-802 -178 -114 0
-802 178 -82 114 0
-802 -179 83 0
-802 -179 -115 0
-802 179 -83 115 0
-802 -180 84 0
-802 -180 -116 0
-802 180 -84 116 0
-802 -181 85 0
-802 -181 -117 0
-802 181 -85 117 0
-802 -182 86 0
-802 -182 -118 0
-802 182 -86 118 0
-802 -183 87 0
-802 -183 -119 0
-802 183 -87 119 0
-802 -184 88 0
-802 -184 -120 0
-802 184 -88 120 0
-802 -185 89 0
-802 -185 -121 0
-802 185 -89 121 0
-802 -186 90 0
-802 -186 -122 0
-802 186 -90 122 0
-802 -187 91 0
-802 -187 -123 0
-802 187 -91 123 0
-802 -188 92 0
-802 -188 -124 0
-802 188 -92 124 0
-802 -189 93 0
-802 -189 -125 0
-802 189 -93 125 0
-802 -190 94 0
-802 -190 -126 0
-802 190 -94 126 0
-802 -191 95 0
-802 -191 -127 0
-802 191 -95 127 0
-802 -192 96 0
-802 -192 -128 0
-802 192 -96 128 0
-803 -161 -65 0
-803 -161 97 0
-803 161 65 -97 0
-803 -162 -66 0
-803 -162 98 0
-803 162 66 -98 0
-803 -163 -67 0
-803 -163 99 0
-803 163 67 -99 0
-803 -164 -68 0
-803 -164 100 0
-803 164 68 -100 0
-803 -165 -69 0
-803 -165 101 0
-803 165 69 -101 0
-803 -166 -70 0
-803 -166 102 0
-803 166 70 -102 0
-803 -167 -71 0
-803 -167 103 0
-803 167 71 -103 0
-803 -168 -72 0
-803 -168 104 0
-803 168 72 -104 0
-803 -169 -73 0
-803 -169 105 0
-803 169 73 -105 0
-803 -170 -74 0
-803 -170 106 0
-803 170 74 -106 0
-803 -171 -75 0
-803 -171 107 0
-803 171 75 -107 0
-803 -172 -76 0
-803 -172 108 0
-803 172 76 -108 0
-803 -173 -77 0
-803 -173 109 0
-803 173 77 -109 0
-803 -174 -78 0
-803 -174 110 0
-803 174 78 -110 0
-803 -175 -79 0
-803 -175 111 0
-803 175 79 -111 0
-803 -176 -80 0
-803 -176 112 0
-803 176 80 -112 0
-803 -177 -81 0
-803 -177 113 0
-803 177 81 -113 0
-803 -178 -82 0
-803 -178 114 0
-803 178 82 -114 0
-803 -179 -83 0
-803 -179 115 0
-803 179 83 -115 0
-803 -180 -84 0
-803 -180 116 0
-803 180 84 -116 0
-803 -181 -85 0
-803 -181 117 0
-803 181 85 -117 0
-803 -182 -86 0
-803 -182 118 0
-803 182 86 -118 0
-803 -183 -87 0
-803 -183 119 0
-803 183 87 -119 0
-803 -184 -88 0
-803 -184 120 0
-803 184 88 -120 0
-803 -185 -89 0
-803 -185 121 0
-803 185 89 -121 0
-803 -186 -90 0
-803 -186 122 0
-803 186 90 -122 0
-803 -187 -91 0
-803 -187 123 0
-803 187 91 -123 0
-803 -188 -92 0
-803 -188 124 0
-803 188 92 -124 0
-803 -189 -93 0
-803 -189 125 0
-803 189 93 -125 0
-803 -190 -94 0
-803 -190 126 0
-803 190 94 -126 0
-803 -191 -95 0
-803 -191 127 0
-803 191 95 -127 0
-803 -192 -96 0
-803 -192 128 0
-803 192 96 -128 0
-804 -161 -65 0
-804 -161 -97 0
-804 161 65 97 0
-804 -162 -66 0
-804 -162 -98 0
-804 162 66 98 0
-804 -163 -67 0
-804 -163 -99 0
-804 163 67 99 0
-804 -164 -68 0
-804 -164 -100 0
-804 164 68 100 0
-804 -165 -69 0
-804 -165 -101 0
-804 165 69 101 0
-804 -166 -70 0
-804 -166 -102 0
-804 166 70 102 0
-804 -167 -71 0
-804 -167 -103 0
-804 167 71 103 0
-804 -168 -72 0
-804 -168 -104 0
-804 168 72 104 0
-804 -169 -73 0
-804 -169 -105 0
-804 169 73 105 0
-804 -170 -74 0
-804 -170 -106 0
-804 170 74 106 0
-804 -171 -75 0
-804 -171 -107 0
-804 171 75 107 0
-804 -172 -76 0
-804 -172 -108 0
-804 172 76 108 0
-804 -173 -77 0
-804 -173 -109 0
-804 173 77 109 0
-804 -174 -78 0
-804 -174 -110 0
-804 174 78 110 0
-804 -175 -79 0
-804 -175 -111 0
-804 175 79 111 0
-804 -176 -80 0
-804 -176 -112 0
-804 176 80 112 0
-804 -177 -81 0
-804 -177 -113 0
-804 177 81 113 0
-804 -178 -82 0
-804 -178 -114 0
-804 178 82 114 0
-804 -179 -83 0
-804 -179 -115 0
-804 179 83 115 0
-804 -180 -84 0
-804 -180 -116 0
-804 180 84 116 0
-804 -181 -85 0
-804 -181 -117 0
-804 181 85 117 0
-804 -182 -86 0
-804 -182 -118 0
-804 182 86 118 0
-804 -183 -87 0
-804 -183 -119 0
-804 183 87 119 0
-804 -184 -88 0
-804 -184 -120 0
-804 184 88 120 0
-804 -185 -89 0
-804 -185 -121 0
-804 185 89 121 0
-804 -186 -90 0
-804 -186 -122 0
-804 186 90 122 0
-804 -187 -91 0
-804 -187 -123 0
-804 187 91 123 0
-804 -188 -92 0
-804 -188 -124 0
-804 188 92 124 0
-804 -189 -93 0
-804 -189 -125 0
-804 189 93 125 0
-804 -190 -94 0
-804 -190 -126 0
-804 190 94 126 0
-804 -191 -95 0
-804 -191 -127 0
-804 191 95 127 0
-804 -192 -96 0
-804 -192 -128 0
-804 192 96 128 0
-805 -161 65 0
-805 -161 129 0
-805 161 -65 -129 0
-805 -162 66 0
-805 -162 130 0
-805 162 -66 -130 0
-805 -163 67 0
-805 -163 131 0
-805 163 -67 -131 0
-805 -164 68 0
-805 -164 132 0
-805 164 -68 -132 0
-805 -165 69 0
-805 -165 133 0
-805 165 -69 -133 0
-805 -166 70 0
-805 -166 134 0
-805 166 -70 -134 0
-805 -167 71 0
-805 -167 135 0
-805 167 -71 -135 0
-805 -168 72 0
-805 -168 136 0
-805 168 -72 -136 0
-805 -169 73 0
-805 -169 137 0
-805 169 -73 -137 0
-805 -170 74 0
-805 -170 138 0
-805 170 -74 -138 0
-805 -171 75 0
-805 -171 139 0
-805 171 -75 -139 0
-805 -172 76 0
-805 -172 140 0
-805 172 -76 -140 0
-805 -173 77 0
-805 -173 141 0
-805 173 -77 -141 0
-805 -174 78 0
-805 -174 142 0
-805 174 -78 -142 0
-805 -175 79 0
-805 -175 143 0
-805 175 -79 -143 0
-805 -176 80 0
-805 -176 144 0
-805 176 -80 -144 0
-805 -177 81 0
-805 -177 145 0
-805 177 -81 -145 0
-805 -178 82 0
-805 -178 146 0
-805 178 -82 -146 0
-805 -179 83 0
-805 -179 147 0
-805 179 -83 -147 0
-805 -180 84 0
-805 -180 148 0
-805 180 -84 -148 0
-805 -181 85 0
-805 -181 149 0
-805 181 -85 -149 0
-805 -182 86 0
-805 -182 150 0
-805 182 -86 -150 0
-805 -183 87 0
-805 -183 151 0
-805 183 -87 -151 0
-805 -184 88 0
-805 -184 152 0
-805 184 -88 -152 0
-805 -185 89 0
-805 -185 153 0
-805 185 -89 -153 0
-805 -186 90 0
-805 -186 154 0
-805 186 -90 -154 0
-805 -187 91 0
-805 -187 155 0
-805 187 -91 -155 0
-805 -188 92 0
-805 -188 156 0
-805 188 -92 -156 0
-805 -189 93 0
-805 -189 157 0
-805 189 -93 -157 0
-805 -190 94 0
-805 -190 158 0
-805 190 -94 -158 0
-805 -191 95 0
-805 -191 159 0
-805 191 -95 -159 0
-805 -192 96 0
-805 -192 160 0
-805 192 -96 -160 0
-806 -161 65 0
-806 -161 -129 0
-806 161 -65 129 0
-806 -162 66 0
-806 -162 -130 0
-806 162 -66 130 0
-806 -163 67 0
-806 -163 -131 0
-806 163 -67 131 0
-806 -164 68 0
-806 -164 -132 0
-806 164 -68 132 0
-806 -165 69 0
-806 -165 -133 0
-806 165 -69 133 0
-806 -166 70 0
-806 -166 -134 0
-806 166 -70 134 0
-806 -167 71 0
-806 -167 -135 0
-806 167 -71 135 0
-806 -168 72 0
-806 -168 -136 0
-806 168 -72 136 0
-806 -169 73 0
-806 -169 -137 0
-806 169 -73 137 0
-806 -170 74 0
-806 -170 -138 0
-806 170 -74 138 0
-806 -171 75 0
-806 -171 -139 0
-806 171 -75 139 0
-806 -172 76 0
-806 -172 -140 0
-806 172 -76 140 0
-806 -173 77 0
-806 -173 -141 0
-806 173 -77 141 0
-806 -174 78 0
-806 -174 -142 0
-806 174 -78 142 0
-806 -175 79 0
-806 -175 -143 0
-806 175 -79 143 0
-806 -176 80 0
-806 -176 -144 0
-806 176 -80 144 0
-806 -177 81 0
-806 -177 -145 0
-806 177 -81 145 0
-806 -178 82 0
-806 -178 -146 0
-806 178 -82 146 0
-806 -179 83 0
-806 -179 -147 0
-806 179 -83 147 0
-806 -180 84 0
-806 -180 -148 0
-806 180 -84 148 0
-806 -181 85 0
-806 -181 -149 0
-806 181 -85 149 0
-806 -182 86 0
-806 -182 -150 0
-806 182 -86 150 0
-806 -183 87 0
-806 -183 -151 0
-806 183 -87 151 0
-806 -184 88 0
-806 -184 -152 0
-806 184 -88 152 0
-806 -185 89 0
-806 -185 -153 0
-806 185 -89 153 0
-806 -186 90 0
-806 -186 -154 0
-806 186 -90 154 0
-806 -187 91 0
-806 -187 -155 0
-806 187 -91 155 0
-806 -188 92 0
-806 -188 -156 0
-806 188 -92 156 0
-806 -189 93 0
-806 -189 -157 0
-806 189 -93 157 0
-806 -190 94 0
-806 -190 -158 0
-806 190 -94 158 0
-806 -191 95 0
-806 -191 -159 0
-806 191 -95 159 0
-806 -192 96 0
-806 -192 -160 0
-806 192 -96 160 0
-807 -161 -65 0
-807 -161 129 0
-807 161 65 -129 0
-807 -162 -66 0
-807 -162 130 0
-807 162 66 -130 0
-807 -163 -67 0
-807 -163 131 0
-807 163 67 -131 0
-807 -164 -68 0
-807 -164 132 0
-807 164 68 -132 0
-807 -165 -69 0
-807 -165 133 0
-807 165 69 -133 0
-807 -166 -70 0
-807 -166 134 0
-807 166 70 -134 0
-807 -167 -71 0
-807 -167 135 0
-807 167 71 -135 0
-807 -168 -72 0
-807 -168 136 0
-807 168 72 -136 0
-807 -169 -73 0
-807 -169 137 0
-807 169 73 -137 0
-807 -170 -74 0
-807 -170 138 0
-807 170 74 -138 0
-807 -171 -75 0
-807 -171 139 0
-807 171 75 -139 0
-807 -172 -76 0
-807 -172 140 0
-807 172 76 -140 0
-807 -173 -77 0
-807 -173 141 0
-807 173 77 -141 0
-807 -174 -78 0
-807 -174 142 0
-807 174 78 -142 0
-807 -175 -79 0
-807 -175 143 0
-807 175 79 -143 0
-807 -176 -80 0
-807 -176 144 0
-807 176 80 -144 0
-807 -177 -81 0
-807 -177 145 0
-807 177 81 -145 0
-807 -178 -82 0
-807 -178 146 0
-807 178 82 -146 0
-807 -179 -83 0
-807 -179 147 0
-807 179 83 -147 0
-807 -180 -84 0
-807 -180 148 0
-807 180 84 -148 0
-807 -181 -85 0
-807 -181 149 0
-807 181 85 -149 0
-807 -182 -86 0
-807 -182 150 0
-807 182 86 -150 0
-807 -183 -87 0
-807 -183 151 0
-807 183 87 -151 0
-807 -184 -88 0
-807 -184 152 0
-807 184 88 -152 0
-807 -185 -89 0
-807 -185 153 0
-807 185 89 -153 0
-807 -186 -90 0
-807 -186 154 0
-807 186 90 -154 0
-807 -187 -91 0
-807 -187 155 0
-807 187 91 -155 0
-807 -188 -92 0
-807 -188 156 0
-807 188 92 -156 0
-807 -189 -93 0
-807 -189 157 0
-807 189 93 -157 0
-807 -190 -94 0
-807 -190 158 0
-807 190 94 -158 0
-807 -191 -95 0
-807 -191 159 0
-807 191 95 -159 0
-807 -192 -96 0
-807 -192 160 0
-807 192 96 -160 0
-808 -161 -65 0
-808 -161 -129 0
-808 161 65 129 0
-808 -162 -66 0
-808 -162 -130 0
-808 162 66 130 0
-808 -163 -67 0
-808 -163 -131 0
-808 163 67 131 0
-808 -164 -68 0
-808 -164 -132 0
-808 164 68 132 0
-808 -165 -69 0
-808 -165 -133 0
-808 165 69 133 0
-808 -166 -70 0
-808 -166 -134 0
-808 166 70 134 0
-808 -167 -71 0
-808 -167 -135 0
-808 167 71 135 0
-808 -168 -72 0
-808 -168 -136 0
-808 168 72 136 0
-808 -169 -73 0
-808 -169 -137 0
-808 169 73 137 0
-808 -170 -74 0
-808 -170 -138 0
-808 170 74 138 0
-808 -171 -75 0
-808 -171 -139 0
-808 171 75 139 0
-808 -172 -76 0
-808 -172 -140 0
-808 172 76 140 0
-808 -173 -77 0
-808 -173 -141 0
-808 173 77 141 0
-808 -174 -78 0
-808 -174 -142 0
-808 174 78 142 0
-808 -175 -79 0
-808 -175 -143 0
-808 175 79 143 0
-808 -176 -80 0
-808 -176 -144 0
-808 176 80 144 0
-808 -177 -81 0
-808 -177 -145 0
-808 177 81 145 0
-808 -178 -82 0
-808 -178 -146 0
-808 178 82 146 0
-808 -179 -83 0
-808 -179 -147 0
-808 179 83 147 0
-808 -180 -84 0
-808 -180 -148 0
-808 180 84 148 0
-808 -181 -85 0
-808 -181 -149 0
-808 181 85 149 0
-808 -182 -86 0
-808 -182 -150 0
-808 182 86 150 0
-808 -183 -87 0
-808 -183 -151 0
-808 183 87 151 0
-808 -184 -88 0
-808 -184 -152 0
-808 184 88 152 0
-808 -185 -89 0
-808 -185 -153 0
-808 185 89 153 0
-808 -186 -90 0
-808 -186 -154 0
-808 186 90 154 0
-808 -187 -91 0
-808 -187 -155 0
-808 187 91 155 0
-808 -188 -92 0
-808 -188 -156 0
-808 188 92 156 0
-808 -189 -93 0
-808 -189 -157 0
-808 189 93 157 0
-808 -190 -94 0
-808 -190 -158 0
-808 190 94 158 0
-808 -191 -95 0
-808 -191 -159 0
-808 191 95 159 0
-808 -192 -96 0
-808 -192 -160 0
-808 192 96 160 0
-809 -161 97 0
-809 -161 129 0
-809 161 -97 -129 0
-809 -162 98 0
-809 -162 130 0
-809 162 -98 -130 0
-809 -163 99 0
-809 -163 131 0
-809 163 -99 -131 0
-809 -164 100 0
-809 -164 132 0
-809 164 -100 -132 0
-809 -165 101 0
-809 -165 133 0
-809 165 -101 -133 0
-809 -166 102 0
-809 -166 134 0
-809 166 -102 -134 0
-809 -167 103 0
-809 -167 135 0
-809 167 -103 -135 0
-809 -168 104 0
-809 -168 136 0
-809 168 -104 -136 0
-809 -169 105 0
-809 -169 137 0
-809 169 -105 -137 0
-809 -170 106 0
-809 -170 138 0
-809 170 -106 -138 0
-809 -171 107 0
-809 -171 139 0
-809 171 -107 -139 0
-809 -172 108 0
-809 -172 140 0
-809 172 -108 -140 0
-809 -173 109 0
-809 -173 141 0
-809 173 -109 -141 0
-809 -174 110 0
-809 -174 142 0
-809 174 -110 -142 0
-809 -175 111 0
-809 -175 143 0
-809 175 -111 -143 0
-809 -176 112 0
-809 -176 144 0
-809 176 -112 -144 0
-809 -177 113 0
-809 -177 145 0
-809 177 -113 -145 0
-809 -178 114 0
-809 -178 146 0
-809 178 -114 -146 0
-809 -179 115 0
-809 -179 147 0
-809 179 -115 -147 0
-809 -180 116 0
-809 -180 148 0
-809 180 -116 -148 0
-809 -181 117 0
-809 -181 149 0
-809 181 -117 -149 0
-809 -182 118 0
-809 -182 150 0
-809 182 -118 -150 0
-809 -183 119 0
-809 -183 151 0
-809 183 -119 -151 0
-809 -184 120 0
-809 -184 152 0
-809 184 -120 -152 0
-809 -185 121 0
-809 -185 153 0
-809 185 -121 -153 0
-809 -186 122 0
-809 -186 154 0
-809 186 -122 -154 0
-809 -187 123 0
-809 -187 155 0
-809 187 -123 -155 0
-809 -188 124 0
-809 -188 156 0
-809 188 -124 -156 0
-809 -189 125 0
-809 -189 157 0
-809 189 -125 -157 0
-809 -190 126 0
-809 -190 158 0
-809 190 -126 -158 0
-809 -191 127 0
-809 -191 159 0
-809 191 -127 -159 0
-809 -192 128 0
-809 -192 160 0
-809 192 -128 -160 0
-810 -161 97 0
-810 -161 -129 0
-810 161 -97 129 0
-810 -162 98 0
-810 -162 -130 0
-810 162 -98 130 0
-810 -163 99 0
-810 -163 -131 0
-810 163 -99 131 0
-810 -164 100 0
-810 -164 -132 0
-810 164 -100 132 0
-810 -165 101 0
-810 -165 -133 0
-810 165 -101 133 0
-810 -166 102 0
-810 -166 -134 0
-810 166 -102 134 0
-810 -167 103 0
-810 -167 -135 0
-810 167 -103 135 0
-810 -168 104 0
-810 -168 -136 0
-810 168 -104 136 0
-810 -169 105 0
-810 -169 -137 0
-810 169 -105 137 0
-810 -170 106 0
-810 -170 -138 0
-810 170 -106 138 0
-810 -171 107 0
-810 -171 -139 0
-810 171 -107 139 0
-810 -172 108 0
-810 -172 -140 0
-810 172 -108 140 0
-810 -173 109 0
-810 -173 -141 0
-810 173 -109 141 0
-810 -174 110 0
-810 -174 -142 0
-810 174 -110 142 0
-810 -175 111 0
-810 -175 -143 0
-810 175 -111 143 0
-810 -176 112 0
-810 -176 -144 0
-810 176 -112 144 0
-810 -177 113 0
-810 -177 -145 0
-810 177 -113 145 0
-810 -178 114 0
-810 -178 -146 0
-810 178 -114 146 0
-810 -179 115 0
-810 -179 -147 0
-810 179 -115 147 0
-810 -180 116 0
-810 -180 -148 0
-810 180 -116 148 0
-810 -181 117 0
-810 -181 -149 0
-810 181 -117 149 0
-810 -182 118 0
-810 -182 -150 0
-810 182 -118 150 0
-810 -183 119 0
-810 -183 -151 0
-810 183 -119 151 0
-810 -184 120 0
-810 -184 -152 0
-810 184 -120 152 0
-810 -185 121 0
-810 -185 -153 0
-810 185 -121 153 0
-810 -186 122 0
-810 -186 -154 0
-810 186 -122 154 0
-810 -187 123 0
-810 -187 -155 0
-810 187 -123 155 0
-810 -188 124 0
-810 -188 -156 0
-810 188 -124 156 0
-810 -189 125 0
-810 -189 -157 0
-810 189 -125 157 0
-810 -190 126 0
-810 -190 -158 0
-810 190 -126 158 0
-810 -191 127 0
-810 -191 -159 0
-810 191 -127 159 0
-810 -192 128 0
-810 -192 -160 0
-810 192 -128 160 0
-811 -161 -97 0
-811 -161 129 0
-811 161 97 -129 0
-811 -162 -98 0
-811 -162 130 0
-811 162 98 -130 0
-811 -163 -99 0
-811 -163 131 0
-811 163 99 -131 0
-811 -164 -100 0
-811 -164 132 0
-811 164 100 -132 0
-811 -165 -101 0
-811 -165 133 0
-811 165 101 -133 0
-811 -166 -102 0
-811 -166 134 0
-811 166 102 -134 0
-811 -167 -103 0
-811 -167 135 0
-811 167 103 -135 0
-811 -168 -104 0
-811 -168 136 0
-811 168 104 -136 0
-811 -169 -105 0
-811 -169 137 0
-811 169 105 -137 0
-811 -170 -106 0
-811 -170 138 0
-811 170 106 -138 0
-811 -171 -107 0
-811 -171 139 0
-811 171 107 -139 0
-811 -172 -108 0
-811 -172 140 0
-811 172 108 -140 0
-811 -173 -109 0
-811 -173 141 0
-811 173 109 -141 0
-811 -174 -110 0
-811 -174 142 0
-811 174 110 -142 0
-811 -175 -111 0
-811 -175 143 0
-811 175 111 -143 0
-811 -176 -112 0
-811 -176 144 0
-811 176 112 -144 0
-811 -177 -113 0
-811 -177 145 0
-811 177 113 -145 0
-811 -178 -114 0
-811 -178 146 0
-811 178 114 -146 0
-811 -179 -115 0
-811 -179 147 0
-811 179 115 -147 0
-811 -180 -116 0
-811 -180 148 0
-811 180 116 -148 0
-811 -181 -117 0
-811 -181 149 0
-811 181 117 -149 0
-811 -182 -118 0
-811 -182 150 0
-811 182 118 -150 0
-811 -183 -119 0
-811 -183 151 0
-811 183 119 -151 0
-811 -184 -120 0
-811 -184 152 0
-811 184 120 -152 0
-811 -185 -121 0
-811 -185 153 0
-811 185 121 -153 0
-811 -186 -122 0
-811 -186 154 0
-811 186 122 -154 0
-811 -187 -123 0
-811 -187 155 0
-811 187 123 -155 0
-811 -188 -124 0
-811 -188 156 0
-811 188 124 -156 0
-811 -189 -125 0
-811 -189 157 0
-811 189 125 -157 0
-811 -190 -126 0
-811 -190 158 0
-811 190 126 -158 0
-811 -191 -127 0
-811 -191 159 0
-811 191 127 -159 0
-811 -192 -128 0
-811 -192 160 0
-811 192 128 -160 0
-812 -161 -97 0
-812 -161 -129 0
-812 161 97 129 0
-812 -162 -98 0
-812 -162 -130 0
-812 162 98 130 0
-812 -163 -99 0
-812 -163 -131 0
-812 163 99 131 0
-812 -164 -100 0
-812 -164 -132 0
-812 164 100 132 0
-812 -165 -101 0
-812 -165 -133 0
-812 165 101 133 0
-812 -166 -102 0
-812 -166 -134 0
-812 166 102 134 0
-812 -167 -103 0
-812 -167 -135 0
-812 167 103 135 0
-812 -168 -104 0
-812 -168 -136 0
-812 168 104 136 0
-812 -169 -105 0
-812 -169 -137 0
-812 169 105 137 0
-812 -170 -106 0
-812 -170 -138 0
-812 170 106 138 0
-812 -171 -107 0
-812 -171 -139 0
-812 171 107 139 0
-812 -172 -108 0
-812 -172 -140 0
-812 172 108 140 0
-812 -173 -109 0
-812 -173 -141 0
-812 173 109 141 0
-812 -174 -110 0
-812 -174 -142 0
-812 174 110 142 0
-812 -175 -111 0
-812 -175 -143 0
-812 175 111 143 0
-812 -176 -112 0
-812 -176 -144 0
-812 176 112 144 0
-812 -177 -113 0
-812 -177 -145 0
-812 177 113 145 0
-812 -178 -114 0
-812 -178 -146 0
-812 178 114 146 0
-812 -179 -115 0
-812 -179 -147 0
-812 179 115 147 0
-812 -180 -116 0
-812 -180 -148 0
-812 180 116 148 0
-812 -181 -117 0
-812 -181 -149 0
-812 181 117 149 0
-812 -182 -118 0
-812 -182 -150 0
-812 182 118 150 0
-812 -183 -119 0
-812 -183 -151 0
-812 183 119 151 0
-812 -184 -120 0
-812 -184 -152 0
-812 184 120 152 0
-812 -185 -121 0
-812 -185 -153 0
-812 185 121 153 0
-812 -186 -122 0
-812 -186 -154 0
-812 186 122 154 0
-812 -187 -123 0
-812 -187 -155 0
-812 187 123 155 0
-812 -188 -124 0
-812 -188 -156 0
-812 188 124 156 0
-812 -189 -125 0
-812 -189 -157 0
-812 189 125 157 0
-812 -190 -126 0
-812 -190 -158 0
-812 190 126 158 0
-812 -191 -127 0
-812 -191 -159 0
-812 191 127 159 0
-812 -192 -128 0
-812 -192 -160 0
-812 192 128 160 0
-193 -233 0
-193 -293 0
-193 -377 0
-193 -489 0
-193 -633 0
-233 -293 0
-233 -377 0
-233 -489 0
-233 -633 0
-293 -377 0
-293 -489 0
-293 -633 0
-377 -489 0
-377 -633 0
-489 -633 0
-194 -234 0
-194 -294 0
-194 -378 0
-194 -490 0
-194 -634 0
-234 -294 0
-234 -378 0
-234 -490 0
-234 -634 0
-294 -378 0
-294 -490 0
-294 -634 0
-378 -490 0
-378 -634 0
-490 -634 0
-195 -235 0
-195 -295 0
-195 -379 0
-195 -491 0
-195 -635 0
-235 -295 0
-235 -379 0
-235 -491 0
-235 -635 0
-295 -379 0
-295 -491 0
-295 -635 0
-379 -491 0
-379 -635 0
-491 -635 0
-196 -236 0
-196 -296 0
-196 -380 0
-196 -492 0
-196 -636 0
-236 -296 0
-236 -380 0
-236 -492 0
-236 -636 0
-296 -380 0
-296 -492 0
-296 -636 0
-380 -492 0
-380 -636 0
-492 -636 0
-197 -237 0
-197 -297 0
-197 -381 0
-197 -493 0
-197 -637 0
-237 -297 0
-237 -381 0
-237 -493 0
-237 -637 0
-297 -381 0
-297 -493 0
-297 -637 0
-381 -493 0
-381 -637 0
-493 -637 0
-198 -238 0
-198 -298 0
-198 -382 0
-198 -494 0
-198 -638 0
-238 -298 0
-238 -382 0
-238 -494 0
-238 -638 0
-298 -382 0
-298 -494 0
-298 -638 0
-382 -494 0
-382 -638 0
-494 -638 0
-199 -239 0
-199 -299 0
-199 -383 0
-199 -495 0
-199 -639 0
-239 -299 0
-239 -383 0
-239 -495 0
-239 -639 0
-299 -383 0
-299 -495 0
-299 -639 0
-383 -495 0
-383 -639 0
-495 -639 0
-200 -240 0
-200 -300 0
-200 -384 0
-200 -496 0
-200 -640 0
-240 -300 0
-240 -384 0
-240 -496 0
-240 -640 0
-300 -384 0
-300 -496 0
-300 -640 0
-384 -496 0
-384 -640 0
-496 -640 0
-201 -241 0
-201 -301 0
-201 -385 0
-201 -497 0
-201 -641 0
-241 -301 0
-241 -385 0
-241 -497 0
-241 -641 0
-301 -385 0
-301 -497 0
-301 -641 0
-385 -497 0
-385 -641 0
-497 -641 0
-202 -242 0
-202 -302 0
-202 -386 0
-202 -498 0
-202 -642 0
-242 -302 0
-242 -386 0
-242 -498 0
-242 -642 0
-302 -386 0
-302 -498 0
-302 -642 0
-386 -498 0
-386 -642 0
-498 -642 0
-203 -243 0
-203 -303 0
-203 -387 0
-203 -499 0
-203 -643 0
-243 -303 0
-243 -387 0
-243 -499 0
-243 -643 0
-303 -387 0
-303 -499 0
-303 -643 0
-387 -499 0
-387 -643 0
-499 -643 0
-204 -244 0
-204 -304 0
-204 -388 0
-204 -500 0
-204 -644 0
-244 -304 0
-244 -388 0
-244 -500 0
-244 -644 0
-304 -388 0
-304 -500 0
-304 -644 0
-388 -500 0
-388 -644 0
-500 -644 0
-205 -245 0
-205 -305 0
-205 -389 0
-205 -501 0
-205 -645 0
-245 -305 0
-245 -389 0
-245 -501 0
-245 -645 0
-305 -389 0
-305 -501 0
-305 -645 0
-389 -501 0
-389 -645 0
-501 -645 0
-206 -246 0
-206 -306 0
-206 -390 0
-206 -502 0
-206 -646 0
-246 -306 0
-246 -390 0
-246 -502 0
-246 -646 0
-306 -390 0
-306 -502 0
-306 -646 0
-390 -502 0
-390 -646 0
-502 -646 0
-207 -247 0
-207 -307 0
-207 -391 0
-207 -503 0
-207 -647 0
-247 -307 0
-247 -391 0
-247 -503 0
-247 -647 0
-307 -391 0
-307 -503 0
-307 -647 0
-391 -503 0
-391 -647 0
-503 -647 0
-208 -248 0
-208 -308 0
-208 -392 0
-208 -504 0
-208 -648 0
-248 -308 0
-248 -392 0
-248 -504 0
-248 -648 0
-308 -392 0
-308 -504 0
-308 -648 0
-392 -504 0
-392 -648 0
-504 -648 0
-209 -253 0
-209 -317 0
-209 -405 0
-209 -521 0
-209 -669 0
-253 -317 0
-253 -405 0
-253 -521 0
-253 -669 0
-317 -405 0
-317 -521 0
-317 -669 0
-405 -521 0
-405 -669 0
-521 -669 0
-210 -254 0
-210 -318 0
-210 -406 0
-210 -522 0
-210 -670 0
-254 -318 0
-254 -406 0
-254 -522 0
-254 -670 0
-318 -406 0
-318 -522 0
-318 -670 0
-406 -522 0
-406 -670 0
-522 -670 0
-211 -255 0
-211 -319 0
-211 -407 0
-211 -523 0
-211 -671 0
-255 -319 0
-255 -407 0
-255 -523 0
-255 -671 0
-319 -407 0
-319 -523 0
-319 -671 0
-407 -523 0
-407 -671 0
-523 -671 0
-212 -256 0
-212 -320 0
-212 -408 0
-212 -524 0
-212 -672 0
-256 -320 0
-256 -408 0
-256 -524 0
-256 -672 0
-320 -408 0
-320 -524 0
-320 -672 0
-408 -524 0
-408 -672 0
-524 -672 0
-213 -257 0
-213 -321 0
-213 -409 0
-213 -525 0
-213 -673 0
-257 -321 0
-257 -409 0
-257 -525 0
-257 -673 0
-321 -409 0
-321 -525 0
-321 -673 0
-409 -525 0
-409 -673 0
-525 -673 0
-214 -258 0
-214 -322 0
-214 -410 0
-214 -526 0
-214 -674 0
-258 -322 0
-258 -410 0
-258 -526 0
-258 -674 0
-322 -410 0
-322 -526 0
-322 -674 0
-410 -526 0
-410 -674 0
-526 -674 0
-215 -259 0
-215 -323 0
-215 -411 0
-215 -527 0
-215 -675 0
-259 -323 0
-259 -411 0
-259 -527 0
-259 -675 0
-323 -411 0
-323 -527 0
-323 -675 0
-411 -527 0
-411 -675 0
-527 -675 0
-216 -260 0
-216 -324 0
-216 -412 0
-216 -528 0
-216 -676 0
-260 -324 0
-260 -412 0
-260 -528 0
-260 -676 0
-324 -412 0
-324 -528 0
-324 -676 0
-412 -528 0
-412 -676 0
-528 -676 0
-217 -261 0
-217 -325 0
-217 -413 0
-217 -529 0
-217 -677 0
-261 -325 0
-261 -413 0
-261 -529 0
-261 -677 0
-325 -413 0
-325 -529 0
-325 -677 0
-413 -529 0
-413 -677 0
-529 -677 0
-218 -262 0
-218 -326 0
-218 -414 0
-218 -530 0
-218 -678 0
-262 -326 0
-262 -414 0
-262 -530 0
-262 -678 0
-326 -414 0
-326 -530 0
-326 -678 0
-414 -530 0
-414 -678 0
-530 -678 0
-219 -263 0
-219 -327 0
-219 -415 0
-219 -531 0
-219 -679 0
-263 -327 0
-263 -415 0
-263 -531 0
-263 -679 0
-327 -415 0
-327 -531 0
-327 -679 0
-415 -531 0
-415 -679 0
-531 -679 0
-220 -264 0
-220 -328 0
-220 -416 0
-220 -532 0
-220 -680 0
-264 -328 0
-264 -416 0
-264 -532 0
-264 -680 0
-328 -416 0
-328 -532 0
-328 -680 0
-416 -532 0
-416 -680 0
-532 -680 0
-221 -269 0
-221 -337 0
-221 -429 0
-221 -549 0
-221 -701 0
-269 -337 0
-269 -429 0
-269 -549 0
-269 -701 0
-337 -429 0
-337 -549 0
-337 -701 0
-429 -549 0
-429 -701 0
-549 -701 0
-222 -270 0
-222 -338 0
-222 -430 0
-222 -550 0
-222 -702 0
-270 -338 0
-270 -430 0
-270 -550 0
-270 -702 0
-338 -430 0
-338 -550 0
-338 -702 0
-430 -550 0
-430 -702 0
-550 -702 0
-223 -271 0
-223 -339 0
-223 -431 0
-223 -551 0
-223 -703 0
-271 -339 0
-271 -431 0
-271 -551 0
-271 -703 0
-339 -431 0
-339 -551 0
-339 -703 0
-431 -551 0
-431 -703 0
-551 -703 0
-224 -272 0
-224 -340 0
-224 -432 0
-224 -552 0
-224 -704 0
-272 -340 0
-272 -432 0
-272 -552 0
-272 -704 0
-340 -432 0
-340 -552 0
-340 -704 0
-432 -552 0
-432 -704 0
-552 -704 0
-225 -273 0
-225 -341 0
-225 -433 0
-225 -553 0
-225 -705 0
-273 -341 0
-273 -433 0
-273 -553 0
-273 -705 0
-341 -433 0
-341 -553 0
-341 -705 0
-433 -553 0
-433 -705 0
-553 -705 0
-226 -274 0
-226 -342 0
-226 -434 0
-226 -554 0
-226 -706 0
-274 -342 0
-274 -434 0
-274 -554 0
-274 -706 0
-342 -434 0
-342 -554 0
-342 -706 0
-434 -554 0
-434 -706 0
-554 -706 0
-227 -275 0
-227 -343 0
-227 -435 0
-227 -555 0
-227 -707 0
-275 -343 0
-275 -435 0
-275 -555 0
-275 -707 0
-343 -435 0
-343 -555 0
-343 -707 0
-435 -555 0
-435 -707 0
-555 -707 0
-228 -276 0
-228 -344 0
-228 -436 0
-228 -556 0
-228 -708 0
-276 -344 0
-276 -436 0
-276 -556 0
-276 -708 0
-344 -436 0
-344 -556 0
-344 -708 0
-436 -556 0
-436 -708 0
-556 -708 0
-229 -281 0
-229 -353 0
-229 -449 0
-229 -573 0
-229 -729 0
-281 -353 0
-281 -449 0
-281 -573 0
-281 -729 0
-353 -449 0
-353 -573 0
-353 -729 0
-449 -573 0
-449 -729 0
-573 -729 0
-230 -282 0
-230 -354 0
-230 -450 0
-230 -574 0
-230 -730 0
-282 -354 0
-282 -450 0
-282 -574 0
-282 -730 0
-354 -450 0
-354 -574 0
-354 -730 0
-450 -574 0
-450 -730 0
-574 -730 0
-231 -283 0
-231 -355 0
-231 -451 0
-231 -575 0
-231 -731 0
-283 -355 0
-283 -451 0
-283 -575 0
-283 -731 0
-355 -451 0
-355 -575 0
-355 -731 0
-451 -575 0
-451 -731 0
-575 -731 0
-232 -284 0
-232 -356 0
-232 -452 0
-232 -576 0
-232 -732 0
-284 -356 0
-284 -452 0
-284 -576 0
-284 -732 0
-356 -452 0
-356 -576 0
-356 -732 0
-452 -576 0
-452 -732 0
-576 -732 0
-249 -309 0
-249 -393 0
-249 -505 0
-249 -649 0
-309 -393 0
-309 -505 0
-309 -649 0
-393 -505 0
-393 -649 0
-505 -649 0
-250 -310 0
-250 -394 0
-250 -506 0
-250 -650 0
-310 -394 0
-310 -506 0
-310 -650 0
-394 -506 0
-394 -650 0
-506 -650 0
-251 -311 0
-251 -395 0
-251 -507 0
-251 -651 0
-311 -395 0
-311 -507 0
-311 -651 0
-395 -507 0
-395 -651 0
-507 -651 0
-252 -312 0
-252 -396 0
-252 -508 0
-252 -652 0
-312 -396 0
-312 -508 0
-312 -652 0
-396 -508 0
-396 -652 0
-508 -652 0
-265 -329 0
-265 -417 0
-265 -533 0
-265 -681 0
-329 -417 0
-329 -533 0
-329 -681 0
-417 -533 0
-417 -681 0
-533 -681 0
-266 -330 0
-266 -418 0
-266 -534 0
-266 -682 0
-330 -418 0
-330 -534 0
-330 -682 0
-418 -534 0
-418 -682 0
-534 -682 0
-267 -331 0
-267 -419 0
-267 -535 0
-267 -683 0
-331 -419 0
-331 -535 0
-331 -683 0
-419 -535 0
-419 -683 0
-535 -683 0
-268 -332 0
-268 -420 0
-268 -536 0
-268 -684 0
-332 -420 0
-332 -536 0
-332 -684 0
-420 -536 0
-420 -684 0
-536 -684 0
-277 -345 0
-277 -437 0
-277 -557 0
-277 -709 0
-345 -437 0
-345 -557 0
-345 -709 0
-437 -557 0
-437 -709 0
-557 -709 0
-278 -346 0
-278 -438 0
-278 -558 0
-278 -710 0
-346 -438 0
-346 -558 0
-346 -710 0
-438 -558 0
-438 -710 0
-558 -710 0
-279 -347 0
-279 -439 0
-279 -559 0
-279 -711 0
-347 -439 0
-347 -559 0
-347 -711 0
-439 -559 0
-439 -711 0
-559 -711 0
-280 -348 0
-280 -440 0
-280 -560 0
-280 -712 0
-348 -440 0
-348 -560 0
-348 -712 0
-440 -560 0
-440 -712 0
-560 -712 0
-285 -357 0
-285 -453 0
-285 -577 0
-285 -733 0
-357 -453 0
-357 -577 0
-357 -733 0
-453 -577 0
-453 -733 0
-577 -733 0
-286 -358 0
-286 -454 0
-286 -578 0
-286 -734 0
-358 -454 0
-358 -578 0
-358 -734 0
-454 -578 0
-454 -734 0
-578 -734 0
-287 -359 0
-287 -455 0
-287 -579 0
-287 -735 0
-359 -455 0
-359 -579 0
-359 -735 0
-455 -579 0
-455 -735 0
-579 -735 0
-288 -360 0
-288 -456 0
-288 -580 0
-288 -736 0
-360 -456 0
-360 -580 0
-360 -736 0
-456 -580 0
-456 -736 0
-580 -736 0
-289 -365 0
-289 -465 0
-289 -593 0
-289 -753 0
-365 -465 0
-365 -593 0
-365 -753 0
-465 -593 0
-465 -753 0
-593 -753 0
-290 -366 0
-290 -466 0
-290 -594 0
-290 -754 0
-366 -466 0
-366 -594 0
-366 -754 0
-466 -594 0
-466 -754 0
-594 -754 0
-291 -367 0
-291 -467 0
-291 -595 0
-291 -755 0
-367 -467 0
-367 -595 0
-367 -755 0
-467 -595 0
-467 -755 0
-595 -755 0
-292 -368 0
-292 -468 0
-292 -596 0
-292 -756 0
-368 -468 0
-368 -596 0
-368 -756 0
-468 -596 0
-468 -756 0
-596 -756 0
-313 -397 0
-313 -509 0
-313 -653 0
-397 -509 0
-397 -653 0
-509 -653 0
-314 -398 0
-314 -510 0
-314 -654 0
-398 -510 0
-398 -654 0
-510 -654 0
-315 -399 0
-315 -511 0
-315 -655 0
-399 -511 0
-399 -655 0
-511 -655 0
-316 -400 0
-316 -512 0
-316 -656 0
-400 -512 0
-400 -656 0
-512 -656 0
-333 -421 0
-333 -537 0
-333 -685 0
-421 -537 0
-421 -685 0
-537 -685 0
-334 -422 0
-334 -538 0
-334 -686 0
-422 -538 0
-422 -686 0
-538 -686 0
-335 -423 0
-335 -539 0
-335 -687 0
-423 -539 0
-423 -687 0
-539 -687 0
-336 -424 0
-336 -540 0
-336 -688 0
-424 -540 0
-424 -688 0
-540 -688 0
-349 -441 0
-349 -561 0
-349 -713 0
-441 -561 0
-441 -713 0
-561 -713 0
-350 -442 0
-350 -562 0
-350 -714 0
-442 -562 0
-442 -714 0
-562 -714 0
-351 -443 0
-351 -563 0
-351 -715 0
-443 -563 0
-443 -715 0
-563 -715 0
-352 -444 0
-352 -564 0
-352 -716 0
-444 -564 0
-444 -716 0
-564 -716 0
-361 -457 0
-361 -581 0
-361 -737 0
-457 -581 0
-457 -737 0
-581 -737 0
-362 -458 0
-362 -582 0
-362 -738 0
-458 -582 0
-458 -738 0
-582 -738 0
-363 -459 0
-363 -583 0
-363 -739 0
-459 -583 0
-459 -739 0
-583 -739 0
-364 -460 0
-364 -584 0
-364 -740 0
-460 -584 0
-460 -740 0
-584 -740 0
-369 -469 0
-369 -597 0
-369 -757 0
-469 -597 0
-469 -757 0
-597 -757 0
-370 -470 0
-370 -598 0
-370 -758 0
-470 -598 0
-470 -758 0
-598 -758 0
-371 -471 0
-371 -599 0
-371 -759 0
-471 -599 0
-471 -759 0
-599 -759 0
-372 -472 0
-372 -600 0
-372 -760 0
-472 -600 0
-472 -760 0
-600 -760 0
-373 -477 0
-373 -609 0
-373 -773 0
-477 -609 0
-477 -773 0
-609 -773 0
-374 -478 0
-374 -610 0
-374 -774 0
-478 -610 0
-478 -774 0
-610 -774 0
-375 -479 0
-375 -611 0
-375 -775 0
-479 -611 0
-479 -775 0
-611 -775 0
-376 -480 0
-376 -612 0
-376 -776 0
-480 -612 0
-480 -776 0
-612 -776 0
-401 -513 0
-401 -657 0
-513 -657 0
-402 -514 0
-402 -658 0
-514 -658 0
-403 -515 0
-403 -659 0
-515 -659 0
-404 -516 0
-404 -660 0
-516 -660 0
-425 -541 0
-425 -689 0
-541 -689 0
-426 -542 0
-426 -690 0
-542 -690 0
-427 -543 0
-427 -691 0
-543 -691 0
-428 -544 0
-428 -692 0
-544 -692 0
-445 -565 0
-445 -717 0
-565 -717 0
-446 -566 0
-446 -718 0
-566 -718 0
-447 -567 0
-447 -719 0
-567 -719 0
-448 -568 0
-448 -720 0
-568 -720 0
-461 -585 0
-461 -741 0
-585 -741 0
-462 -586 0
-462 -742 0
-586 -742 0
-463 -587 0
-463 -743 0
-587 -743 0
-464 -588 0
-464 -744 0
-588 -744 0
-473 -601 0
-473 -761 0
-601 -761 0
-474 -602 0
-474 -762 0
-602 -762 0
-475 -603 0
-475 -763 0
-603 -763 0
-476 -604 0
-476 -764 0
-604 -764 0
-481 -613 0
-481 -777 0
-613 -777 0
-482 -614 0
-482 -778 0
-614 -778 0
-483 -615 0
-483 -779 0
-615 -779 0
-484 -616 0
-484 -780 0
-616 -780 0
-485 -621 0
-485 -789 0
-621 -789 0
-486 -622 0
-486 -790 0
-622 -790 0
-487 -623 0
-487 -791 0
-623 -791 0
-488 -624 0
-488 -792 0
-624 -792 0
-517 -661 0
-518 -662 0
-519 -663 0
-520 -664 0
-545 -693 0
-546 -694 0
-547 -695 0
-548 -696 0
-569 -721 0
-570 -722 0
-571 -723 0
-572 -724 0
-589 -745 0
-590 -746 0
-591 -747 0
-592 -748 0
-605 -765 0
-606 -766 0
-607 -767 0
-608 -768 0
-617 -781 0
-618 -782 0
-619 -783 0
-620 -784 0
-625 -793 0
-626 -794 0
-627 -795 0
-628 -796 0
-629 -801 0
-630 -802 0
-631 -803 0
-632 -804 0
249 250 251 252 265 266 267 268 277 278 279 280 285 286 287 288 289 290 291 292 309 310 311 312 329 330 331 332 345 346 347 348 357 358 359 360 365 366 367 368 373 374 375 376 393 394 395 396 417 418 419 420 437 438 439 440 453 454 455 456 465 466 467 468 477 478 479 480 481 482 483 484 505 506 507 508 533 534 535 536 557 558 559 560 577 578 579 580 593 594 595 596 609 610 611 612 613 614 615 616 617 618 619 620 649 650 651 652 681 682 683 684 709 710 711 712 733 734 735 736 753 754 755 756 773 774 775 776 777 778 779 780 781 782 783 784 785 786 787 788 0
313 314 315 316 333 334 335 336 349 350 351 352 361 362 363 364 369 370 371 372 373 374 375 376 397 398 399 400 421 422 423 424 441 442 443 444 457 458 459 460 469 470 471 472 477 478 479 480 485 486 487 488 509 510 511 512 537 538 539 540 561 562 563 564 581 582 583 584 597 598 599 600 609 610 611 612 621 622 623 624 625 626 627 628 653 654 655 656 685 686 687 688 713 714 715 716 737 738 739 740 757 758 759 760 773 774 775 776 789 790 791 792 793 794 795 796 797 798 799 800 0
401 402 403 404 425 426 427 428 445 446 447 448 461 462 463 464 473 474 475 476 481 482 483 484 485 486 487 488 513 514 515 516 541 542 543 544 565 566 567 568 585 586 587 588 601 602 603 604 613 614 615 616 621 622 623 624 629 630 631 632 657 658 659 660 689 690 691 692 717 718 719 720 741 742 743 744 761 762 763 764 777 778 779 780 789 790 791 792 801 802 803 804 805 806 807 808 0
517 518 519 520 545 546 547 548 569 570 571 572 589 590 591 592 605 606 607 608 617 618 619 620 625 626 627 628 629 630 631 632 661 662 663 664 693 694 695 696 721 722 723 724 745 746 747 748 765 766 767 768 781 782 783 784 793 794 795 796 801 802 803 804 809 810 811 812 0
665 666 667 668 697 698 699 700 725 726 727 728 749 750 751 752 769 770 771 772 785 786 787 788 797 798 799 800 805 806 807 808 809 810 811 812 0
813 -161 0
-813 161 0
813 -162 0
-813 162 0
813 163 0
-813 -163 0
813 -164 0
-813 164 0
813 165 0
-813 -165 0
813 -166 0
-813 166 0
813 167 0
-813 -167 0
813 -168 0
-813 168 0
813 169 0
-813 -169 0
813 -170 0
-813 170 0
813 -171 0
-813 171 0
813 -172 0
-813 172 0
813 -173 0
-813 173 0
813 -174 0
-813 174 0
813 -175 0
-813 175 0
813 -176 0
-813 176 0
813 -177 0
-813 177 0
813 178 0
-813 -178 0
813 179 0
-813 -179 0
813 180 0
-813 -180 0
813 181 0
-813 -181 0
813 -182 0
-813 182 0
813 183 0
-813 -183 0
813 184 0
-813 -184 0
813 185 0
-813 -185 0
813 186 0
-813 -186 0
813 -187 0
-813 187 0
813 -188 0
-813 188 0
813 -189 0
-813 189 0
813 -190 0
-813 190 0
813 -191 0
-813 191 0
813 -192 0
-813 192 0
