p cnf 425 25063
129 130 131 132 133 134 135 136 137 138 139 140 141 142 143 144 145 146 147 148 149 150 151 152 153 154 155 156 157 158 159 160 161 162 163 164 165 166 167 168 0
-129 -130 0
-129 -131 0
-129 -132 0
-129 -133 0
-129 -134 0
-129 -135 0
-129 -136 0
-129 -137 0
-129 -138 0
-129 -139 0
-129 -140 0
-129 -141 0
-129 -142 0
-129 -143 0
-129 -144 0
-129 -145 0
-129 -146 0
-129 -147 0
-129 -148 0
-129 -149 0
-129 -150 0
-129 -151 0
-129 -152 0
-129 -153 0
-129 -154 0
-129 -155 0
-129 -156 0
-129 -157 0
-129 -158 0
-129 -159 0
-129 -160 0
-129 -161 0
-129 -162 0
-129 -163 0
-129 -164 0
-129 -165 0
-129 -166 0
-129 -167 0
-129 -168 0
-130 -131 0
-130 -132 0
-130 -133 0
-130 -134 0
-130 -135 0
-130 -136 0
-130 -137 0
-130 -138 0
-130 -139 0
-130 -140 0
-130 -141 0
-130 -142 0
-130 -143 0
-130 -144 0
-130 -145 0
-130 -146 0
-130 -147 0
-130 -148 0
-130 -149 0
-130 -150 0
-130 -151 0
-130 -152 0
-130 -153 0
-130 -154 0
-130 -155 0
-130 -156 0
-130 -157 0
-130 -158 0
-130 -159 0
-130 -160 0
-130 -161 0
-130 -162 0
-130 -163 0
-130 -164 0
-130 -165 0
-130 -166 0
-130 -167 0
-130 -168 0
-131 -132 0
-131 -133 0
-131 -134 0
-131 -135 0
-131 -136 0
-131 -137 0
-131 -138 0
-131 -139 0
-131 -140 0
-131 -141 0
-131 -142 0
-131 -143 0
-131 -144 0
-131 -145 0
-131 -146 0
-131 -147 0
-131 -148 0
-131 -149 0
-131 -150 0
-131 -151 0
-131 -152 0
-131 -153 0
-131 -154 0
-131 -155 0
-131 -156 0
-131 -157 0
-131 -158 0
-131 -159 0
-131 -160 0
-131 -161 0
-131 -162 0
-131 -163 0
-131 -164 0
-131 -165 0
-131 -166 0
-131 -167 0
-131 -168 0
-132 -133 0
-132 -134 0
-132 -135 0
-132 -136 0
-132 -137 0
-132 -138 0
-132 -139 0
-132 -140 0
-132 -141 0
-132 -142 0
-132 -143 0
-132 -144 0
-132 -145 0
-132 -146 0
-132 -147 0
-132 -148 0
-132 -149 0
-132 -150 0
-132 -151 0
-132 -152 0
-132 -153 0
-132 -154 0
-132 -155 0
-132 -156 0
-132 -157 0
-132 -158 0
-132 -159 0
-132 -160 0
-132 -161 0
-132 -162 0
-132 -163 0
-132 -164 0
-132 -165 0
-132 -166 0
-132 -167 0
-132 -168 0
-133 -134 0
-133 -135 0
-133 -136 0
-133 -137 0
-133 -138 0
-133 -139 0
-133 -140 0
-133 -141 0
-133 -142 0
-133 -143 0
-133 -144 0
-133 -145 0
-133 -146 0
-133 -147 0
-133 -148 0
-133 -149 0
-133 -150 0
-133 -151 0
-133 -152 0
-133 -153 0
-133 -154 0
-133 -155 0
-133 -156 0
-133 -157 0
-133 -158 0
-133 -159 0
-133 -160 0
-133 -161 0
-133 -162 0
-133 -163 0
-133 -164 0
-133 -165 0
-133 -166 0
-133 -167 0
-133 -168 0
-134 -135 0
-134 -136 0
-134 -137 0
-134 -138 0
-134 -139 0
-134 -140 0
-134 -141 0
-134 -142 0
-134 -143 0
-134 -144 0
-134 -145 0
-134 -146 0
-134 -147 0
-134 -148 0
-134 -149 0
-134 -150 0
-134 -151 0
-134 -152 0
-134 -153 0
-134 -154 0
-134 -155 0
-134 -156 0
-134 -157 0
-134 -158 0
-134 -159 0
-134 -160 0
-134 -161 0
-134 -162 0
-134 -163 0
-134 -164 0
-134 -165 0
-134 -166 0
-134 -167 0
-134 -168 0
-135 -136 0
-135 -137 0
-135 -138 0
-135 -139 0
-135 -140 0
-135 -141 0
-135 -142 0
-135 -143 0
-135 -144 0
-135 -145 0
-135 -146 0
-135 -147 0
-135 -148 0
-135 -149 0
-135 -150 0
-135 -151 0
-135 -152 0
-135 -153 0
-135 -154 0
-135 -155 0
-135 -156 0
-135 -157 0
-135 -158 0
-135 -159 0
-135 -160 0
-135 -161 0
-135 -162 0
-135 -163 0
-135 -164 0
-135 -165 0
-135 -166 0
-135 -167 0
-135 -168 0
-136 -137 0
-136 -138 0
-136 -139 0
-136 -140 0
-136 -141 0
-136 -142 0
-136 -143 0
-136 -144 0
-136 -145 0
-136 -146 0
-136 -147 0
-136 -148 0
-136 -149 0
-136 -150 0
-136 -151 0
-136 -152 0
-136 -153 0
-136 -154 0
-136 -155 0
-136 -156 0
-136 -157 0
-136 -158 0
-136 -159 0
-136 -160 0
-136 -161 0
-136 -162 0
-136 -163 0
-136 -164 0
-136 -165 0
-136 -166 0
-136 -167 0
-136 -168 0
-137 -138 0
-137 -139 0
-137 -140 0
-137 -141 0
-137 -142 0
-137 -143 0
-137 -144 0
-137 -145 0
-137 -146 0
-137 -147 0
-137 -148 0
-137 -149 0
-137 -150 0
-137 -151 0
-137 -152 0
-137 -153 0
-137 -154 0
-137 -155 0
-137 -156 0
-137 -157 0
-137 -158 0
-137 -159 0
-137 -160 0
-137 -161 0
-137 -162 0
-137 -163 0
-137 -164 0
-137 -165 0
-137 -166 0
-137 -167 0
-137 -168 0
-138 -139 0
-138 -140 0
-138 -141 0
-138 -142 0
-138 -143 0
-138 -144 0
-138 -145 0
-138 -146 0
-138 -147 0
-138 -148 0
-138 -149 0
-138 -150 0
-138 -151 0
-138 -152 0
-138 -153 0
-138 -154 0
-138 -155 0
-138 -156 0
-138 -157 0
-138 -158 0
-138 -159 0
-138 -160 0
-138 -161 0
-138 -162 0
-138 -163 0
-138 -164 0
-138 -165 0
-138 -166 0
-138 -167 0
-138 -168 0
-139 -140 0
-139 -141 0
-139 -142 0
-139 -143 0
-139 -144 0
-139 -145 0
-139 -146 0
-139 -147 0
-139 -148 0
-139 -149 0
-139 -150 0
-139 -151 0
-139 -152 0
-139 -153 0
-139 -154 0
-139 -155 0
-139 -156 0
-139 -157 0
-139 -158 0
-139 -159 0
-139 -160 0
-139 -161 0
-139 -162 0
-139 -163 0
-139 -164 0
-139 -165 0
-139 -166 0
-139 -167 0
-139 -168 0
-140 -141 0
-140 -142 0
-140 -143 0
-140 -144 0
-140 -145 0
-140 -146 0
-140 -147 0
-140 -148 0
-140 -149 0
-140 -150 0
-140 -151 0
-140 -152 0
-140 -153 0
-140 -154 0
-140 -155 0
-140 -156 0
-140 -157 0
-140 -158 0
-140 -159 0
-140 -160 0
-140 -161 0
-140 -162 0
-140 -163 0
-140 -164 0
-140 -165 0
-140 -166 0
-140 -167 0
-140 -168 0
-141 -142 0
-141 -143 0
-141 -144 0
-141 -145 0
-141 -146 0
-141 -147 0
-141 -148 0
-141 -149 0
-141 -150 0
-141 -151 0
-141 -152 0
-141 -153 0
-141 -154 0
-141 -155 0
-141 -156 0
-141 -157 0
-141 -158 0
-141 -159 0
-141 -160 0
-141 -161 0
-141 -162 0
-141 -163 0
-141 -164 0
-141 -165 0
-141 -166 0
-141 -167 0
-141 -168 0
-142 -143 0
-142 -144 0
-142 -145 0
-142 -146 0
-142 -147 0
-142 -148 0
-142 -149 0
-142 -150 0
-142 -151 0
-142 -152 0
-142 -153 0
-142 -154 0
-142 -155 0
-142 -156 0
-142 -157 0
-142 -158 0
-142 -159 0
-142 -160 0
-142 -161 0
-142 -162 0
-142 -163 0
-142 -164 0
-142 -165 0
-142 -166 0
-142 -167 0
-142 -168 0
-143 -144 0
-143 -145 0
-143 -146 0
-143 -147 0
-143 -148 0
-143 -149 0
-143 -150 0
-143 -151 0
-143 -152 0
-143 -153 0
-143 -154 0
-143 -155 0
-143 -156 0
-143 -157 0
-143 -158 0
-143 -159 0
-143 -160 0
-143 -161 0
-143 -162 0
-143 -163 0
-143 -164 0
-143 -165 0
-143 -166 0
-143 -167 0
-143 -168 0
-144 -145 0
-144 -146 0
-144 -147 0
-144 -148 0
-144 -149 0
-144 -150 0
-144 -151 0
-144 -152 0
-144 -153 0
-144 -154 0
-144 -155 0
-144 -156 0
-144 -157 0
-144 -158 0
-144 -159 0
-144 -160 0
-144 -161 0
-144 -162 0
-144 -163 0
-144 -164 0
-144 -165 0
-144 -166 0
-144 -167 0
-144 -168 0
-145 -146 0
-145 -147 0
-145 -148 0
-145 -149 0
-145 -150 0
-145 -151 0
-145 -152 0
-145 -153 0
-145 -154 0
-145 -155 0
-145 -156 0
-145 -157 0
-145 -158 0
-145 -159 0
-145 -160 0
-145 -161 0
-145 -162 0
-145 -163 0
-145 -164 0
-145 -165 0
-145 -166 0
-145 -167 0
-145 -168 0
-146 -147 0
-146 -148 0
-146 -149 0
-146 -150 0
-146 -151 0
-146 -152 0
-146 -153 0
-146 -154 0
-146 -155 0
-146 -156 0
-146 -157 0
-146 -158 0
-146 -159 0
-146 -160 0
-146 -161 0
-146 -162 0
-146 -163 0
-146 -164 0
-146 -165 0
-146 -166 0
-146 -167 0
-146 -168 0
-147 -148 0
-147 -149 0
-147 -150 0
-147 -151 0
-147 -152 0
-147 -153 0
-147 -154 0
-147 -155 0
-147 -156 0
-147 -157 0
-147 -158 0
-147 -159 0
-147 -160 0
-147 -161 0
-147 -162 0
-147 -163 0
-147 -164 0
-147 -165 0
-147 -166 0
-147 -167 0
-147 -168 0
-148 -149 0
-148 -150 0
-148 -151 0
-148 -152 0
-148 -153 0
-148 -154 0
-148 -155 0
-148 -156 0
-148 -157 0
-148 -158 0
-148 -159 0
-148 -160 0
-148 -161 0
-148 -162 0
-148 -163 0
-148 -164 0
-148 -165 0
-148 -166 0
-148 -167 0
-148 -168 0
-149 -150 0
-149 -151 0
-149 -152 0
-149 -153 0
-149 -154 0
-149 -155 0
-149 -156 0
-149 -157 0
-149 -158 0
-149 -159 0
-149 -160 0
-149 -161 0
-149 -162 0
-149 -163 0
-149 -164 0
-149 -165 0
-149 -166 0
-149 -167 0
-149 -168 0
-150 -151 0
-150 -152 0
-150 -153 0
-150 -154 0
-150 -155 0
-150 -156 0
-150 -157 0
-150 -158 0
-150 -159 0
-150 -160 0
-150 -161 0
-150 -162 0
-150 -163 0
-150 -164 0
-150 -165 0
-150 -166 0
-150 -167 0
-150 -168 0
-151 -152 0
-151 -153 0
-151 -154 0
-151 -155 0
-151 -156 0
-151 -157 0
-151 -158 0
-151 -159 0
-151 -160 0
-151 -161 0
-151 -162 0
-151 -163 0
-151 -164 0
-151 -165 0
-151 -166 0
-151 -167 0
-151 -168 0
-152 -153 0
-152 -154 0
-152 -155 0
-152 -156 0
-152 -157 0
-152 -158 0
-152 -159 0
-152 -160 0
-152 -161 0
-152 -162 0
-152 -163 0
-152 -164 0
-152 -165 0
-152 -166 0
-152 -167 0
-152 -168 0
-153 -154 0
-153 -155 0
-153 -156 0
-153 -157 0
-153 -158 0
-153 -159 0
-153 -160 0
-153 -161 0
-153 -162 0
-153 -163 0
-153 -164 0
-153 -165 0
-153 -166 0
-153 -167 0
-153 -168 0
-154 -155 0
-154 -156 0
-154 -157 0
-154 -158 0
-154 -159 0
-154 -160 0
-154 -161 0
-154 -162 0
-154 -163 0
-154 -164 0
-154 -165 0
-154 -166 0
-154 -167 0
-154 -168 0
-155 -156 0
-155 -157 0
-155 -158 0
-155 -159 0
-155 -160 0
-155 -161 0
-155 -162 0
-155 -163 0
-155 -164 0
-155 -165 0
-155 -166 0
-155 -167 0
-155 -168 0
-156 -157 0
-156 -158 0
-156 -159 0
-156 -160 0
-156 -161 0
-156 -162 0
-156 -163 0
-156 -164 0
-156 -165 0
-156 -166 0
-156 -167 0
-156 -168 0
-157 -158 0
-157 -159 0
-157 -160 0
-157 -161 0
-157 -162 0
-157 -163 0
-157 -164 0
-157 -165 0
-157 -166 0
-157 -167 0
-157 -168 0
-158 -159 0
-158 -160 0
-158 -161 0
-158 -162 0
-158 -163 0
-158 -164 0
-158 -165 0
-158 -166 0
-158 -167 0
-158 -168 0
-159 -160 0
-159 -161 0
-159 -162 0
-159 -163 0
-159 -164 0
-159 -165 0
-159 -166 0
-159 -167 0
-159 -168 0
-160 -161 0
-160 -162 0
-160 -163 0
-160 -164 0
-160 -165 0
-160 -166 0
-160 -167 0
-160 -168 0
-161 -162 0
-161 -163 0
-161 -164 0
-161 -165 0
-161 -166 0
-161 -167 0
-161 -168 0
-162 -163 0
-162 -164 0
-162 -165 0
-162 -166 0
-162 -167 0
-162 -168 0
-163 -164 0
-163 -165 0
-163 -166 0
-163 -167 0
-163 -168 0
-164 -165 0
-164 -166 0
-164 -167 0
-164 -168 0
-165 -166 0
-165 -167 0
-165 -168 0
-166 -167 0
-166 -168 0
-167 -168 0
-129 -1 0
-129 -2 0
-129 -3 0
-129 4 0
-129 -5 0
-129 -6 0
-129 -7 0
-129 8 0
-129 -9 0
-129 -10 0
-129 -11 0
-129 12 0
-129 -13 0
-129 -14 0
-129 -15 0
-129 16 0
-129 -17 0
-129 -18 0
-129 -19 0
-129 20 0
-129 -21 0
-129 -22 0
-129 -23 0
-129 24 0
-129 -25 0
-129 -26 0
-129 -27 0
-129 28 0
-129 -29 0
-129 -30 0
-129 -31 0
-129 32 0
-130 -1 0
-130 2 0
-130 -3 0
-130 -4 0
-130 -5 0
-130 6 0
-130 -7 0
-130 -8 0
-130 -9 0
-130 10 0
-130 -11 0
-130 -12 0
-130 -13 0
-130 14 0
-130 -15 0
-130 -16 0
-130 -17 0
-130 18 0
-130 -19 0
-130 -20 0
-130 -21 0
-130 22 0
-130 -23 0
-130 -24 0
-130 -25 0
-130 26 0
-130 -27 0
-130 -28 0
-130 -29 0
-130 30 0
-130 -31 0
-130 -32 0
-131 -1 0
-131 -2 0
-131 3 0
-131 -4 0
-131 -5 0
-131 -6 0
-131 7 0
-131 -8 0
-131 -9 0
-131 -10 0
-131 11 0
-131 -12 0
-131 -13 0
-131 -14 0
-131 15 0
-131 -16 0
-131 -17 0
-131 -18 0
-131 19 0
-131 -20 0
-131 -21 0
-131 -22 0
-131 23 0
-131 -24 0
-131 -25 0
-131 -26 0
-131 27 0
-131 -28 0
-131 -29 0
-131 -30 0
-131 31 0
-131 -32 0
-132 1 0
-132 -2 0
-132 -3 0
-132 -4 0
-132 5 0
-132 -6 0
-132 -7 0
-132 -8 0
-132 9 0
-132 -10 0
-132 -11 0
-132 -12 0
-132 13 0
-132 -14 0
-132 -15 0
-132 -16 0
-132 17 0
-132 -18 0
-132 -19 0
-132 -20 0
-132 21 0
-132 -22 0
-132 -23 0
-132 -24 0
-132 25 0
-132 -26 0
-132 -27 0
-132 -28 0
-132 29 0
-132 -30 0
-132 -31 0
-132 -32 0
-133 -1 0
-133 -2 0
-133 -3 0
-133 -4 0
-133 -5 0
-133 6 0
-133 -7 0
-133 8 0
-133 -9 0
-133 -10 0
-133 -11 0
-133 -12 0
-133 -13 0
-133 14 0
-133 -15 0
-133 16 0
-133 -17 0
-133 -18 0
-133 -19 0
-133 -20 0
-133 -21 0
-133 22 0
-133 -23 0
-133 24 0
-133 -25 0
-133 -26 0
-133 -27 0
-133 -28 0
-133 -29 0
-133 30 0
-133 -31 0
-133 32 0
-134 -1 0
-134 2 0
-134 -3 0
-134 4 0
-134 -5 0
-134 -6 0
-134 -7 0
-134 -8 0
-134 -9 0
-134 10 0
-134 -11 0
-134 12 0
-134 -13 0
-134 -14 0
-134 -15 0
-134 -16 0
-134 -17 0
-134 18 0
-134 -19 0
-134 20 0
-134 -21 0
-134 -22 0
-134 -23 0
-134 -24 0
-134 -25 0
-134 26 0
-134 -27 0
-134 28 0
-134 -29 0
-134 -30 0
-134 -31 0
-134 -32 0
-135 -1 0
-135 -2 0
-135 -3 0
-135 -4 0
-135 5 0
-135 -6 0
-135 7 0
-135 -8 0
-135 -9 0
-135 -10 0
-135 -11 0
-135 -12 0
-135 13 0
-135 -14 0
-135 15 0
-135 -16 0
-135 -17 0
-135 -18 0
-135 -19 0
-135 -20 0
-135 21 0
-135 -22 0
-135 23 0
-135 -24 0
-135 -25 0
-135 -26 0
-135 -27 0
-135 -28 0
-135 29 0
-135 -30 0
-135 31 0
-135 -32 0
-136 1 0
-136 -2 0
-136 3 0
-136 -4 0
-136 -5 0
-136 -6 0
-136 -7 0
-136 -8 0
-136 9 0
-136 -10 0
-136 11 0
-136 -12 0
-136 -13 0
-136 -14 0
-136 -15 0
-136 -16 0
-136 17 0
-136 -18 0
-136 19 0
-136 -20 0
-136 -21 0
-136 -22 0
-136 -23 0
-136 -24 0
-136 25 0
-136 -26 0
-136 27 0
-136 -28 0
-136 -29 0
-136 -30 0
-136 -31 0
-136 -32 0
-137 -1 0
-137 -2 0
-137 -3 0
-137 -4 0
-137 -5 0
-137 -6 0
-137 -7 0
-137 -8 0
-137 -9 0
-137 10 0
-137 -11 0
-137 12 0
-137 -13 0
-137 14 0
-137 -15 0
-137 16 0
-137 -17 0
-137 -18 0
-137 -19 0
-137 -20 0
-137 -21 0
-137 -22 0
-137 -23 0
-137 -24 0
-137 -25 0
-137 26 0
-137 -27 0
-137 28 0
-137 -29 0
-137 30 0
-137 -31 0
-137 32 0
-138 -1 0
-138 2 0
-138 -3 0
-138 4 0
-138 -5 0
-138 6 0
-138 -7 0
-138 8 0
-138 -9 0
-138 -10 0
-138 -11 0
-138 -12 0
-138 -13 0
-138 -14 0
-138 -15 0
-138 -16 0
-138 -17 0
-138 18 0
-138 -19 0
-138 20 0
-138 -21 0
-138 22 0
-138 -23 0
-138 24 0
-138 -25 0
-138 -26 0
-138 -27 0
-138 -28 0
-138 -29 0
-138 -30 0
-138 -31 0
-138 -32 0
-139 -1 0
-139 -2 0
-139 -3 0
-139 -4 0
-139 -5 0
-139 -6 0
-139 -7 0
-139 -8 0
-139 9 0
-139 -10 0
-139 11 0
-139 -12 0
-139 13 0
-139 -14 0
-139 15 0
-139 -16 0
-139 -17 0
-139 -18 0
-139 -19 0
-139 -20 0
-139 -21 0
-139 -22 0
-139 -23 0
-139 -24 0
-139 25 0
-139 -26 0
-139 27 0
-139 -28 0
-139 29 0
-139 -30 0
-139 31 0
-139 -32 0
-140 1 0
-140 -2 0
-140 3 0
-140 -4 0
-140 5 0
-140 -6 0
-140 7 0
-140 -8 0
-140 -9 0
-140 -10 0
-140 -11 0
-140 -12 0
-140 -13 0
-140 -14 0
-140 -15 0
-140 -16 0
-140 17 0
-140 -18 0
-140 19 0
-140 -20 0
-140 21 0
-140 -22 0
-140 23 0
-140 -24 0
-140 -25 0
-140 -26 0
-140 -27 0
-140 -28 0
-140 -29 0
-140 -30 0
-140 -31 0
-140 -32 0
-141 -1 0
-141 -2 0
-141 -3 0
-141 -4 0
-141 -5 0
-141 -6 0
-141 -7 0
-141 -8 0
-141 -9 0
-141 -10 0
-141 -11 0
-141 -12 0
-141 -13 0
-141 -14 0
-141 -15 0
-141 -16 0
-141 -17 0
-141 18 0
-141 -19 0
-141 20 0
-141 -21 0
-141 22 0
-141 -23 0
-141 24 0
-141 -25 0
-141 26 0
-141 -27 0
-141 28 0
-141 -29 0
-141 30 0
-141 -31 0
-141 32 0
-142 -1 0
-142 2 0
-142 -3 0
-142 4 0
-142 -5 0
-142 6 0
-142 -7 0
-142 8 0
-142 -9 0
-142 10 0
-142 -11 0
-142 12 0
-142 -13 0
-142 14 0
-142 -15 0
-142 16 0
-142 -17 0
-142 -18 0
-142 -19 0
-142 -20 0
-142 -21 0
-142 -22 0
-142 -23 0
-142 -24 0
-142 -25 0
-142 -26 0
-142 -27 0
-142 -28 0
-142 -29 0
-142 -30 0
-142 -31 0
-142 -32 0
-143 -1 0
-143 -2 0
-143 -3 0
-143 -4 0
-143 -5 0
-143 -6 0
-143 -7 0
-143 -8 0
-143 -9 0
-143 -10 0
-143 -11 0
-143 -12 0
-143 -13 0
-143 -14 0
-143 -15 0
-143 -16 0
-143 17 0
-143 -18 0
-143 19 0
-143 -20 0
-143 21 0
-143 -22 0
-143 23 0
-143 -24 0
-143 25 0
-143 -26 0
-143 27 0
-143 -28 0
-143 29 0
-143 -30 0
-143 31 0
-143 -32 0
-144 1 0
-144 -2 0
-144 3 0
-144 -4 0
-144 5 0
-144 -6 0
-144 7 0
-144 -8 0
-144 9 0
-144 -10 0
-144 11 0
-144 -12 0
-144 13 0
-144 -14 0
-144 15 0
-144 -16 0
-144 -17 0
-144 -18 0
-144 -19 0
-144 -20 0
-144 -21 0
-144 -22 0
-144 -23 0
-144 -24 0
-144 -25 0
-144 -26 0
-144 -27 0
-144 -28 0
-144 -29 0
-144 -30 0
-144 -31 0
-144 -32 0
-145 -1 0
-145 -2 0
-145 -3 0
-145 -4 0
-145 -5 0
-145 -6 0
-145 7 0
-145 8 0
-145 -9 0
-145 -10 0
-145 -11 0
-145 -12 0
-145 -13 0
-145 -14 0
-145 15 0
-145 16 0
-145 -17 0
-145 -18 0
-145 -19 0
-145 -20 0
-145 -21 0
-145 -22 0
-145 23 0
-145 24 0
-145 -25 0
-145 -26 0
-145 -27 0
-145 -28 0
-145 -29 0
-145 -30 0
-145 31 0
-145 32 0
-146 -1 0
-146 -2 0
-146 3 0
-146 4 0
-146 -5 0
-146 -6 0
-146 -7 0
-146 -8 0
-146 -9 0
-146 -10 0
-146 11 0
-146 12 0
-146 -13 0
-146 -14 0
-146 -15 0
-146 -16 0
-146 -17 0
-146 -18 0
-146 19 0
-146 20 0
-146 -21 0
-146 -22 0
-146 -23 0
-146 -24 0
-146 -25 0
-146 -26 0
-146 27 0
-146 28 0
-146 -29 0
-146 -30 0
-146 -31 0
-146 -32 0
-147 -1 0
-147 -2 0
-147 -3 0
-147 -4 0
-147 5 0
-147 6 0
-147 -7 0
-147 -8 0
-147 -9 0
-147 -10 0
-147 -11 0
-147 -12 0
-147 13 0
-147 14 0
-147 -15 0
-147 -16 0
-147 -17 0
-147 -18 0
-147 -19 0
-147 -20 0
-147 21 0
-147 22 0
-147 -23 0
-147 -24 0
-147 -25 0
-147 -26 0
-147 -27 0
-147 -28 0
-147 29 0
-147 30 0
-147 -31 0
-147 -32 0
-148 1 0
-148 2 0
-148 -3 0
-148 -4 0
-148 -5 0
-148 -6 0
-148 -7 0
-148 -8 0
-148 9 0
-148 10 0
-148 -11 0
-148 -12 0
-148 -13 0
-148 -14 0
-148 -15 0
-148 -16 0
-148 17 0
-148 18 0
-148 -19 0
-148 -20 0
-148 -21 0
-148 -22 0
-148 -23 0
-148 -24 0
-148 25 0
-148 26 0
-148 -27 0
-148 -28 0
-148 -29 0
-148 -30 0
-148 -31 0
-148 -32 0
-149 -1 0
-149 -2 0
-149 -3 0
-149 -4 0
-149 -5 0
-149 -6 0
-149 -7 0
-149 -8 0
-149 -9 0
-149 -10 0
-149 11 0
-149 12 0
-149 -13 0
-149 -14 0
-149 15 0
-149 16 0
-149 -17 0
-149 -18 0
-149 -19 0
-149 -20 0
-149 -21 0
-149 -22 0
-149 -23 0
-149 -24 0
-149 -25 0
-149 -26 0
-149 27 0
-149 28 0
-149 -29 0
-149 -30 0
-149 31 0
-149 32 0
-150 -1 0
-150 -2 0
-150 3 0
-150 4 0
-150 -5 0
-150 -6 0
-150 7 0
-150 8 0
-150 -9 0
-150 -10 0
-150 -11 0
-150 -12 0
-150 -13 0
-150 -14 0
-150 -15 0
-150 -16 0
-150 -17 0
-150 -18 0
-150 19 0
-150 20 0
-150 -21 0
-150 -22 0
-150 23 0
-150 24 0
-150 -25 0
-150 -26 0
-150 -27 0
-150 -28 0
-150 -29 0
-150 -30 0
-150 -31 0
-150 -32 0
-151 -1 0
-151 -2 0
-151 -3 0
-151 -4 0
-151 -5 0
-151 -6 0
-151 -7 0
-151 -8 0
-151 9 0
-151 10 0
-151 -11 0
-151 -12 0
-151 13 0
-151 14 0
-151 -15 0
-151 -16 0
-151 -17 0
-151 -18 0
-151 -19 0
-151 -20 0
-151 -21 0
-151 -22 0
-151 -23 0
-151 -24 0
-151 25 0
-151 26 0
-151 -27 0
-151 -28 0
-151 29 0
-151 30 0
-151 -31 0
-151 -32 0
-152 1 0
-152 2 0
-152 -3 0
-152 -4 0
-152 5 0
-152 6 0
-152 -7 0
-152 -8 0
-152 -9 0
-152 -10 0
-152 -11 0
-152 -12 0
-152 -13 0
-152 -14 0
-152 -15 0
-152 -16 0
-152 17 0
-152 18 0
-152 -19 0
-152 -20 0
-152 21 0
-152 22 0
-152 -23 0
-152 -24 0
-152 -25 0
-152 -26 0
-152 -27 0
-152 -28 0
-152 -29 0
-152 -30 0
-152 -31 0
-152 -32 0
-153 -1 0
-153 -2 0
-153 -3 0
-153 -4 0
-153 -5 0
-153 -6 0
-153 -7 0
-153 -8 0
-153 -9 0
-153 -10 0
-153 -11 0
-153 -12 0
-153 -13 0
-153 -14 0
-153 -15 0
-153 -16 0
-153 -17 0
-153 -18 0
-153 19 0
-153 20 0
-153 -21 0
-153 -22 0
-153 23 0
-153 24 0
-153 -25 0
-153 -26 0
-153 27 0
-153 28 0
-153 -29 0
-153 -30 0
-153 31 0
-153 32 0
-154 -1 0
-154 -2 0
-154 3 0
-154 4 0
-154 -5 0
-154 -6 0
-154 7 0
-154 8 0
-154 -9 0
-154 -10 0
-154 11 0
-154 12 0
-154 -13 0
-154 -14 0
-154 15 0
-154 16 0
-154 -17 0
-154 -18 0
-154 -19 0
-154 -20 0
-154 -21 0
-154 -22 0
-154 -23 0
-154 -24 0
-154 -25 0
-154 -26 0
-154 -27 0
-154 -28 0
-154 -29 0
-154 -30 0
-154 -31 0
-154 -32 0
-155 -1 0
-155 -2 0
-155 -3 0
-155 -4 0
-155 -5 0
-155 -6 0
-155 -7 0
-155 -8 0
-155 -9 0
-155 -10 0
-155 -11 0
-155 -12 0
-155 -13 0
-155 -14 0
-155 -15 0
-155 -16 0
-155 17 0
-155 18 0
-155 -19 0
-155 -20 0
-155 21 0
-155 22 0
-155 -23 0
-155 -24 0
-155 25 0
-155 26 0
-155 -27 0
-155 -28 0
-155 29 0
-155 30 0
-155 -31 0
-155 -32 0
-156 1 0
-156 2 0
-156 -3 0
-156 -4 0
-156 5 0
-156 6 0
-156 -7 0
-156 -8 0
-156 9 0
-156 10 0
-156 -11 0
-156 -12 0
-156 13 0
-156 14 0
-156 -15 0
-156 -16 0
-156 -17 0
-156 -18 0
-156 -19 0
-156 -20 0
-156 -21 0
-156 -22 0
-156 -23 0
-156 -24 0
-156 -25 0
-156 -26 0
-156 -27 0
-156 -28 0
-156 -29 0
-156 -30 0
-156 -31 0
-156 -32 0
-157 -1 0
-157 -2 0
-157 -3 0
-157 -4 0
-157 -5 0
-157 -6 0
-157 -7 0
-157 -8 0
-157 -9 0
-157 -10 0
-157 -11 0
-157 -12 0
-157 13 0
-157 14 0
-157 15 0
-157 16 0
-157 -17 0
-157 -18 0
-157 -19 0
-157 -20 0
-157 -21 0
-157 -22 0
-157 -23 0
-157 -24 0
-157 -25 0
-157 -26 0
-157 -27 0
-157 -28 0
-157 29 0
-157 30 0
-157 31 0
-157 32 0
-158 -1 0
-158 -2 0
-158 -3 0
-158 -4 0
-158 5 0
-158 6 0
-158 7 0
-158 8 0
-158 -9 0
-158 -10 0
-158 -11 0
-158 -12 0
-158 -13 0
-158 -14 0
-158 -15 0
-158 -16 0
-158 -17 0
-158 -18 0
-158 -19 0
-158 -20 0
-158 21 0
-158 22 0
-158 23 0
-158 24 0
-158 -25 0
-158 -26 0
-158 -27 0
-158 -28 0
-158 -29 0
-158 -30 0
-158 -31 0
-158 -32 0
-159 -1 0
-159 -2 0
-159 -3 0
-159 -4 0
-159 -5 0
-159 -6 0
-159 -7 0
-159 -8 0
-159 9 0
-159 10 0
-159 11 0
-159 12 0
-159 -13 0
-159 -14 0
-159 -15 0
-159 -16 0
-159 -17 0
-159 -18 0
-159 -19 0
-159 -20 0
-159 -21 0
-159 -22 0
-159 -23 0
-159 -24 0
-159 25 0
-159 26 0
-159 27 0
-159 28 0
-159 -29 0
-159 -30 0
-159 -31 0
-159 -32 0
-160 1 0
-160 2 0
-160 3 0
-160 4 0
-160 -5 0
-160 -6 0
-160 -7 0
-160 -8 0
-160 -9 0
-160 -10 0
-160 -11 0
-160 -12 0
-160 -13 0
-160 -14 0
-160 -15 0
-160 -16 0
-160 17 0
-160 18 0
-160 19 0
-160 20 0
-160 -21 0
-160 -22 0
-160 -23 0
-160 -24 0
-160 -25 0
-160 -26 0
-160 -27 0
-160 -28 0
-160 -29 0
-160 -30 0
-160 -31 0
-160 -32 0
-161 -1 0
-161 -2 0
-161 -3 0
-161 -4 0
-161 -5 0
-161 -6 0
-161 -7 0
-161 -8 0
-161 -9 0
-161 -10 0
-161 -11 0
-161 -12 0
-161 -13 0
-161 -14 0
-161 -15 0
-161 -16 0
-161 -17 0
-161 -18 0
-161 -19 0
-161 -20 0
-161 21 0
-161 22 0
-161 23 0
-161 24 0
-161 -25 0
-161 -26 0
-161 -27 0
-161 -28 0
-161 29 0
-161 30 0
-161 31 0
-161 32 0
-162 -1 0
-162 -2 0
-162 -3 0
-162 -4 0
-162 5 0
-162 6 0
-162 7 0
-162 8 0
-162 -9 0
-162 -10 0
-162 -11 0
-162 -12 0
-162 13 0
-162 14 0
-162 15 0
-162 16 0
-162 -17 0
-162 -18 0
-162 -19 0
-162 -20 0
-162 -21 0
-162 -22 0
-162 -23 0
-162 -24 0
-162 -25 0
-162 -26 0
-162 -27 0
-162 -28 0
-162 -29 0
-162 -30 0
-162 -31 0
-162 -32 0
-163 -1 0
-163 -2 0
-163 -3 0
-163 -4 0
-163 -5 0
-163 -6 0
-163 -7 0
-163 -8 0
-163 -9 0
-163 -10 0
-163 -11 0
-163 -12 0
-163 -13 0
-163 -14 0
-163 -15 0
-163 -16 0
-163 17 0
-163 18 0
-163 19 0
-163 20 0
-163 -21 0
-163 -22 0
-163 -23 0
-163 -24 0
-163 25 0
-163 26 0
-163 27 0
-163 28 0
-163 -29 0
-163 -30 0
-163 -31 0
-163 -32 0
-164 1 0
-164 2 0
-164 3 0
-164 4 0
-164 -5 0
-164 -6 0
-164 -7 0
-164 -8 0
-164 9 0
-164 10 0
-164 11 0
-164 12 0
-164 -13 0
-164 -14 0
-164 -15 0
-164 -16 0
-164 -17 0
-164 -18 0
-164 -19 0
-164 -20 0
-164 -21 0
-164 -22 0
-164 -23 0
-164 -24 0
-164 -25 0
-164 -26 0
-164 -27 0
-164 -28 0
-164 -29 0
-164 -30 0
-164 -31 0
-164 -32 0
-165 -1 0
-165 -2 0
-165 -3 0
-165 -4 0
-165 -5 0
-165 -6 0
-165 -7 0
-165 -8 0
-165 -9 0
-165 -10 0
-165 -11 0
-165 -12 0
-165 -13 0
-165 -14 0
-165 -15 0
-165 -16 0
-165 -17 0
-165 -18 0
-165 -19 0
-165 -20 0
-165 -21 0
-165 -22 0
-165 -23 0
-165 -24 0
-165 25 0
-165 26 0
-165 27 0
-165 28 0
-165 29 0
-165 30 0
-165 31 0
-165 32 0
-166 -1 0
-166 -2 0
-166 -3 0
-166 -4 0
-166 -5 0
-166 -6 0
-166 -7 0
-166 -8 0
-166 9 0
-166 10 0
-166 11 0
-166 12 0
-166 13 0
-166 14 0
-166 15 0
-166 16 0
-166 -17 0
-166 -18 0
-166 -19 0
-166 -20 0
-166 -21 0
-166 -22 0
-166 -23 0
-166 -24 0
-166 -25 0
-166 -26 0
-166 -27 0
-166 -28 0
-166 -29 0
-166 -30 0
-166 -31 0
-166 -32 0
-167 -1 0
-167 -2 0
-167 -3 0
-167 -4 0
-167 -5 0
-167 -6 0
-167 -7 0
-167 -8 0
-167 -9 0
-167 -10 0
-167 -11 0
-167 -12 0
-167 -13 0
-167 -14 0
-167 -15 0
-167 -16 0
-167 17 0
-167 18 0
-167 19 0
-167 20 0
-167 21 0
-167 22 0
-167 23 0
-167 24 0
-167 -25 0
-167 -26 0
-167 -27 0
-167 -28 0
-167 -29 0
-167 -30 0
-167 -31 0
-167 -32 0
-168 1 0
-168 2 0
-168 3 0
-168 4 0
-168 5 0
-168 6 0
-168 7 0
-168 8 0
-168 -9 0
-168 -10 0
-168 -11 0
-168 -12 0
-168 -13 0
-168 -14 0
-168 -15 0
-168 -16 0
-168 -17 0
-168 -18 0
-168 -19 0
-168 -20 0
-168 -21 0
-168 -22 0
-168 -23 0
-168 -24 0
-168 -25 0
-168 -26 0
-168 -27 0
-168 -28 0
-168 -29 0
-168 -30 0
-168 -31 0
-168 -32 0
169 170 171 172 173 174 175 176 177 178 179 180 181 182 183 184 185 186 187 188 189 190 191 192 193 194 195 196 197 198 199 200 201 202 203 204 205 206 207 208 209 210 211 212 213 214 215 216 217 218 219 220 221 222 223 224 225 226 227 228 0
-169 -170 0
-169 -171 0
-169 -172 0
-169 -173 0
-169 -174 0
-169 -175 0
-169 -176 0
-169 -177 0
-169 -178 0
-169 -179 0
-169 -180 0
-169 -181 0
-169 -182 0
-169 -183 0
-169 -184 0
-169 -185 0
-169 -186 0
-169 -187 0
-169 -188 0
-169 -189 0
-169 -190 0
-169 -191 0
-169 -192 0
-169 -193 0
-169 -194 0
-169 -195 0
-169 -196 0
-169 -197 0
-169 -198 0
-169 -199 0
-169 -200 0
-169 -201 0
-169 -202 0
-169 -203 0
-169 -204 0
-169 -205 0
-169 -206 0
-169 -207 0
-169 -208 0
-169 -209 0
-169 -210 0
-169 -211 0
-169 -212 0
-169 -213 0
-169 -214 0
-169 -215 0
-169 -216 0
-169 -217 0
-169 -218 0
-169 -219 0
-169 -220 0
-169 -221 0
-169 -222 0
-169 -223 0
-169 -224 0
-169 -225 0
-169 -226 0
-169 -227 0
-169 -228 0
-170 -171 0
-170 -172 0
-170 -173 0
-170 -174 0
-170 -175 0
-170 -176 0
-170 -177 0
-170 -178 0
-170 -179 0
-170 -180 0
-170 -181 0
-170 -182 0
-170 -183 0
-170 -184 0
-170 -185 0
-170 -186 0
-170 -187 0
-170 -188 0
-170 -189 0
-170 -190 0
-170 -191 0
-170 -192 0
-170 -193 0
-170 -194 0
-170 -195 0
-170 -196 0
-170 -197 0
-170 -198 0
-170 -199 0
-170 -200 0
-170 -201 0
-170 -202 0
-170 -203 0
-170 -204 0
-170 -205 0
-170 -206 0
-170 -207 0
-170 -208 0
-170 -209 0
-170 -210 0
-170 -211 0
-170 -212 0
-170 -213 0
-170 -214 0
-170 -215 0
-170 -216 0
-170 -217 0
-170 -218 0
-170 -219 0
-170 -220 0
-170 -221 0
-170 -222 0
-170 -223 0
-170 -224 0
-170 -225 0
-170 -226 0
-170 -227 0
-170 -228 0
-171 -172 0
-171 -173 0
-171 -174 0
-171 -175 0
-171 -176 0
-171 -177 0
-171 -178 0
-171 -179 0
-171 -180 0
-171 -181 0
-171 -182 0
-171 -183 0
-171 -184 0
-171 -185 0
-171 -186 0
-171 -187 0
-171 -188 0
-171 -189 0
-171 -190 0
-171 -191 0
-171 -192 0
-171 -193 0
-171 -194 0
-171 -195 0
-171 -196 0
-171 -197 0
-171 -198 0
-171 -199 0
-171 -200 0
-171 -201 0
-171 -202 0
-171 -203 0
-171 -204 0
-171 -205 0
-171 -206 0
-171 -207 0
-171 -208 0
-171 -209 0
-171 -210 0
-171 -211 0
-171 -212 0
-171 -213 0
-171 -214 0
-171 -215 0
-171 -216 0
-171 -217 0
-171 -218 0
-171 -219 0
-171 -220 0
-171 -221 0
-171 -222 0
-171 -223 0
-171 -224 0
-171 -225 0
-171 -226 0
-171 -227 0
-171 -228 0
-172 -173 0
-172 -174 0
-172 -175 0
-172 -176 0
-172 -177 0
-172 -178 0
-172 -179 0
-172 -180 0
-172 -181 0
-172 -182 0
-172 -183 0
-172 -184 0
-172 -185 0
-172 -186 0
-172 -187 0
-172 -188 0
-172 -189 0
-172 -190 0
-172 -191 0
-172 -192 0
-172 -193 0
-172 -194 0
-172 -195 0
-172 -196 0
-172 -197 0
-172 -198 0
-172 -199 0
-172 -200 0
-172 -201 0
-172 -202 0
-172 -203 0
-172 -204 0
-172 -205 0
-172 -206 0
-172 -207 0
-172 -208 0
-172 -209 0
-172 -210 0
-172 -211 0
-172 -212 0
-172 -213 0
-172 -214 0
-172 -215 0
-172 -216 0
-172 -217 0
-172 -218 0
-172 -219 0
-172 -220 0
-172 -221 0
-172 -222 0
-172 -223 0
-172 -224 0
-172 -225 0
-172 -226 0
-172 -227 0
-172 -228 0
-173 -174 0
-173 -175 0
-173 -176 0
-173 -177 0
-173 -178 0
-173 -179 0
-173 -180 0
-173 -181 0
-173 -182 0
-173 -183 0
-173 -184 0
-173 -185 0
-173 -186 0
-173 -187 0
-173 -188 0
-173 -189 0
-173 -190 0
-173 -191 0
-173 -192 0
-173 -193 0
-173 -194 0
-173 -195 0
-173 -196 0
-173 -197 0
-173 -198 0
-173 -199 0
-173 -200 0
-173 -201 0
-173 -202 0
-173 -203 0
-173 -204 0
-173 -205 0
-173 -206 0
-173 -207 0
-173 -208 0
-173 -209 0
-173 -210 0
-173 -211 0
-173 -212 0
-173 -213 0
-173 -214 0
-173 -215 0
-173 -216 0
-173 -217 0
-173 -218 0
-173 -219 0
-173 -220 0
-173 -221 0
-173 -222 0
-173 -223 0
-173 -224 0
-173 -225 0
-173 -226 0
-173 -227 0
-173 -228 0
-174 -175 0
-174 -176 0
-174 -177 0
-174 -178 0
-174 -179 0
-174 -180 0
-174 -181 0
-174 -182 0
-174 -183 0
-174 -184 0
-174 -185 0
-174 -186 0
-174 -187 0
-174 -188 0
-174 -189 0
-174 -190 0
-174 -191 0
-174 -192 0
-174 -193 0
-174 -194 0
-174 -195 0
-174 -196 0
-174 -197 0
-174 -198 0
-174 -199 0
-174 -200 0
-174 -201 0
-174 -202 0
-174 -203 0
-174 -204 0
-174 -205 0
-174 -206 0
-174 -207 0
-174 -208 0
-174 -209 0
-174 -210 0
-174 -211 0
-174 -212 0
-174 -213 0
-174 -214 0
-174 -215 0
-174 -216 0
-174 -217 0
-174 -218 0
-174 -219 0
-174 -220 0
-174 -221 0
-174 -222 0
-174 -223 0
-174 -224 0
-174 -225 0
-174 -226 0
-174 -227 0
-174 -228 0
-175 -176 0
-175 -177 0
-175 -178 0
-175 -179 0
-175 -180 0
-175 -181 0
-175 -182 0
-175 -183 0
-175 -184 0
-175 -185 0
-175 -186 0
-175 -187 0
-175 -188 0
-175 -189 0
-175 -190 0
-175 -191 0
-175 -192 0
-175 -193 0
-175 -194 0
-175 -195 0
-175 -196 0
-175 -197 0
-175 -198 0
-175 -199 0
-175 -200 0
-175 -201 0
-175 -202 0
-175 -203 0
-175 -204 0
-175 -205 0
-175 -206 0
-175 -207 0
-175 -208 0
-175 -209 0
-175 -210 0
-175 -211 0
-175 -212 0
-175 -213 0
-175 -214 0
-175 -215 0
-175 -216 0
-175 -217 0
-175 -218 0
-175 -219 0
-175 -220 0
-175 -221 0
-175 -222 0
-175 -223 0
-175 -224 0
-175 -225 0
-175 -226 0
-175 -227 0
-175 -228 0
-176 -177 0
-176 -178 0
-176 -179 0
-176 -180 0
-176 -181 0
-176 -182 0
-176 -183 0
-176 -184 0
-176 -185 0
-176 -186 0
-176 -187 0
-176 -188 0
-176 -189 0
-176 -190 0
-176 -191 0
-176 -192 0
-176 -193 0
-176 -194 0
-176 -195 0
-176 -196 0
-176 -197 0
-176 -198 0
-176 -199 0
-176 -200 0
-176 -201 0
-176 -202 0
-176 -203 0
-176 -204 0
-176 -205 0
-176 -206 0
-176 -207 0
-176 -208 0
-176 -209 0
-176 -210 0
-176 -211 0
-176 -212 0
-176 -213 0
-176 -214 0
-176 -215 0
-176 -216 0
-176 -217 0
-176 -218 0
-176 -219 0
-176 -220 0
-176 -221 0
-176 -222 0
-176 -223 0
-176 -224 0
-176 -225 0
-176 -226 0
-176 -227 0
-176 -228 0
-177 -178 0
-177 -179 0
-177 -180 0
-177 -181 0
-177 -182 0
-177 -183 0
-177 -184 0
-177 -185 0
-177 -186 0
-177 -187 0
-177 -188 0
-177 -189 0
-177 -190 0
-177 -191 0
-177 -192 0
-177 -193 0
-177 -194 0
-177 -195 0
-177 -196 0
-177 -197 0
-177 -198 0
-177 -199 0
-177 -200 0
-177 -201 0
-177 -202 0
-177 -203 0
-177 -204 0
-177 -205 0
-177 -206 0
-177 -207 0
-177 -208 0
-177 -209 0
-177 -210 0
-177 -211 0
-177 -212 0
-177 -213 0
-177 -214 0
-177 -215 0
-177 -216 0
-177 -217 0
-177 -218 0
-177 -219 0
-177 -220 0
-177 -221 0
-177 -222 0
-177 -223 0
-177 -224 0
-177 -225 0
-177 -226 0
-177 -227 0
-177 -228 0
-178 -179 0
-178 -180 0
-178 -181 0
-178 -182 0
-178 -183 0
-178 -184 0
-178 -185 0
-178 -186 0
-178 -187 0
-178 -188 0
-178 -189 0
-178 -190 0
-178 -191 0
-178 -192 0
-178 -193 0
-178 -194 0
-178 -195 0
-178 -196 0
-178 -197 0
-178 -198 0
-178 -199 0
-178 -200 0
-178 -201 0
-178 -202 0
-178 -203 0
-178 -204 0
-178 -205 0
-178 -206 0
-178 -207 0
-178 -208 0
-178 -209 0
-178 -210 0
-178 -211 0
-178 -212 0
-178 -213 0
-178 -214 0
-178 -215 0
-178 -216 0
-178 -217 0
-178 -218 0
-178 -219 0
-178 -220 0
-178 -221 0
-178 -222 0
-178 -223 0
-178 -224 0
-178 -225 0
-178 -226 0
-178 -227 0
-178 -228 0
-179 -180 0
-179 -181 0
-179 -182 0
-179 -183 0
-179 -184 0
-179 -185 0
-179 -186 0
-179 -187 0
-179 -188 0
-179 -189 0
-179 -190 0
-179 -191 0
-179 -192 0
-179 -193 0
-179 -194 0
-179 -195 0
-179 -196 0
-179 -197 0
-179 -198 0
-179 -199 0
-179 -200 0
-179 -201 0
-179 -202 0
-179 -203 0
-179 -204 0
-179 -205 0
-179 -206 0
-179 -207 0
-179 -208 0
-179 -209 0
-179 -210 0
-179 -211 0
-179 -212 0
-179 -213 0
-179 -214 0
-179 -215 0
-179 -216 0
-179 -217 0
-179 -218 0
-179 -219 0
-179 -220 0
-179 -221 0
-179 -222 0
-179 -223 0
-179 -224 0
-179 -225 0
-179 -226 0
-179 -227 0
-179 -228 0
-180 -181 0
-180 -182 0
-180 -183 0
-180 -184 0
-180 -185 0
-180 -186 0
-180 -187 0
-180 -188 0
-180 -189 0
-180 -190 0
-180 -191 0
-180 -192 0
-180 -193 0
-180 -194 0
-180 -195 0
-180 -196 0
-180 -197 0
-180 -198 0
-180 -199 0
-180 -200 0
-180 -201 0
-180 -202 0
-180 -203 0
-180 -204 0
-180 -205 0
-180 -206 0
-180 -207 0
-180 -208 0
-180 -209 0
-180 -210 0
-180 -211 0
-180 -212 0
-180 -213 0
-180 -214 0
-180 -215 0
-180 -216 0
-180 -217 0
-180 -218 0
-180 -219 0
-180 -220 0
-180 -221 0
-180 -222 0
-180 -223 0
-180 -224 0
-180 -225 0
-180 -226 0
-180 -227 0
-180 -228 0
-181 -182 0
-181 -183 0
-181 -184 0
-181 -185 0
-181 -186 0
-181 -187 0
-181 -188 0
-181 -189 0
-181 -190 0
-181 -191 0
-181 -192 0
-181 -193 0
-181 -194 0
-181 -195 0
-181 -196 0
-181 -197 0
-181 -198 0
-181 -199 0
-181 -200 0
-181 -201 0
-181 -202 0
-181 -203 0
-181 -204 0
-181 -205 0
-181 -206 0
-181 -207 0
-181 -208 0
-181 -209 0
-181 -210 0
-181 -211 0
-181 -212 0
-181 -213 0
-181 -214 0
-181 -215 0
-181 -216 0
-181 -217 0
-181 -218 0
-181 -219 0
-181 -220 0
-181 -221 0
-181 -222 0
-181 -223 0
-181 -224 0
-181 -225 0
-181 -226 0
-181 -227 0
-181 -228 0
-182 -183 0
-182 -184 0
-182 -185 0
-182 -186 0
-182 -187 0
-182 -188 0
-182 -189 0
-182 -190 0
-182 -191 0
-182 -192 0
-182 -193 0
-182 -194 0
-182 -195 0
-182 -196 0
-182 -197 0
-182 -198 0
-182 -199 0
-182 -200 0
-182 -201 0
-182 -202 0
-182 -203 0
-182 -204 0
-182 -205 0
-182 -206 0
-182 -207 0
-182 -208 0
-182 -209 0
-182 -210 0
-182 -211 0
-182 -212 0
-182 -213 0
-182 -214 0
-182 -215 0
-182 -216 0
-182 -217 0
-182 -218 0
-182 -219 0
-182 -220 0
-182 -221 0
-182 -222 0
-182 -223 0
-182 -224 0
-182 -225 0
-182 -226 0
-182 -227 0
-182 -228 0
-183 -184 0
-183 -185 0
-183 -186 0
-183 -187 0
-183 -188 0
-183 -189 0
-183 -190 0
-183 -191 0
-183 -192 0
-183 -193 0
-183 -194 0
-183 -195 0
-183 -196 0
-183 -197 0
-183 -198 0
-183 -199 0
-183 -200 0
-183 -201 0
-183 -202 0
-183 -203 0
-183 -204 0
-183 -205 0
-183 -206 0
-183 -207 0
-183 -208 0
-183 -209 0
-183 -210 0
-183 -211 0
-183 -212 0
-183 -213 0
-183 -214 0
-183 -215 0
-183 -216 0
-183 -217 0
-183 -218 0
-183 -219 0
-183 -220 0
-183 -221 0
-183 -222 0
-183 -223 0
-183 -224 0
-183 -225 0
-183 -226 0
-183 -227 0
-183 -228 0
-184 -185 0
-184 -186 0
-184 -187 0
-184 -188 0
-184 -189 0
-184 -190 0
-184 -191 0
-184 -192 0
-184 -193 0
-184 -194 0
-184 -195 0
-184 -196 0
-184 -197 0
-184 -198 0
-184 -199 0
-184 -200 0
-184 -201 0
-184 -202 0
-184 -203 0
-184 -204 0
-184 -205 0
-184 -206 0
-184 -207 0
-184 -208 0
-184 -209 0
-184 -210 0
-184 -211 0
-184 -212 0
-184 -213 0
-184 -214 0
-184 -215 0
-184 -216 0
-184 -217 0
-184 -218 0
-184 -219 0
-184 -220 0
-184 -221 0
-184 -222 0
-184 -223 0
-184 -224 0
-184 -225 0
-184 -226 0
-184 -227 0
-184 -228 0
-185 -186 0
-185 -187 0
-185 -188 0
-185 -189 0
-185 -190 0
-185 -191 0
-185 -192 0
-185 -193 0
-185 -194 0
-185 -195 0
-185 -196 0
-185 -197 0
-185 -198 0
-185 -199 0
-185 -200 0
-185 -201 0
-185 -202 0
-185 -203 0
-185 -204 0
-185 -205 0
-185 -206 0
-185 -207 0
-185 -208 0
-185 -209 0
-185 -210 0
-185 -211 0
-185 -212 0
-185 -213 0
-185 -214 0
-185 -215 0
-185 -216 0
-185 -217 0
-185 -218 0
-185 -219 0
-185 -220 0
-185 -221 0
-185 -222 0
-185 -223 0
-185 -224 0
-185 -225 0
-185 -226 0
-185 -227 0
-185 -228 0
-186 -187 0
-186 -188 0
-186 -189 0
-186 -190 0
-186 -191 0
-186 -192 0
-186 -193 0
-186 -194 0
-186 -195 0
-186 -196 0
-186 -197 0
-186 -198 0
-186 -199 0
-186 -200 0
-186 -201 0
-186 -202 0
-186 -203 0
-186 -204 0
-186 -205 0
-186 -206 0
-186 -207 0
-186 -208 0
-186 -209 0
-186 -210 0
-186 -211 0
-186 -212 0
-186 -213 0
-186 -214 0
-186 -215 0
-186 -216 0
-186 -217 0
-186 -218 0
-186 -219 0
-186 -220 0
-186 -221 0
-186 -222 0
-186 -223 0
-186 -224 0
-186 -225 0
-186 -226 0
-186 -227 0
-186 -228 0
-187 -188 0
-187 -189 0
-187 -190 0
-187 -191 0
-187 -192 0
-187 -193 0
-187 -194 0
-187 -195 0
-187 -196 0
-187 -197 0
-187 -198 0
-187 -199 0
-187 -200 0
-187 -201 0
-187 -202 0
-187 -203 0
-187 -204 0
-187 -205 0
-187 -206 0
-187 -207 0
-187 -208 0
-187 -209 0
-187 -210 0
-187 -211 0
-187 -212 0
-187 -213 0
-187 -214 0
-187 -215 0
-187 -216 0
-187 -217 0
-187 -218 0
-187 -219 0
-187 -220 0
-187 -221 0
-187 -222 0
-187 -223 0
-187 -224 0
-187 -225 0
-187 -226 0
-187 -227 0
-187 -228 0
-188 -189 0
-188 -190 0
-188 -191 0
-188 -192 0
-188 -193 0
-188 -194 0
-188 -195 0
-188 -196 0
-188 -197 0
-188 -198 0
-188 -199 0
-188 -200 0
-188 -201 0
-188 -202 0
-188 -203 0
-188 -204 0
-188 -205 0
-188 -206 0
-188 -207 0
-188 -208 0
-188 -209 0
-188 -210 0
-188 -211 0
-188 -212 0
-188 -213 0
-188 -214 0
-188 -215 0
-188 -216 0
-188 -217 0
-188 -218 0
-188 -219 0
-188 -220 0
-188 -221 0
-188 -222 0
-188 -223 0
-188 -224 0
-188 -225 0
-188 -226 0
-188 -227 0
-188 -228 0
-189 -190 0
-189 -191 0
-189 -192 0
-189 -193 0
-189 -194 0
-189 -195 0
-189 -196 0
-189 -197 0
-189 -198 0
-189 -199 0
-189 -200 0
-189 -201 0
-189 -202 0
-189 -203 0
-189 -204 0
-189 -205 0
-189 -206 0
-189 -207 0
-189 -208 0
-189 -209 0
-189 -210 0
-189 -211 0
-189 -212 0
-189 -213 0
-189 -214 0
-189 -215 0
-189 -216 0
-189 -217 0
-189 -218 0
-189 -219 0
-189 -220 0
-189 -221 0
-189 -222 0
-189 -223 0
-189 -224 0
-189 -225 0
-189 -226 0
-189 -227 0
-189 -228 0
-190 -191 0
-190 -192 0
-190 -193 0
-190 -194 0
-190 -195 0
-190 -196 0
-190 -197 0
-190 -198 0
-190 -199 0
-190 -200 0
-190 -201 0
-190 -202 0
-190 -203 0
-190 -204 0
-190 -205 0
-190 -206 0
-190 -207 0
-190 -208 0
-190 -209 0
-190 -210 0
-190 -211 0
-190 -212 0
-190 -213 0
-190 -214 0
-190 -215 0
-190 -216 0
-190 -217 0
-190 -218 0
-190 -219 0
-190 -220 0
-190 -221 0
-190 -222 0
-190 -223 0
-190 -224 0
-190 -225 0
-190 -226 0
-190 -227 0
-190 -228 0
-191 -192 0
-191 -193 0
-191 -194 0
-191 -195 0
-191 -196 0
-191 -197 0
-191 -198 0
-191 -199 0
-191 -200 0
-191 -201 0
-191 -202 0
-191 -203 0
-191 -204 0
-191 -205 0
-191 -206 0
-191 -207 0
-191 -208 0
-191 -209 0
-191 -210 0
-191 -211 0
-191 -212 0
-191 -213 0
-191 -214 0
-191 -215 0
-191 -216 0
-191 -217 0
-191 -218 0
-191 -219 0
-191 -220 0
-191 -221 0
-191 -222 0
-191 -223 0
-191 -224 0
-191 -225 0
-191 -226 0
-191 -227 0
-191 -228 0
-192 -193 0
-192 -194 0
-192 -195 0
-192 -196 0
-192 -197 0
-192 -198 0
-192 -199 0
-192 -200 0
-192 -201 0
-192 -202 0
-192 -203 0
-192 -204 0
-192 -205 0
-192 -206 0
-192 -207 0
-192 -208 0
-192 -209 0
-192 -210 0
-192 -211 0
-192 -212 0
-192 -213 0
-192 -214 0
-192 -215 0
-192 -216 0
-192 -217 0
-192 -218 0
-192 -219 0
-192 -220 0
-192 -221 0
-192 -222 0
-192 -223 0
-192 -224 0
-192 -225 0
-192 -226 0
-192 -227 0
-192 -228 0
-193 -194 0
-193 -195 0
-193 -196 0
-193 -197 0
-193 -198 0
-193 -199 0
-193 -200 0
-193 -201 0
-193 -202 0
-193 -203 0
-193 -204 0
-193 -205 0
-193 -206 0
-193 -207 0
-193 -208 0
-193 -209 0
-193 -210 0
-193 -211 0
-193 -212 0
-193 -213 0
-193 -214 0
-193 -215 0
-193 -216 0
-193 -217 0
-193 -218 0
-193 -219 0
-193 -220 0
-193 -221 0
-193 -222 0
-193 -223 0
-193 -224 0
-193 -225 0
-193 -226 0
-193 -227 0
-193 -228 0
-194 -195 0
-194 -196 0
-194 -197 0
-194 -198 0
-194 -199 0
-194 -200 0
-194 -201 0
-194 -202 0
-194 -203 0
-194 -204 0
-194 -205 0
-194 -206 0
-194 -207 0
-194 -208 0
-194 -209 0
-194 -210 0
-194 -211 0
-194 -212 0
-194 -213 0
-194 -214 0
-194 -215 0
-194 -216 0
-194 -217 0
-194 -218 0
-194 -219 0
-194 -220 0
-194 -221 0
-194 -222 0
-194 -223 0
-194 -224 0
-194 -225 0
-194 -226 0
-194 -227 0
-194 -228 0
-195 -196 0
-195 -197 0
-195 -198 0
-195 -199 0
-195 -200 0
-195 -201 0
-195 -202 0
-195 -203 0
-195 -204 0
-195 -205 0
-195 -206 0
-195 -207 0
-195 -208 0
-195 -209 0
-195 -210 0
-195 -211 0
-195 -212 0
-195 -213 0
-195 -214 0
-195 -215 0
-195 -216 0
-195 -217 0
-195 -218 0
-195 -219 0
-195 -220 0
-195 -221 0
-195 -222 0
-195 -223 0
-195 -224 0
-195 -225 0
-195 -226 0
-195 -227 0
-195 -228 0
-196 -197 0
-196 -198 0
-196 -199 0
-196 -200 0
-196 -201 0
-196 -202 0
-196 -203 0
-196 -204 0
-196 -205 0
-196 -206 0
-196 -207 0
-196 -208 0
-196 -209 0
-196 -210 0
-196 -211 0
-196 -212 0
-196 -213 0
-196 -214 0
-196 -215 0
-196 -216 0
-196 -217 0
-196 -218 0
-196 -219 0
-196 -220 0
-196 -221 0
-196 -222 0
-196 -223 0
-196 -224 0
-196 -225 0
-196 -226 0
-196 -227 0
-196 -228 0
-197 -198 0
-197 -199 0
-197 -200 0
-197 -201 0
-197 -202 0
-197 -203 0
-197 -204 0
-197 -205 0
-197 -206 0
-197 -207 0
-197 -208 0
-197 -209 0
-197 -210 0
-197 -211 0
-197 -212 0
-197 -213 0
-197 -214 0
-197 -215 0
-197 -216 0
-197 -217 0
-197 -218 0
-197 -219 0
-197 -220 0
-197 -221 0
-197 -222 0
-197 -223 0
-197 -224 0
-197 -225 0
-197 -226 0
-197 -227 0
-197 -228 0
-198 -199 0
-198 -200 0
-198 -201 0
-198 -202 0
-198 -203 0
-198 -204 0
-198 -205 0
-198 -206 0
-198 -207 0
-198 -208 0
-198 -209 0
-198 -210 0
-198 -211 0
-198 -212 0
-198 -213 0
-198 -214 0
-198 -215 0
-198 -216 0
-198 -217 0
-198 -218 0
-198 -219 0
-198 -220 0
-198 -221 0
-198 -222 0
-198 -223 0
-198 -224 0
-198 -225 0
-198 -226 0
-198 -227 0
-198 -228 0
-199 -200 0
-199 -201 0
-199 -202 0
-199 -203 0
-199 -204 0
-199 -205 0
-199 -206 0
-199 -207 0
-199 -208 0
-199 -209 0
-199 -210 0
-199 -211 0
-199 -212 0
-199 -213 0
-199 -214 0
-199 -215 0
-199 -216 0
-199 -217 0
-199 -218 0
-199 -219 0
-199 -220 0
-199 -221 0
-199 -222 0
-199 -223 0
-199 -224 0
-199 -225 0
-199 -226 0
-199 -227 0
-199 -228 0
-200 -201 0
-200 -202 0
-200 -203 0
-200 -204 0
-200 -205 0
-200 -206 0
-200 -207 0
-200 -208 0
-200 -209 0
-200 -210 0
-200 -211 0
-200 -212 0
-200 -213 0
-200 -214 0
-200 -215 0
-200 -216 0
-200 -217 0
-200 -218 0
-200 -219 0
-200 -220 0
-200 -221 0
-200 -222 0
-200 -223 0
-200 -224 0
-200 -225 0
-200 -226 0
-200 -227 0
-200 -228 0
-201 -202 0
-201 -203 0
-201 -204 0
-201 -205 0
-201 -206 0
-201 -207 0
-201 -208 0
-201 -209 0
-201 -210 0
-201 -211 0
-201 -212 0
-201 -213 0
-201 -214 0
-201 -215 0
-201 -216 0
-201 -217 0
-201 -218 0
-201 -219 0
-201 -220 0
-201 -221 0
-201 -222 0
-201 -223 0
-201 -224 0
-201 -225 0
-201 -226 0
-201 -227 0
-201 -228 0
-202 -203 0
-202 -204 0
-202 -205 0
-202 -206 0
-202 -207 0
-202 -208 0
-202 -209 0
-202 -210 0
-202 -211 0
-202 -212 0
-202 -213 0
-202 -214 0
-202 -215 0
-202 -216 0
-202 -217 0
-202 -218 0
-202 -219 0
-202 -220 0
-202 -221 0
-202 -222 0
-202 -223 0
-202 -224 0
-202 -225 0
-202 -226 0
-202 -227 0
-202 -228 0
-203 -204 0
-203 -205 0
-203 -206 0
-203 -207 0
-203 -208 0
-203 -209 0
-203 -210 0
-203 -211 0
-203 -212 0
-203 -213 0
-203 -214 0
-203 -215 0
-203 -216 0
-203 -217 0
-203 -218 0
-203 -219 0
-203 -220 0
-203 -221 0
-203 -222 0
-203 -223 0
-203 -224 0
-203 -225 0
-203 -226 0
-203 -227 0
-203 -228 0
-204 -205 0
-204 -206 0
-204 -207 0
-204 -208 0
-204 -209 0
-204 -210 0
-204 -211 0
-204 -212 0
-204 -213 0
-204 -214 0
-204 -215 0
-204 -216 0
-204 -217 0
-204 -218 0
-204 -219 0
-204 -220 0
-204 -221 0
-204 -222 0
-204 -223 0
-204 -224 0
-204 -225 0
-204 -226 0
-204 -227 0
-204 -228 0
-205 -206 0
-205 -207 0
-205 -208 0
-205 -209 0
-205 -210 0
-205 -211 0
-205 -212 0
-205 -213 0
-205 -214 0
-205 -215 0
-205 -216 0
-205 -217 0
-205 -218 0
-205 -219 0
-205 -220 0
-205 -221 0
-205 -222 0
-205 -223 0
-205 -224 0
-205 -225 0
-205 -226 0
-205 -227 0
-205 -228 0
-206 -207 0
-206 -208 0
-206 -209 0
-206 -210 0
-206 -211 0
-206 -212 0
-206 -213 0
-206 -214 0
-206 -215 0
-206 -216 0
-206 -217 0
-206 -218 0
-206 -219 0
-206 -220 0
-206 -221 0
-206 -222 0
-206 -223 0
-206 -224 0
-206 -225 0
-206 -226 0
-206 -227 0
-206 -228 0
-207 -208 0
-207 -209 0
-207 -210 0
-207 -211 0
-207 -212 0
-207 -213 0
-207 -214 0
-207 -215 0
-207 -216 0
-207 -217 0
-207 -218 0
-207 -219 0
-207 -220 0
-207 -221 0
-207 -222 0
-207 -223 0
-207 -224 0
-207 -225 0
-207 -226 0
-207 -227 0
-207 -228 0
-208 -209 0
-208 -210 0
-208 -211 0
-208 -212 0
-208 -213 0
-208 -214 0
-208 -215 0
-208 -216 0
-208 -217 0
-208 -218 0
-208 -219 0
-208 -220 0
-208 -221 0
-208 -222 0
-208 -223 0
-208 -224 0
-208 -225 0
-208 -226 0
-208 -227 0
-208 -228 0
-209 -210 0
-209 -211 0
-209 -212 0
-209 -213 0
-209 -214 0
-209 -215 0
-209 -216 0
-209 -217 0
-209 -218 0
-209 -219 0
-209 -220 0
-209 -221 0
-209 -222 0
-209 -223 0
-209 -224 0
-209 -225 0
-209 -226 0
-209 -227 0
-209 -228 0
-210 -211 0
-210 -212 0
-210 -213 0
-210 -214 0
-210 -215 0
-210 -216 0
-210 -217 0
-210 -218 0
-210 -219 0
-210 -220 0
-210 -221 0
-210 -222 0
-210 -223 0
-210 -224 0
-210 -225 0
-210 -226 0
-210 -227 0
-210 -228 0
-211 -212 0
-211 -213 0
-211 -214 0
-211 -215 0
-211 -216 0
-211 -217 0
-211 -218 0
-211 -219 0
-211 -220 0
-211 -221 0
-211 -222 0
-211 -223 0
-211 -224 0
-211 -225 0
-211 -226 0
-211 -227 0
-211 -228 0
-212 -213 0
-212 -214 0
-212 -215 0
-212 -216 0
-212 -217 0
-212 -218 0
-212 -219 0
-212 -220 0
-212 -221 0
-212 -222 0
-212 -223 0
-212 -224 0
-212 -225 0
-212 -226 0
-212 -227 0
-212 -228 0
-213 -214 0
-213 -215 0
-213 -216 0
-213 -217 0
-213 -218 0
-213 -219 0
-213 -220 0
-213 -221 0
-213 -222 0
-213 -223 0
-213 -224 0
-213 -225 0
-213 -226 0
-213 -227 0
-213 -228 0
-214 -215 0
-214 -216 0
-214 -217 0
-214 -218 0
-214 -219 0
-214 -220 0
-214 -221 0
-214 -222 0
-214 -223 0
-214 -224 0
-214 -225 0
-214 -226 0
-214 -227 0
-214 -228 0
-215 -216 0
-215 -217 0
-215 -218 0
-215 -219 0
-215 -220 0
-215 -221 0
-215 -222 0
-215 -223 0
-215 -224 0
-215 -225 0
-215 -226 0
-215 -227 0
-215 -228 0
-216 -217 0
-216 -218 0
-216 -219 0
-216 -220 0
-216 -221 0
-216 -222 0
-216 -223 0
-216 -224 0
-216 -225 0
-216 -226 0
-216 -227 0
-216 -228 0
-217 -218 0
-217 -219 0
-217 -220 0
-217 -221 0
-217 -222 0
-217 -223 0
-217 -224 0
-217 -225 0
-217 -226 0
-217 -227 0
-217 -228 0
-218 -219 0
-218 -220 0
-218 -221 0
-218 -222 0
-218 -223 0
-218 -224 0
-218 -225 0
-218 -226 0
-218 -227 0
-218 -228 0
-219 -220 0
-219 -221 0
-219 -222 0
-219 -223 0
-219 -224 0
-219 -225 0
-219 -226 0
-219 -227 0
-219 -228 0
-220 -221 0
-220 -222 0
-220 -223 0
-220 -224 0
-220 -225 0
-220 -226 0
-220 -227 0
-220 -228 0
-221 -222 0
-221 -223 0
-221 -224 0
-221 -225 0
-221 -226 0
-221 -227 0
-221 -228 0
-222 -223 0
-222 -224 0
-222 -225 0
-222 -226 0
-222 -227 0
-222 -228 0
-223 -224 0
-223 -225 0
-223 -226 0
-223 -227 0
-223 -228 0
-224 -225 0
-224 -226 0
-224 -227 0
-224 -228 0
-225 -226 0
-225 -227 0
-225 -228 0
-226 -227 0
-226 -228 0
-227 -228 0
-169 -33 0
-169 -34 0
-169 -35 0
-169 36 0
-169 -37 0
-169 -38 0
-169 -39 0
-169 40 0
-169 -41 0
-169 -42 0
-169 -43 0
-169 44 0
-169 -45 0
-169 -46 0
-169 -47 0
-169 48 0
-169 -49 0
-169 -50 0
-169 -51 0
-169 52 0
-169 -53 0
-169 -54 0
-169 -55 0
-169 56 0
-169 -57 0
-169 -58 0
-169 -59 0
-169 60 0
-169 -61 0
-169 -62 0
-169 -63 0
-169 64 0
-170 -33 0
-170 34 0
-170 -35 0
-170 -36 0
-170 -37 0
-170 38 0
-170 -39 0
-170 -40 0
-170 -41 0
-170 42 0
-170 -43 0
-170 -44 0
-170 -45 0
-170 46 0
-170 -47 0
-170 -48 0
-170 -49 0
-170 50 0
-170 -51 0
-170 -52 0
-170 -53 0
-170 54 0
-170 -55 0
-170 -56 0
-170 -57 0
-170 58 0
-170 -59 0
-170 -60 0
-170 -61 0
-170 62 0
-170 -63 0
-170 -64 0
-171 -33 0
-171 -34 0
-171 35 0
-171 -36 0
-171 -37 0
-171 -38 0
-171 39 0
-171 -40 0
-171 -41 0
-171 -42 0
-171 43 0
-171 -44 0
-171 -45 0
-171 -46 0
-171 47 0
-171 -48 0
-171 -49 0
-171 -50 0
-171 51 0
-171 -52 0
-171 -53 0
-171 -54 0
-171 55 0
-171 -56 0
-171 -57 0
-171 -58 0
-171 59 0
-171 -60 0
-171 -61 0
-171 -62 0
-171 63 0
-171 -64 0
-172 33 0
-172 -34 0
-172 -35 0
-172 -36 0
-172 37 0
-172 -38 0
-172 -39 0
-172 -40 0
-172 41 0
-172 -42 0
-172 -43 0
-172 -44 0
-172 45 0
-172 -46 0
-172 -47 0
-172 -48 0
-172 49 0
-172 -50 0
-172 -51 0
-172 -52 0
-172 53 0
-172 -54 0
-172 -55 0
-172 -56 0
-172 57 0
-172 -58 0
-172 -59 0
-172 -60 0
-172 61 0
-172 -62 0
-172 -63 0
-172 -64 0
-173 -33 0
-173 -34 0
-173 -35 0
-173 -36 0
-173 -37 0
-173 38 0
-173 -39 0
-173 40 0
-173 -41 0
-173 -42 0
-173 -43 0
-173 -44 0
-173 -45 0
-173 46 0
-173 -47 0
-173 48 0
-173 -49 0
-173 -50 0
-173 -51 0
-173 -52 0
-173 -53 0
-173 54 0
-173 -55 0
-173 56 0
-173 -57 0
-173 -58 0
-173 -59 0
-173 -60 0
-173 -61 0
-173 62 0
-173 -63 0
-173 64 0
-174 -33 0
-174 34 0
-174 -35 0
-174 36 0
-174 -37 0
-174 -38 0
-174 -39 0
-174 -40 0
-174 -41 0
-174 42 0
-174 -43 0
-174 44 0
-174 -45 0
-174 -46 0
-174 -47 0
-174 -48 0
-174 -49 0
-174 50 0
-174 -51 0
-174 52 0
-174 -53 0
-174 -54 0
-174 -55 0
-174 -56 0
-174 -57 0
-174 58 0
-174 -59 0
-174 60 0
-174 -61 0
-174 -62 0
-174 -63 0
-174 -64 0
-175 -33 0
-175 -34 0
-175 -35 0
-175 -36 0
-175 37 0
-175 -38 0
-175 39 0
-175 -40 0
-175 -41 0
-175 -42 0
-175 -43 0
-175 -44 0
-175 45 0
-175 -46 0
-175 47 0
-175 -48 0
-175 -49 0
-175 -50 0
-175 -51 0
-175 -52 0
-175 53 0
-175 -54 0
-175 55 0
-175 -56 0
-175 -57 0
-175 -58 0
-175 -59 0
-175 -60 0
-175 61 0
-175 -62 0
-175 63 0
-175 -64 0
-176 33 0
-176 -34 0
-176 35 0
-176 -36 0
-176 -37 0
-176 -38 0
-176 -39 0
-176 -40 0
-176 41 0
-176 -42 0
-176 43 0
-176 -44 0
-176 -45 0
-176 -46 0
-176 -47 0
-176 -48 0
-176 49 0
-176 -50 0
-176 51 0
-176 -52 0
-176 -53 0
-176 -54 0
-176 -55 0
-176 -56 0
-176 57 0
-176 -58 0
-176 59 0
-176 -60 0
-176 -61 0
-176 -62 0
-176 -63 0
-176 -64 0
-177 -33 0
-177 -34 0
-177 -35 0
-177 -36 0
-177 -37 0
-177 -38 0
-177 -39 0
-177 -40 0
-177 -41 0
-177 42 0
-177 -43 0
-177 44 0
-177 -45 0
-177 46 0
-177 -47 0
-177 48 0
-177 -49 0
-177 -50 0
-177 -51 0
-177 -52 0
-177 -53 0
-177 -54 0
-177 -55 0
-177 -56 0
-177 -57 0
-177 58 0
-177 -59 0
-177 60 0
-177 -61 0
-177 62 0
-177 -63 0
-177 64 0
-178 -33 0
-178 34 0
-178 -35 0
-178 36 0
-178 -37 0
-178 38 0
-178 -39 0
-178 40 0
-178 -41 0
-178 -42 0
-178 -43 0
-178 -44 0
-178 -45 0
-178 -46 0
-178 -47 0
-178 -48 0
-178 -49 0
-178 50 0
-178 -51 0
-178 52 0
-178 -53 0
-178 54 0
-178 -55 0
-178 56 0
-178 -57 0
-178 -58 0
-178 -59 0
-178 -60 0
-178 -61 0
-178 -62 0
-178 -63 0
-178 -64 0
-179 -33 0
-179 -34 0
-179 -35 0
-179 -36 0
-179 -37 0
-179 -38 0
-179 -39 0
-179 -40 0
-179 41 0
-179 -42 0
-179 43 0
-179 -44 0
-179 45 0
-179 -46 0
-179 47 0
-179 -48 0
-179 -49 0
-179 -50 0
-179 -51 0
-179 -52 0
-179 -53 0
-179 -54 0
-179 -55 0
-179 -56 0
-179 57 0
-179 -58 0
-179 59 0
-179 -60 0
-179 61 0
-179 -62 0
-179 63 0
-179 -64 0
-180 33 0
-180 -34 0
-180 35 0
-180 -36 0
-180 37 0
-180 -38 0
-180 39 0
-180 -40 0
-180 -41 0
-180 -42 0
-180 -43 0
-180 -44 0
-180 -45 0
-180 -46 0
-180 -47 0
-180 -48 0
-180 49 0
-180 -50 0
-180 51 0
-180 -52 0
-180 53 0
-180 -54 0
-180 55 0
-180 -56 0
-180 -57 0
-180 -58 0
-180 -59 0
-180 -60 0
-180 -61 0
-180 -62 0
-180 -63 0
-180 -64 0
-181 -33 0
-181 -34 0
-181 -35 0
-181 -36 0
-181 -37 0
-181 -38 0
-181 -39 0
-181 -40 0
-181 -41 0
-181 -42 0
-181 -43 0
-181 -44 0
-181 -45 0
-181 -46 0
-181 -47 0
-181 -48 0
-181 -49 0
-181 50 0
-181 -51 0
-181 52 0
-181 -53 0
-181 54 0
-181 -55 0
-181 56 0
-181 -57 0
-181 58 0
-181 -59 0
-181 60 0
-181 -61 0
-181 62 0
-181 -63 0
-181 64 0
-182 -33 0
-182 34 0
-182 -35 0
-182 36 0
-182 -37 0
-182 38 0
-182 -39 0
-182 40 0
-182 -41 0
-182 42 0
-182 -43 0
-182 44 0
-182 -45 0
-182 46 0
-182 -47 0
-182 48 0
-182 -49 0
-182 -50 0
-182 -51 0
-182 -52 0
-182 -53 0
-182 -54 0
-182 -55 0
-182 -56 0
-182 -57 0
-182 -58 0
-182 -59 0
-182 -60 0
-182 -61 0
-182 -62 0
-182 -63 0
-182 -64 0
-183 -33 0
-183 -34 0
-183 -35 0
-183 -36 0
-183 -37 0
-183 -38 0
-183 -39 0
-183 -40 0
-183 -41 0
-183 -42 0
-183 -43 0
-183 -44 0
-183 -45 0
-183 -46 0
-183 -47 0
-183 -48 0
-183 49 0
-183 -50 0
-183 51 0
-183 -52 0
-183 53 0
-183 -54 0
-183 55 0
-183 -56 0
-183 57 0
-183 -58 0
-183 59 0
-183 -60 0
-183 61 0
-183 -62 0
-183 63 0
-183 -64 0
-184 33 0
-184 -34 0
-184 35 0
-184 -36 0
-184 37 0
-184 -38 0
-184 39 0
-184 -40 0
-184 41 0
-184 -42 0
-184 43 0
-184 -44 0
-184 45 0
-184 -46 0
-184 47 0
-184 -48 0
-184 -49 0
-184 -50 0
-184 -51 0
-184 -52 0
-184 -53 0
-184 -54 0
-184 -55 0
-184 -56 0
-184 -57 0
-184 -58 0
-184 -59 0
-184 -60 0
-184 -61 0
-184 -62 0
-184 -63 0
-184 -64 0
-185 -33 0
-185 -34 2 0
-185 34 -2 0
-185 -35 0
-185 -36 4 0
-185 36 -4 0
-185 -37 0
-185 -38 6 0
-185 38 -6 0
-185 -39 0
-185 -40 8 0
-185 40 -8 0
-185 -41 0
-185 -42 10 0
-185 42 -10 0
-185 -43 0
-185 -44 12 0
-185 44 -12 0
-185 -45 0
-185 -46 14 0
-185 46 -14 0
-185 -47 0
-185 -48 16 0
-185 48 -16 0
-185 -49 0
-185 -50 18 0
-185 50 -18 0
-185 -51 0
-185 -52 20 0
-185 52 -20 0
-185 -53 0
-185 -54 22 0
-185 54 -22 0
-185 -55 0
-185 -56 24 0
-185 56 -24 0
-185 -57 0
-185 -58 26 0
-185 58 -26 0
-185 -59 0
-185 -60 28 0
-185 60 -28 0
-185 -61 0
-185 -62 30 0
-185 62 -30 0
-185 -63 0
-185 -64 32 0
-185 64 -32 0
-186 -33 0
-186 -34 -2 0
-186 34 2 0
-186 -35 0
-186 -36 -4 0
-186 36 4 0
-186 -37 0
-186 -38 -6 0
-186 38 6 0
-186 -39 0
-186 -40 -8 0
-186 40 8 0
-186 -41 0
-186 -42 -10 0
-186 42 10 0
-186 -43 0
-186 -44 -12 0
-186 44 12 0
-186 -45 0
-186 -46 -14 0
-186 46 14 0
-186 -47 0
-186 -48 -16 0
-186 48 16 0
-186 -49 0
-186 -50 -18 0
-186 50 18 0
-186 -51 0
-186 -52 -20 0
-186 52 20 0
-186 -53 0
-186 -54 -22 0
-186 54 22 0
-186 -55 0
-186 -56 -24 0
-186 56 24 0
-186 -57 0
-186 -58 -26 0
-186 58 26 0
-186 -59 0
-186 -60 -28 0
-186 60 28 0
-186 -61 0
-186 -62 -30 0
-186 62 30 0
-186 -63 0
-186 -64 -32 0
-186 64 32 0
-187 -33 1 0
-187 33 -1 0
-187 -34 0
-187 -35 3 0
-187 35 -3 0
-187 -36 0
-187 -37 5 0
-187 37 -5 0
-187 -38 0
-187 -39 7 0
-187 39 -7 0
-187 -40 0
-187 -41 9 0
-187 41 -9 0
-187 -42 0
-187 -43 11 0
-187 43 -11 0
-187 -44 0
-187 -45 13 0
-187 45 -13 0
-187 -46 0
-187 -47 15 0
-187 47 -15 0
-187 -48 0
-187 -49 17 0
-187 49 -17 0
-187 -50 0
-187 -51 19 0
-187 51 -19 0
-187 -52 0
-187 -53 21 0
-187 53 -21 0
-187 -54 0
-187 -55 23 0
-187 55 -23 0
-187 -56 0
-187 -57 25 0
-187 57 -25 0
-187 -58 0
-187 -59 27 0
-187 59 -27 0
-187 -60 0
-187 -61 29 0
-187 61 -29 0
-187 -62 0
-187 -63 31 0
-187 63 -31 0
-187 -64 0
-188 -33 -1 0
-188 33 1 0
-188 -34 0
-188 -35 -3 0
-188 35 3 0
-188 -36 0
-188 -37 -5 0
-188 37 5 0
-188 -38 0
-188 -39 -7 0
-188 39 7 0
-188 -40 0
-188 -41 -9 0
-188 41 9 0
-188 -42 0
-188 -43 -11 0
-188 43 11 0
-188 -44 0
-188 -45 -13 0
-188 45 13 0
-188 -46 0
-188 -47 -15 0
-188 47 15 0
-188 -48 0
-188 -49 -17 0
-188 49 17 0
-188 -50 0
-188 -51 -19 0
-188 51 19 0
-188 -52 0
-188 -53 -21 0
-188 53 21 0
-188 -54 0
-188 -55 -23 0
-188 55 23 0
-188 -56 0
-188 -57 -25 0
-188 57 25 0
-188 -58 0
-188 -59 -27 0
-188 59 27 0
-188 -60 0
-188 -61 -29 0
-188 61 29 0
-188 -62 0
-188 -63 -31 0
-188 63 31 0
-188 -64 0
-189 -33 0
-189 -34 0
-189 -35 0
-189 -36 0
-189 -37 0
-189 -38 0
-189 39 0
-189 40 0
-189 -41 0
-189 -42 0
-189 -43 0
-189 -44 0
-189 -45 0
-189 -46 0
-189 47 0
-189 48 0
-189 -49 0
-189 -50 0
-189 -51 0
-189 -52 0
-189 -53 0
-189 -54 0
-189 55 0
-189 56 0
-189 -57 0
-189 -58 0
-189 -59 0
-189 -60 0
-189 -61 0
-189 -62 0
-189 63 0
-189 64 0
-190 -33 0
-190 -34 0
-190 35 0
-190 36 0
-190 -37 0
-190 -38 0
-190 -39 0
-190 -40 0
-190 -41 0
-190 -42 0
-190 43 0
-190 44 0
-190 -45 0
-190 -46 0
-190 -47 0
-190 -48 0
-190 -49 0
-190 -50 0
-190 51 0
-190 52 0
-190 -53 0
-190 -54 0
-190 -55 0
-190 -56 0
-190 -57 0
-190 -58 0
-190 59 0
-190 60 0
-190 -61 0
-190 -62 0
-190 -63 0
-190 -64 0
-191 -33 0
-191 -34 0
-191 -35 0
-191 -36 0
-191 37 0
-191 38 0
-191 -39 0
-191 -40 0
-191 -41 0
-191 -42 0
-191 -43 0
-191 -44 0
-191 45 0
-191 46 0
-191 -47 0
-191 -48 0
-191 -49 0
-191 -50 0
-191 -51 0
-191 -52 0
-191 53 0
-191 54 0
-191 -55 0
-191 -56 0
-191 -57 0
-191 -58 0
-191 -59 0
-191 -60 0
-191 61 0
-191 62 0
-191 -63 0
-191 -64 0
-192 33 0
-192 34 0
-192 -35 0
-192 -36 0
-192 -37 0
-192 -38 0
-192 -39 0
-192 -40 0
-192 41 0
-192 42 0
-192 -43 0
-192 -44 0
-192 -45 0
-192 -46 0
-192 -47 0
-192 -48 0
-192 49 0
-192 50 0
-192 -51 0
-192 -52 0
-192 -53 0
-192 -54 0
-192 -55 0
-192 -56 0
-192 57 0
-192 58 0
-192 -59 0
-192 -60 0
-192 -61 0
-192 -62 0
-192 -63 0
-192 -64 0
-193 -33 0
-193 -34 0
-193 -35 0
-193 -36 0
-193 -37 0
-193 -38 0
-193 -39 0
-193 -40 0
-193 -41 0
-193 -42 0
-193 43 0
-193 44 0
-193 -45 0
-193 -46 0
-193 47 0
-193 48 0
-193 -49 0
-193 -50 0
-193 -51 0
-193 -52 0
-193 -53 0
-193 -54 0
-193 -55 0
-193 -56 0
-193 -57 0
-193 -58 0
-193 59 0
-193 60 0
-193 -61 0
-193 -62 0
-193 63 0
-193 64 0
-194 -33 0
-194 -34 0
-194 35 0
-194 36 0
-194 -37 0
-194 -38 0
-194 39 0
-194 40 0
-194 -41 0
-194 -42 0
-194 -43 0
-194 -44 0
-194 -45 0
-194 -46 0
-194 -47 0
-194 -48 0
-194 -49 0
-194 -50 0
-194 51 0
-194 52 0
-194 -53 0
-194 -54 0
-194 55 0
-194 56 0
-194 -57 0
-194 -58 0
-194 -59 0
-194 -60 0
-194 -61 0
-194 -62 0
-194 -63 0
-194 -64 0
-195 -33 0
-195 -34 0
-195 -35 0
-195 -36 0
-195 -37 0
-195 -38 0
-195 -39 0
-195 -40 0
-195 41 0
-195 42 0
-195 -43 0
-195 -44 0
-195 45 0
-195 46 0
-195 -47 0
-195 -48 0
-195 -49 0
-195 -50 0
-195 -51 0
-195 -52 0
-195 -53 0
-195 -54 0
-195 -55 0
-195 -56 0
-195 57 0
-195 58 0
-195 -59 0
-195 -60 0
-195 61 0
-195 62 0
-195 -63 0
-195 -64 0
-196 33 0
-196 34 0
-196 -35 0
-196 -36 0
-196 37 0
-196 38 0
-196 -39 0
-196 -40 0
-196 -41 0
-196 -42 0
-196 -43 0
-196 -44 0
-196 -45 0
-196 -46 0
-196 -47 0
-196 -48 0
-196 49 0
-196 50 0
-196 -51 0
-196 -52 0
-196 53 0
-196 54 0
-196 -55 0
-196 -56 0
-196 -57 0
-196 -58 0
-196 -59 0
-196 -60 0
-196 -61 0
-196 -62 0
-196 -63 0
-196 -64 0
-197 -33 0
-197 -34 0
-197 -35 0
-197 -36 0
-197 -37 0
-197 -38 0
-197 -39 0
-197 -40 0
-197 -41 0
-197 -42 0
-197 -43 0
-197 -44 0
-197 -45 0
-197 -46 0
-197 -47 0
-197 -48 0
-197 -49 0
-197 -50 0
-197 51 0
-197 52 0
-197 -53 0
-197 -54 0
-197 55 0
-197 56 0
-197 -57 0
-197 -58 0
-197 59 0
-197 60 0
-197 -61 0
-197 -62 0
-197 63 0
-197 64 0
-198 -33 0
-198 -34 0
-198 35 0
-198 36 0
-198 -37 0
-198 -38 0
-198 39 0
-198 40 0
-198 -41 0
-198 -42 0
-198 43 0
-198 44 0
-198 -45 0
-198 -46 0
-198 47 0
-198 48 0
-198 -49 0
-198 -50 0
-198 -51 0
-198 -52 0
-198 -53 0
-198 -54 0
-198 -55 0
-198 -56 0
-198 -57 0
-198 -58 0
-198 -59 0
-198 -60 0
-198 -61 0
-198 -62 0
-198 -63 0
-198 -64 0
-199 -33 0
-199 -34 0
-199 -35 0
-199 -36 0
-199 -37 0
-199 -38 0
-199 -39 0
-199 -40 0
-199 -41 0
-199 -42 0
-199 -43 0
-199 -44 0
-199 -45 0
-199 -46 0
-199 -47 0
-199 -48 0
-199 49 0
-199 50 0
-199 -51 0
-199 -52 0
-199 53 0
-199 54 0
-199 -55 0
-199 -56 0
-199 57 0
-199 58 0
-199 -59 0
-199 -60 0
-199 61 0
-199 62 0
-199 -63 0
-199 -64 0
-200 33 0
-200 34 0
-200 -35 0
-200 -36 0
-200 37 0
-200 38 0
-200 -39 0
-200 -40 0
-200 41 0
-200 42 0
-200 -43 0
-200 -44 0
-200 45 0
-200 46 0
-200 -47 0
-200 -48 0
-200 -49 0
-200 -50 0
-200 -51 0
-200 -52 0
-200 -53 0
-200 -54 0
-200 -55 0
-200 -56 0
-200 -57 0
-200 -58 0
-200 -59 0
-200 -60 0
-200 -61 0
-200 -62 0
-200 -63 0
-200 -64 0
-201 -33 0
-201 -34 0
-201 -35 3 0
-201 35 -3 0
-201 -36 4 0
-201 36 -4 0
-201 -37 0
-201 -38 0
-201 -39 7 0
-201 39 -7 0
-201 -40 8 0
-201 40 -8 0
-201 -41 0
-201 -42 0
-201 -43 11 0
-201 43 -11 0
-201 -44 12 0
-201 44 -12 0
-201 -45 0
-201 -46 0
-201 -47 15 0
-201 47 -15 0
-201 -48 16 0
-201 48 -16 0
-201 -49 0
-201 -50 0
-201 -51 19 0
-201 51 -19 0
-201 -52 20 0
-201 52 -20 0
-201 -53 0
-201 -54 0
-201 -55 23 0
-201 55 -23 0
-201 -56 24 0
-201 56 -24 0
-201 -57 0
-201 -58 0
-201 -59 27 0
-201 59 -27 0
-201 -60 28 0
-201 60 -28 0
-201 -61 0
-201 -62 0
-201 -63 31 0
-201 63 -31 0
-201 -64 32 0
-201 64 -32 0
-202 -33 0
-202 -34 0
-202 -35 -3 0
-202 35 3 0
-202 -36 -4 0
-202 36 4 0
-202 -37 0
-202 -38 0
-202 -39 -7 0
-202 39 7 0
-202 -40 -8 0
-202 40 8 0
-202 -41 0
-202 -42 0
-202 -43 -11 0
-202 43 11 0
-202 -44 -12 0
-202 44 12 0
-202 -45 0
-202 -46 0
-202 -47 -15 0
-202 47 15 0
-202 -48 -16 0
-202 48 16 0
-202 -49 0
-202 -50 0
-202 -51 -19 0
-202 51 19 0
-202 -52 -20 0
-202 52 20 0
-202 -53 0
-202 -54 0
-202 -55 -23 0
-202 55 23 0
-202 -56 -24 0
-202 56 24 0
-202 -57 0
-202 -58 0
-202 -59 -27 0
-202 59 27 0
-202 -60 -28 0
-202 60 28 0
-202 -61 0
-202 -62 0
-202 -63 -31 0
-202 63 31 0
-202 -64 -32 0
-202 64 32 0
-203 -33 1 0
-203 33 -1 0
-203 -34 2 0
-203 34 -2 0
-203 -35 0
-203 -36 0
-203 -37 5 0
-203 37 -5 0
-203 -38 6 0
-203 38 -6 0
-203 -39 0
-203 -40 0
-203 -41 9 0
-203 41 -9 0
-203 -42 10 0
-203 42 -10 0
-203 -43 0
-203 -44 0
-203 -45 13 0
-203 45 -13 0
-203 -46 14 0
-203 46 -14 0
-203 -47 0
-203 -48 0
-203 -49 17 0
-203 49 -17 0
-203 -50 18 0
-203 50 -18 0
-203 -51 0
-203 -52 0
-203 -53 21 0
-203 53 -21 0
-203 -54 22 0
-203 54 -22 0
-203 -55 0
-203 -56 0
-203 -57 25 0
-203 57 -25 0
-203 -58 26 0
-203 58 -26 0
-203 -59 0
-203 -60 0
-203 -61 29 0
-203 61 -29 0
-203 -62 30 0
-203 62 -30 0
-203 -63 0
-203 -64 0
-204 -33 -1 0
-204 33 1 0
-204 -34 -2 0
-204 34 2 0
-204 -35 0
-204 -36 0
-204 -37 -5 0
-204 37 5 0
-204 -38 -6 0
-204 38 6 0
-204 -39 0
-204 -40 0
-204 -41 -9 0
-204 41 9 0
-204 -42 -10 0
-204 42 10 0
-204 -43 0
-204 -44 0
-204 -45 -13 0
-204 45 13 0
-204 -46 -14 0
-204 46 14 0
-204 -47 0
-204 -48 0
-204 -49 -17 0
-204 49 17 0
-204 -50 -18 0
-204 50 18 0
-204 -51 0
-204 -52 0
-204 -53 -21 0
-204 53 21 0
-204 -54 -22 0
-204 54 22 0
-204 -55 0
-204 -56 0
-204 -57 -25 0
-204 57 25 0
-204 -58 -26 0
-204 58 26 0
-204 -59 0
-204 -60 0
-204 -61 -29 0
-204 61 29 0
-204 -62 -30 0
-204 62 30 0
-204 -63 0
-204 -64 0
-205 -33 0
-205 -34 0
-205 -35 0
-205 -36 0
-205 -37 0
-205 -38 0
-205 -39 0
-205 -40 0
-205 -41 0
-205 -42 0
-205 -43 0
-205 -44 0
-205 45 0
-205 46 0
-205 47 0
-205 48 0
-205 -49 0
-205 -50 0
-205 -51 0
-205 -52 0
-205 -53 0
-205 -54 0
-205 -55 0
-205 -56 0
-205 -57 0
-205 -58 0
-205 -59 0
-205 -60 0
-205 61 0
-205 62 0
-205 63 0
-205 64 0
-206 -33 0
-206 -34 0
-206 -35 0
-206 -36 0
-206 37 0
-206 38 0
-206 39 0
-206 40 0
-206 -41 0
-206 -42 0
-206 -43 0
-206 -44 0
-206 -45 0
-206 -46 0
-206 -47 0
-206 -48 0
-206 -49 0
-206 -50 0
-206 -51 0
-206 -52 0
-206 53 0
-206 54 0
-206 55 0
-206 56 0
-206 -57 0
-206 -58 0
-206 -59 0
-206 -60 0
-206 -61 0
-206 -62 0
-206 -63 0
-206 -64 0
-207 -33 0
-207 -34 0
-207 -35 0
-207 -36 0
-207 -37 0
-207 -38 0
-207 -39 0
-207 -40 0
-207 41 0
-207 42 0
-207 43 0
-207 44 0
-207 -45 0
-207 -46 0
-207 -47 0
-207 -48 0
-207 -49 0
-207 -50 0
-207 -51 0
-207 -52 0
-207 -53 0
-207 -54 0
-207 -55 0
-207 -56 0
-207 57 0
-207 58 0
-207 59 0
-207 60 0
-207 -61 0
-207 -62 0
-207 -63 0
-207 -64 0
-208 33 0
-208 34 0
-208 35 0
-208 36 0
-208 -37 0
-208 -38 0
-208 -39 0
-208 -40 0
-208 -41 0
-208 -42 0
-208 -43 0
-208 -44 0
-208 -45 0
-208 -46 0
-208 -47 0
-208 -48 0
-208 49 0
-208 50 0
-208 51 0
-208 52 0
-208 -53 0
-208 -54 0
-208 -55 0
-208 -56 0
-208 -57 0
-208 -58 0
-208 -59 0
-208 -60 0
-208 -61 0
-208 -62 0
-208 -63 0
-208 -64 0
-209 -33 0
-209 -34 0
-209 -35 0
-209 -36 0
-209 -37 0
-209 -38 0
-209 -39 0
-209 -40 0
-209 -41 0
-209 -42 0
-209 -43 0
-209 -44 0
-209 -45 0
-209 -46 0
-209 -47 0
-209 -48 0
-209 -49 0
-209 -50 0
-209 -51 0
-209 -52 0
-209 53 0
-209 54 0
-209 55 0
-209 56 0
-209 -57 0
-209 -58 0
-209 -59 0
-209 -60 0
-209 61 0
-209 62 0
-209 63 0
-209 64 0
-210 -33 0
-210 -34 0
-210 -35 0
-210 -36 0
-210 37 0
-210 38 0
-210 39 0
-210 40 0
-210 -41 0
-210 -42 0
-210 -43 0
-210 -44 0
-210 45 0
-210 46 0
-210 47 0
-210 48 0
-210 -49 0
-210 -50 0
-210 -51 0
-210 -52 0
-210 -53 0
-210 -54 0
-210 -55 0
-210 -56 0
-210 -57 0
-210 -58 0
-210 -59 0
-210 -60 0
-210 -61 0
-210 -62 0
-210 -63 0
-210 -64 0
-211 -33 0
-211 -34 0
-211 -35 0
-211 -36 0
-211 -37 0
-211 -38 0
-211 -39 0
-211 -40 0
-211 -41 0
-211 -42 0
-211 -43 0
-211 -44 0
-211 -45 0
-211 -46 0
-211 -47 0
-211 -48 0
-211 49 0
-211 50 0
-211 51 0
-211 52 0
-211 -53 0
-211 -54 0
-211 -55 0
-211 -56 0
-211 57 0
-211 58 0
-211 59 0
-211 60 0
-211 -61 0
-211 -62 0
-211 -63 0
-211 -64 0
-212 33 0
-212 34 0
-212 35 0
-212 36 0
-212 -37 0
-212 -38 0
-212 -39 0
-212 -40 0
-212 41 0
-212 42 0
-212 43 0
-212 44 0
-212 -45 0
-212 -46 0
-212 -47 0
-212 -48 0
-212 -49 0
-212 -50 0
-212 -51 0
-212 -52 0
-212 -53 0
-212 -54 0
-212 -55 0
-212 -56 0
-212 -57 0
-212 -58 0
-212 -59 0
-212 -60 0
-212 -61 0
-212 -62 0
-212 -63 0
-212 -64 0
-213 -33 0
-213 -34 0
-213 -35 0
-213 -36 0
-213 -37 5 0
-213 37 -5 0
-213 -38 6 0
-213 38 -6 0
-213 -39 7 0
-213 39 -7 0
-213 -40 8 0
-213 40 -8 0
-213 -41 0
-213 -42 0
-213 -43 0
-213 -44 0
-213 -45 13 0
-213 45 -13 0
-213 -46 14 0
-213 46 -14 0
-213 -47 15 0
-213 47 -15 0
-213 -48 16 0
-213 48 -16 0
-213 -49 0
-213 -50 0
-213 -51 0
-213 -52 0
-213 -53 21 0
-213 53 -21 0
-213 -54 22 0
-213 54 -22 0
-213 -55 23 0
-213 55 -23 0
-213 -56 24 0
-213 56 -24 0
-213 -57 0
-213 -58 0
-213 -59 0
-213 -60 0
-213 -61 29 0
-213 61 -29 0
-213 -62 30 0
-213 62 -30 0
-213 -63 31 0
-213 63 -31 0
-213 -64 32 0
-213 64 -32 0
-214 -33 0
-214 -34 0
-214 -35 0
-214 -36 0
-214 -37 -5 0
-214 37 5 0
-214 -38 -6 0
-214 38 6 0
-214 -39 -7 0
-214 39 7 0
-214 -40 -8 0
-214 40 8 0
-214 -41 0
-214 -42 0
-214 -43 0
-214 -44 0
-214 -45 -13 0
-214 45 13 0
-214 -46 -14 0
-214 46 14 0
-214 -47 -15 0
-214 47 15 0
-214 -48 -16 0
-214 48 16 0
-214 -49 0
-214 -50 0
-214 -51 0
-214 -52 0
-214 -53 -21 0
-214 53 21 0
-214 -54 -22 0
-214 54 22 0
-214 -55 -23 0
-214 55 23 0
-214 -56 -24 0
-214 56 24 0
-214 -57 0
-214 -58 0
-214 -59 0
-214 -60 0
-214 -61 -29 0
-214 61 29 0
-214 -62 -30 0
-214 62 30 0
-214 -63 -31 0
-214 63 31 0
-214 -64 -32 0
-214 64 32 0
-215 -33 1 0
-215 33 -1 0
-215 -34 2 0
-215 34 -2 0
-215 -35 3 0
-215 35 -3 0
-215 -36 4 0
-215 36 -4 0
-215 -37 0
-215 -38 0
-215 -39 0
-215 -40 0
-215 -41 9 0
-215 41 -9 0
-215 -42 10 0
-215 42 -10 0
-215 -43 11 0
-215 43 -11 0
-215 -44 12 0
-215 44 -12 0
-215 -45 0
-215 -46 0
-215 -47 0
-215 -48 0
-215 -49 17 0
-215 49 -17 0
-215 -50 18 0
-215 50 -18 0
-215 -51 19 0
-215 51 -19 0
-215 -52 20 0
-215 52 -20 0
-215 -53 0
-215 -54 0
-215 -55 0
-215 -56 0
-215 -57 25 0
-215 57 -25 0
-215 -58 26 0
-215 58 -26 0
-215 -59 27 0
-215 59 -27 0
-215 -60 28 0
-215 60 -28 0
-215 -61 0
-215 -62 0
-215 -63 0
-215 -64 0
-216 -33 -1 0
-216 33 1 0
-216 -34 -2 0
-216 34 2 0
-216 -35 -3 0
-216 35 3 0
-216 -36 -4 0
-216 36 4 0
-216 -37 0
-216 -38 0
-216 -39 0
-216 -40 0
-216 -41 -9 0
-216 41 9 0
-216 -42 -10 0
-216 42 10 0
-216 -43 -11 0
-216 43 11 0
-216 -44 -12 0
-216 44 12 0
-216 -45 0
-216 -46 0
-216 -47 0
-216 -48 0
-216 -49 -17 0
-216 49 17 0
-216 -50 -18 0
-216 50 18 0
-216 -51 -19 0
-216 51 19 0
-216 -52 -20 0
-216 52 20 0
-216 -53 0
-216 -54 0
-216 -55 0
-216 -56 0
-216 -57 -25 0
-216 57 25 0
-216 -58 -26 0
-216 58 26 0
-216 -59 -27 0
-216 59 27 0
-216 -60 -28 0
-216 60 28 0
-216 -61 0
-216 -62 0
-216 -63 0
-216 -64 0
-217 -33 0
-217 -34 0
-217 -35 0
-217 -36 0
-217 -37 0
-217 -38 0
-217 -39 0
-217 -40 0
-217 -41 0
-217 -42 0
-217 -43 0
-217 -44 0
-217 -45 0
-217 -46 0
-217 -47 0
-217 -48 0
-217 -49 0
-217 -50 0
-217 -51 0
-217 -52 0
-217 -53 0
-217 -54 0
-217 -55 0
-217 -56 0
-217 57 0
-217 58 0
-217 59 0
-217 60 0
-217 61 0
-217 62 0
-217 63 0
-217 64 0
-218 -33 0
-218 -34 0
-218 -35 0
-218 -36 0
-218 -37 0
-218 -38 0
-218 -39 0
-218 -40 0
-218 41 0
-218 42 0
-218 43 0
-218 44 0
-218 45 0
-218 46 0
-218 47 0
-218 48 0
-218 -49 0
-218 -50 0
-218 -51 0
-218 -52 0
-218 -53 0
-218 -54 0
-218 -55 0
-218 -56 0
-218 -57 0
-218 -58 0
-218 -59 0
-218 -60 0
-218 -61 0
-218 -62 0
-218 -63 0
-218 -64 0
-219 -33 0
-219 -34 0
-219 -35 0
-219 -36 0
-219 -37 0
-219 -38 0
-219 -39 0
-219 -40 0
-219 -41 0
-219 -42 0
-219 -43 0
-219 -44 0
-219 -45 0
-219 -46 0
-219 -47 0
-219 -48 0
-219 49 0
-219 50 0
-219 51 0
-219 52 0
-219 53 0
-219 54 0
-219 55 0
-219 56 0
-219 -57 0
-219 -58 0
-219 -59 0
-219 -60 0
-219 -61 0
-219 -62 0
-219 -63 0
-219 -64 0
-220 33 0
-220 34 0
-220 35 0
-220 36 0
-220 37 0
-220 38 0
-220 39 0
-220 40 0
-220 -41 0
-220 -42 0
-220 -43 0
-220 -44 0
-220 -45 0
-220 -46 0
-220 -47 0
-220 -48 0
-220 -49 0
-220 -50 0
-220 -51 0
-220 -52 0
-220 -53 0
-220 -54 0
-220 -55 0
-220 -56 0
-220 -57 0
-220 -58 0
-220 -59 0
-220 -60 0
-220 -61 0
-220 -62 0
-220 -63 0
-220 -64 0
-221 -33 0
-221 -34 0
-221 -35 0
-221 -36 0
-221 -37 0
-221 -38 0
-221 -39 0
-221 -40 0
-221 -41 9 0
-221 41 -9 0
-221 -42 10 0
-221 42 -10 0
-221 -43 11 0
-221 43 -11 0
-221 -44 12 0
-221 44 -12 0
-221 -45 13 0
-221 45 -13 0
-221 -46 14 0
-221 46 -14 0
-221 -47 15 0
-221 47 -15 0
-221 -48 16 0
-221 48 -16 0
-221 -49 0
-221 -50 0
-221 -51 0
-221 -52 0
-221 -53 0
-221 -54 0
-221 -55 0
-221 -56 0
-221 -57 25 0
-221 57 -25 0
-221 -58 26 0
-221 58 -26 0
-221 -59 27 0
-221 59 -27 0
-221 -60 28 0
-221 60 -28 0
-221 -61 29 0
-221 61 -29 0
-221 -62 30 0
-221 62 -30 0
-221 -63 31 0
-221 63 -31 0
-221 -64 32 0
-221 64 -32 0
-222 -33 0
-222 -34 0
-222 -35 0
-222 -36 0
-222 -37 0
-222 -38 0
-222 -39 0
-222 -40 0
-222 -41 -9 0
-222 41 9 0
-222 -42 -10 0
-222 42 10 0
-222 -43 -11 0
-222 43 11 0
-222 -44 -12 0
-222 44 12 0
-222 -45 -13 0
-222 45 13 0
-222 -46 -14 0
-222 46 14 0
-222 -47 -15 0
-222 47 15 0
-222 -48 -16 0
-222 48 16 0
-222 -49 0
-222 -50 0
-222 -51 0
-222 -52 0
-222 -53 0
-222 -54 0
-222 -55 0
-222 -56 0
-222 -57 -25 0
-222 57 25 0
-222 -58 -26 0
-222 58 26 0
-222 -59 -27 0
-222 59 27 0
-222 -60 -28 0
-222 60 28 0
-222 -61 -29 0
-222 61 29 0
-222 -62 -30 0
-222 62 30 0
-222 -63 -31 0
-222 63 31 0
-222 -64 -32 0
-222 64 32 0
-223 -33 1 0
-223 33 -1 0
-223 -34 2 0
-223 34 -2 0
-223 -35 3 0
-223 35 -3 0
-223 -36 4 0
-223 36 -4 0
-223 -37 5 0
-223 37 -5 0
-223 -38 6 0
-223 38 -6 0
-223 -39 7 0
-223 39 -7 0
-223 -40 8 0
-223 40 -8 0
-223 -41 0
-223 -42 0
-223 -43 0
-223 -44 0
-223 -45 0
-223 -46 0
-223 -47 0
-223 -48 0
-223 -49 17 0
-223 49 -17 0
-223 -50 18 0
-223 50 -18 0
-223 -51 19 0
-223 51 -19 0
-223 -52 20 0
-223 52 -20 0
-223 -53 21 0
-223 53 -21 0
-223 -54 22 0
-223 54 -22 0
-223 -55 23 0
-223 55 -23 0
-223 -56 24 0
-223 56 -24 0
-223 -57 0
-223 -58 0
-223 -59 0
-223 -60 0
-223 -61 0
-223 -62 0
-223 -63 0
-223 -64 0
-224 -33 -1 0
-224 33 1 0
-224 -34 -2 0
-224 34 2 0
-224 -35 -3 0
-224 35 3 0
-224 -36 -4 0
-224 36 4 0
-224 -37 -5 0
-224 37 5 0
-224 -38 -6 0
-224 38 6 0
-224 -39 -7 0
-224 39 7 0
-224 -40 -8 0
-224 40 8 0
-224 -41 0
-224 -42 0
-224 -43 0
-224 -44 0
-224 -45 0
-224 -46 0
-224 -47 0
-224 -48 0
-224 -49 -17 0
-224 49 17 0
-224 -50 -18 0
-224 50 18 0
-224 -51 -19 0
-224 51 19 0
-224 -52 -20 0
-224 52 20 0
-224 -53 -21 0
-224 53 21 0
-224 -54 -22 0
-224 54 22 0
-224 -55 -23 0
-224 55 23 0
-224 -56 -24 0
-224 56 24 0
-224 -57 0
-224 -58 0
-224 -59 0
-224 -60 0
-224 -61 0
-224 -62 0
-224 -63 0
-224 -64 0
-225 -33 0
-225 -34 0
-225 -35 0
-225 -36 0
-225 -37 0
-225 -38 0
-225 -39 0
-225 -40 0
-225 -41 0
-225 -42 0
-225 -43 0
-225 -44 0
-225 -45 0
-225 -46 0
-225 -47 0
-225 -48 0
-225 -49 17 0
-225 49 -17 0
-225 -50 18 0
-225 50 -18 0
-225 -51 19 0
-225 51 -19 0
-225 -52 20 0
-225 52 -20 0
-225 -53 21 0
-225 53 -21 0
-225 -54 22 0
-225 54 -22 0
-225 -55 23 0
-225 55 -23 0
-225 -56 24 0
-225 56 -24 0
-225 -57 25 0
-225 57 -25 0
-225 -58 26 0
-225 58 -26 0
-225 -59 27 0
-225 59 -27 0
-225 -60 28 0
-225 60 -28 0
-225 -61 29 0
-225 61 -29 0
-225 -62 30 0
-225 62 -30 0
-225 -63 31 0
-225 63 -31 0
-225 -64 32 0
-225 64 -32 0
-226 -33 0
-226 -34 0
-226 -35 0
-226 -36 0
-226 -37 0
-226 -38 0
-226 -39 0
-226 -40 0
-226 -41 0
-226 -42 0
-226 -43 0
-226 -44 0
-226 -45 0
-226 -46 0
-226 -47 0
-226 -48 0
-226 -49 -17 0
-226 49 17 0
-226 -50 -18 0
-226 50 18 0
-226 -51 -19 0
-226 51 19 0
-226 -52 -20 0
-226 52 20 0
-226 -53 -21 0
-226 53 21 0
-226 -54 -22 0
-226 54 22 0
-226 -55 -23 0
-226 55 23 0
-226 -56 -24 0
-226 56 24 0
-226 -57 -25 0
-226 57 25 0
-226 -58 -26 0
-226 58 26 0
-226 -59 -27 0
-226 59 27 0
-226 -60 -28 0
-226 60 28 0
-226 -61 -29 0
-226 61 29 0
-226 -62 -30 0
-226 62 30 0
-226 -63 -31 0
-226 63 31 0
-226 -64 -32 0
-226 64 32 0
-227 -33 1 0
-227 33 -1 0
-227 -34 2 0
-227 34 -2 0
-227 -35 3 0
-227 35 -3 0
-227 -36 4 0
-227 36 -4 0
-227 -37 5 0
-227 37 -5 0
-227 -38 6 0
-227 38 -6 0
-227 -39 7 0
-227 39 -7 0
-227 -40 8 0
-227 40 -8 0
-227 -41 9 0
-227 41 -9 0
-227 -42 10 0
-227 42 -10 0
-227 -43 11 0
-227 43 -11 0
-227 -44 12 0
-227 44 -12 0
-227 -45 13 0
-227 45 -13 0
-227 -46 14 0
-227 46 -14 0
-227 -47 15 0
-227 47 -15 0
-227 -48 16 0
-227 48 -16 0
-227 -49 0
-227 -50 0
-227 -51 0
-227 -52 0
-227 -53 0
-227 -54 0
-227 -55 0
-227 -56 0
-227 -57 0
-227 -58 0
-227 -59 0
-227 -60 0
-227 -61 0
-227 -62 0
-227 -63 0
-227 -64 0
-228 -33 -1 0
-228 33 1 0
-228 -34 -2 0
-228 34 2 0
-228 -35 -3 0
-228 35 3 0
-228 -36 -4 0
-228 36 4 0
-228 -37 -5 0
-228 37 5 0
-228 -38 -6 0
-228 38 6 0
-228 -39 -7 0
-228 39 7 0
-228 -40 -8 0
-228 40 8 0
-228 -41 -9 0
-228 41 9 0
-228 -42 -10 0
-228 42 10 0
-228 -43 -11 0
-228 43 11 0
-228 -44 -12 0
-228 44 12 0
-228 -45 -13 0
-228 45 13 0
-228 -46 -14 0
-228 46 14 0
-228 -47 -15 0
-228 47 15 0
-228 -48 -16 0
-228 48 16 0
-228 -49 0
-228 -50 0
-228 -51 0
-228 -52 0
-228 -53 0
-228 -54 0
-228 -55 0
-228 -56 0
-228 -57 0
-228 -58 0
-228 -59 0
-228 -60 0
-228 -61 0
-228 -62 0
-228 -63 0
-228 -64 0
229 230 231 232 233 234 235 236 237 238 239 240 241 242 243 244 245 246 247 248 249 250 251 252 253 254 255 256 257 258 259 260 261 262 263 264 265 266 267 268 269 270 271 272 273 274 275 276 277 278 279 280 281 282 283 284 285 286 287 288 289 290 291 292 293 294 295 296 297 298 299 300 301 302 303 304 305 306 307 308 309 310 311 312 0
-229 -230 0
-229 -231 0
-229 -232 0
-229 -233 0
-229 -234 0
-229 -235 0
-229 -236 0
-229 -237 0
-229 -238 0
-229 -239 0
-229 -240 0
-229 -241 0
-229 -242 0
-229 -243 0
-229 -244 0
-229 -245 0
-229 -246 0
-229 -247 0
-229 -248 0
-229 -249 0
-229 -250 0
-229 -251 0
-229 -252 0
-229 -253 0
-229 -254 0
-229 -255 0
-229 -256 0
-229 -257 0
-229 -258 0
-229 -259 0
-229 -260 0
-229 -261 0
-229 -262 0
-229 -263 0
-229 -264 0
-229 -265 0
-229 -266 0
-229 -267 0
-229 -268 0
-229 -269 0
-229 -270 0
-229 -271 0
-229 -272 0
-229 -273 0
-229 -274 0
-229 -275 0
-229 -276 0
-229 -277 0
-229 -278 0
-229 -279 0
-229 -280 0
-229 -281 0
-229 -282 0
-229 -283 0
-229 -284 0
-229 -285 0
-229 -286 0
-229 -287 0
-229 -288 0
-229 -289 0
-229 -290 0
-229 -291 0
-229 -292 0
-229 -293 0
-229 -294 0
-229 -295 0
-229 -296 0
-229 -297 0
-229 -298 0
-229 -299 0
-229 -300 0
-229 -301 0
-229 -302 0
-229 -303 0
-229 -304 0
-229 -305 0
-229 -306 0
-229 -307 0
-229 -308 0
-229 -309 0
-229 -310 0
-229 -311 0
-229 -312 0
-230 -231 0
-230 -232 0
-230 -233 0
-230 -234 0
-230 -235 0
-230 -236 0
-230 -237 0
-230 -238 0
-230 -239 0
-230 -240 0
-230 -241 0
-230 -242 0
-230 -243 0
-230 -244 0
-230 -245 0
-230 -246 0
-230 -247 0
-230 -248 0
-230 -249 0
-230 -250 0
-230 -251 0
-230 -252 0
-230 -253 0
-230 -254 0
-230 -255 0
-230 -256 0
-230 -257 0
-230 -258 0
-230 -259 0
-230 -260 0
-230 -261 0
-230 -262 0
-230 -263 0
-230 -264 0
-230 -265 0
-230 -266 0
-230 -267 0
-230 -268 0
-230 -269 0
-230 -270 0
-230 -271 0
-230 -272 0
-230 -273 0
-230 -274 0
-230 -275 0
-230 -276 0
-230 -277 0
-230 -278 0
-230 -279 0
-230 -280 0
-230 -281 0
-230 -282 0
-230 -283 0
-230 -284 0
-230 -285 0
-230 -286 0
-230 -287 0
-230 -288 0
-230 -289 0
-230 -290 0
-230 -291 0
-230 -292 0
-230 -293 0
-230 -294 0
-230 -295 0
-230 -296 0
-230 -297 0
-230 -298 0
-230 -299 0
-230 -300 0
-230 -301 0
-230 -302 0
-230 -303 0
-230 -304 0
-230 -305 0
-230 -306 0
-230 -307 0
-230 -308 0
-230 -309 0
-230 -310 0
-230 -311 0
-230 -312 0
-231 -232 0
-231 -233 0
-231 -234 0
-231 -235 0
-231 -236 0
-231 -237 0
-231 -238 0
-231 -239 0
-231 -240 0
-231 -241 0
-231 -242 0
-231 -243 0
-231 -244 0
-231 -245 0
-231 -246 0
-231 -247 0
-231 -248 0
-231 -249 0
-231 -250 0
-231 -251 0
-231 -252 0
-231 -253 0
-231 -254 0
-231 -255 0
-231 -256 0
-231 -257 0
-231 -258 0
-231 -259 0
-231 -260 0
-231 -261 0
-231 -262 0
-231 -263 0
-231 -264 0
-231 -265 0
-231 -266 0
-231 -267 0
-231 -268 0
-231 -269 0
-231 -270 0
-231 -271 0
-231 -272 0
-231 -273 0
-231 -274 0
-231 -275 0
-231 -276 0
-231 -277 0
-231 -278 0
-231 -279 0
-231 -280 0
-231 -281 0
-231 -282 0
-231 -283 0
-231 -284 0
-231 -285 0
-231 -286 0
-231 -287 0
-231 -288 0
-231 -289 0
-231 -290 0
-231 -291 0
-231 -292 0
-231 -293 0
-231 -294 0
-231 -295 0
-231 -296 0
-231 -297 0
-231 -298 0
-231 -299 0
-231 -300 0
-231 -301 0
-231 -302 0
-231 -303 0
-231 -304 0
-231 -305 0
-231 -306 0
-231 -307 0
-231 -308 0
-231 -309 0
-231 -310 0
-231 -311 0
-231 -312 0
-232 -233 0
-232 -234 0
-232 -235 0
-232 -236 0
-232 -237 0
-232 -238 0
-232 -239 0
-232 -240 0
-232 -241 0
-232 -242 0
-232 -243 0
-232 -244 0
-232 -245 0
-232 -246 0
-232 -247 0
-232 -248 0
-232 -249 0
-232 -250 0
-232 -251 0
-232 -252 0
-232 -253 0
-232 -254 0
-232 -255 0
-232 -256 0
-232 -257 0
-232 -258 0
-232 -259 0
-232 -260 0
-232 -261 0
-232 -262 0
-232 -263 0
-232 -264 0
-232 -265 0
-232 -266 0
-232 -267 0
-232 -268 0
-232 -269 0
-232 -270 0
-232 -271 0
-232 -272 0
-232 -273 0
-232 -274 0
-232 -275 0
-232 -276 0
-232 -277 0
-232 -278 0
-232 -279 0
-232 -280 0
-232 -281 0
-232 -282 0
-232 -283 0
-232 -284 0
-232 -285 0
-232 -286 0
-232 -287 0
-232 -288 0
-232 -289 0
-232 -290 0
-232 -291 0
-232 -292 0
-232 -293 0
-232 -294 0
-232 -295 0
-232 -296 0
-232 -297 0
-232 -298 0
-232 -299 0
-232 -300 0
-232 -301 0
-232 -302 0
-232 -303 0
-232 -304 0
-232 -305 0
-232 -306 0
-232 -307 0
-232 -308 0
-232 -309 0
-232 -310 0
-232 -311 0
-232 -312 0
-233 -234 0
-233 -235 0
-233 -236 0
-233 -237 0
-233 -238 0
-233 -239 0
-233 -240 0
-233 -241 0
-233 -242 0
-233 -243 0
-233 -244 0
-233 -245 0
-233 -246 0
-233 -247 0
-233 -248 0
-233 -249 0
-233 -250 0
-233 -251 0
-233 -252 0
-233 -253 0
-233 -254 0
-233 -255 0
-233 -256 0
-233 -257 0
-233 -258 0
-233 -259 0
-233 -260 0
-233 -261 0
-233 -262 0
-233 -263 0
-233 -264 0
-233 -265 0
-233 -266 0
-233 -267 0
-233 -268 0
-233 -269 0
-233 -270 0
-233 -271 0
-233 -272 0
-233 -273 0
-233 -274 0
-233 -275 0
-233 -276 0
-233 -277 0
-233 -278 0
-233 -279 0
-233 -280 0
-233 -281 0
-233 -282 0
-233 -283 0
-233 -284 0
-233 -285 0
-233 -286 0
-233 -287 0
-233 -288 0
-233 -289 0
-233 -290 0
-233 -291 0
-233 -292 0
-233 -293 0
-233 -294 0
-233 -295 0
-233 -296 0
-233 -297 0
-233 -298 0
-233 -299 0
-233 -300 0
-233 -301 0
-233 -302 0
-233 -303 0
-233 -304 0
-233 -305 0
-233 -306 0
-233 -307 0
-233 -308 0
-233 -309 0
-233 -310 0
-233 -311 0
-233 -312 0
-234 -235 0
-234 -236 0
-234 -237 0
-234 -238 0
-234 -239 0
-234 -240 0
-234 -241 0
-234 -242 0
-234 -243 0
-234 -244 0
-234 -245 0
-234 -246 0
-234 -247 0
-234 -248 0
-234 -249 0
-234 -250 0
-234 -251 0
-234 -252 0
-234 -253 0
-234 -254 0
-234 -255 0
-234 -256 0
-234 -257 0
-234 -258 0
-234 -259 0
-234 -260 0
-234 -261 0
-234 -262 0
-234 -263 0
-234 -264 0
-234 -265 0
-234 -266 0
-234 -267 0
-234 -268 0
-234 -269 0
-234 -270 0
-234 -271 0
-234 -272 0
-234 -273 0
-234 -274 0
-234 -275 0
-234 -276 0
-234 -277 0
-234 -278 0
-234 -279 0
-234 -280 0
-234 -281 0
-234 -282 0
-234 -283 0
-234 -284 0
-234 -285 0
-234 -286 0
-234 -287 0
-234 -288 0
-234 -289 0
-234 -290 0
-234 -291 0
-234 -292 0
-234 -293 0
-234 -294 0
-234 -295 0
-234 -296 0
-234 -297 0
-234 -298 0
-234 -299 0
-234 -300 0
-234 -301 0
-234 -302 0
-234 -303 0
-234 -304 0
-234 -305 0
-234 -306 0
-234 -307 0
-234 -308 0
-234 -309 0
-234 -310 0
-234 -311 0
-234 -312 0
-235 -236 0
-235 -237 0
-235 -238 0
-235 -239 0
-235 -240 0
-235 -241 0
-235 -242 0
-235 -243 0
-235 -244 0
-235 -245 0
-235 -246 0
-235 -247 0
-235 -248 0
-235 -249 0
-235 -250 0
-235 -251 0
-235 -252 0
-235 -253 0
-235 -254 0
-235 -255 0
-235 -256 0
-235 -257 0
-235 -258 0
-235 -259 0
-235 -260 0
-235 -261 0
-235 -262 0
-235 -263 0
-235 -264 0
-235 -265 0
-235 -266 0
-235 -267 0
-235 -268 0
-235 -269 0
-235 -270 0
-235 -271 0
-235 -272 0
-235 -273 0
-235 -274 0
-235 -275 0
-235 -276 0
-235 -277 0
-235 -278 0
-235 -279 0
-235 -280 0
-235 -281 0
-235 -282 0
-235 -283 0
-235 -284 0
-235 -285 0
-235 -286 0
-235 -287 0
-235 -288 0
-235 -289 0
-235 -290 0
-235 -291 0
-235 -292 0
-235 -293 0
-235 -294 0
-235 -295 0
-235 -296 0
-235 -297 0
-235 -298 0
-235 -299 0
-235 -300 0
-235 -301 0
-235 -302 0
-235 -303 0
-235 -304 0
-235 -305 0
-235 -306 0
-235 -307 0
-235 -308 0
-235 -309 0
-235 -310 0
-235 -311 0
-235 -312 0
-236 -237 0
-236 -238 0
-236 -239 0
-236 -240 0
-236 -241 0
-236 -242 0
-236 -243 0
-236 -244 0
-236 -245 0
-236 -246 0
-236 -247 0
-236 -248 0
-236 -249 0
-236 -250 0
-236 -251 0
-236 -252 0
-236 -253 0
-236 -254 0
-236 -255 0
-236 -256 0
-236 -257 0
-236 -258 0
-236 -259 0
-236 -260 0
-236 -261 0
-236 -262 0
-236 -263 0
-236 -264 0
-236 -265 0
-236 -266 0
-236 -267 0
-236 -268 0
-236 -269 0
-236 -270 0
-236 -271 0
-236 -272 0
-236 -273 0
-236 -274 0
-236 -275 0
-236 -276 0
-236 -277 0
-236 -278 0
-236 -279 0
-236 -280 0
-236 -281 0
-236 -282 0
-236 -283 0
-236 -284 0
-236 -285 0
-236 -286 0
-236 -287 0
-236 -288 0
-236 -289 0
-236 -290 0
-236 -291 0
-236 -292 0
-236 -293 0
-236 -294 0
-236 -295 0
-236 -296 0
-236 -297 0
-236 -298 0
-236 -299 0
-236 -300 0
-236 -301 0
-236 -302 0
-236 -303 0
-236 -304 0
-236 -305 0
-236 -306 0
-236 -307 0
-236 -308 0
-236 -309 0
-236 -310 0
-236 -311 0
-236 -312 0
-237 -238 0
-237 -239 0
-237 -240 0
-237 -241 0
-237 -242 0
-237 -243 0
-237 -244 0
-237 -245 0
-237 -246 0
-237 -247 0
-237 -248 0
-237 -249 0
-237 -250 0
-237 -251 0
-237 -252 0
-237 -253 0
-237 -254 0
-237 -255 0
-237 -256 0
-237 -257 0
-237 -258 0
-237 -259 0
-237 -260 0
-237 -261 0
-237 -262 0
-237 -263 0
-237 -264 0
-237 -265 0
-237 -266 0
-237 -267 0
-237 -268 0
-237 -269 0
-237 -270 0
-237 -271 0
-237 -272 0
-237 -273 0
-237 -274 0
-237 -275 0
-237 -276 0
-237 -277 0
-237 -278 0
-237 -279 0
-237 -280 0
-237 -281 0
-237 -282 0
-237 -283 0
-237 -284 0
-237 -285 0
-237 -286 0
-237 -287 0
-237 -288 0
-237 -289 0
-237 -290 0
-237 -291 0
-237 -292 0
-237 -293 0
-237 -294 0
-237 -295 0
-237 -296 0
-237 -297 0
-237 -298 0
-237 -299 0
-237 -300 0
-237 -301 0
-237 -302 0
-237 -303 0
-237 -304 0
-237 -305 0
-237 -306 0
-237 -307 0
-237 -308 0
-237 -309 0
-237 -310 0
-237 -311 0
-237 -312 0
-238 -239 0
-238 -240 0
-238 -241 0
-238 -242 0
-238 -243 0
-238 -244 0
-238 -245 0
-238 -246 0
-238 -247 0
-238 -248 0
-238 -249 0
-238 -250 0
-238 -251 0
-238 -252 0
-238 -253 0
-238 -254 0
-238 -255 0
-238 -256 0
-238 -257 0
-238 -258 0
-238 -259 0
-238 -260 0
-238 -261 0
-238 -262 0
-238 -263 0
-238 -264 0
-238 -265 0
-238 -266 0
-238 -267 0
-238 -268 0
-238 -269 0
-238 -270 0
-238 -271 0
-238 -272 0
-238 -273 0
-238 -274 0
-238 -275 0
-238 -276 0
-238 -277 0
-238 -278 0
-238 -279 0
-238 -280 0
-238 -281 0
-238 -282 0
-238 -283 0
-238 -284 0
-238 -285 0
-238 -286 0
-238 -287 0
-238 -288 0
-238 -289 0
-238 -290 0
-238 -291 0
-238 -292 0
-238 -293 0
-238 -294 0
-238 -295 0
-238 -296 0
-238 -297 0
-238 -298 0
-238 -299 0
-238 -300 0
-238 -301 0
-238 -302 0
-238 -303 0
-238 -304 0
-238 -305 0
-238 -306 0
-238 -307 0
-238 -308 0
-238 -309 0
-238 -310 0
-238 -311 0
-238 -312 0
-239 -240 0
-239 -241 0
-239 -242 0
-239 -243 0
-239 -244 0
-239 -245 0
-239 -246 0
-239 -247 0
-239 -248 0
-239 -249 0
-239 -250 0
-239 -251 0
-239 -252 0
-239 -253 0
-239 -254 0
-239 -255 0
-239 -256 0
-239 -257 0
-239 -258 0
-239 -259 0
-239 -260 0
-239 -261 0
-239 -262 0
-239 -263 0
-239 -264 0
-239 -265 0
-239 -266 0
-239 -267 0
-239 -268 0
-239 -269 0
-239 -270 0
-239 -271 0
-239 -272 0
-239 -273 0
-239 -274 0
-239 -275 0
-239 -276 0
-239 -277 0
-239 -278 0
-239 -279 0
-239 -280 0
-239 -281 0
-239 -282 0
-239 -283 0
-239 -284 0
-239 -285 0
-239 -286 0
-239 -287 0
-239 -288 0
-239 -289 0
-239 -290 0
-239 -291 0
-239 -292 0
-239 -293 0
-239 -294 0
-239 -295 0
-239 -296 0
-239 -297 0
-239 -298 0
-239 -299 0
-239 -300 0
-239 -301 0
-239 -302 0
-239 -303 0
-239 -304 0
-239 -305 0
-239 -306 0
-239 -307 0
-239 -308 0
-239 -309 0
-239 -310 0
-239 -311 0
-239 -312 0
-240 -241 0
-240 -242 0
-240 -243 0
-240 -244 0
-240 -245 0
-240 -246 0
-240 -247 0
-240 -248 0
-240 -249 0
-240 -250 0
-240 -251 0
-240 -252 0
-240 -253 0
-240 -254 0
-240 -255 0
-240 -256 0
-240 -257 0
-240 -258 0
-240 -259 0
-240 -260 0
-240 -261 0
-240 -262 0
-240 -263 0
-240 -264 0
-240 -265 0
-240 -266 0
-240 -267 0
-240 -268 0
-240 -269 0
-240 -270 0
-240 -271 0
-240 -272 0
-240 -273 0
-240 -274 0
-240 -275 0
-240 -276 0
-240 -277 0
-240 -278 0
-240 -279 0
-240 -280 0
-240 -281 0
-240 -282 0
-240 -283 0
-240 -284 0
-240 -285 0
-240 -286 0
-240 -287 0
-240 -288 0
-240 -289 0
-240 -290 0
-240 -291 0
-240 -292 0
-240 -293 0
-240 -294 0
-240 -295 0
-240 -296 0
-240 -297 0
-240 -298 0
-240 -299 0
-240 -300 0
-240 -301 0
-240 -302 0
-240 -303 0
-240 -304 0
-240 -305 0
-240 -306 0
-240 -307 0
-240 -308 0
-240 -309 0
-240 -310 0
-240 -311 0
-240 -312 0
-241 -242 0
-241 -243 0
-241 -244 0
-241 -245 0
-241 -246 0
-241 -247 0
-241 -248 0
-241 -249 0
-241 -250 0
-241 -251 0
-241 -252 0
-241 -253 0
-241 -254 0
-241 -255 0
-241 -256 0
-241 -257 0
-241 -258 0
-241 -259 0
-241 -260 0
-241 -261 0
-241 -262 0
-241 -263 0
-241 -264 0
-241 -265 0
-241 -266 0
-241 -267 0
-241 -268 0
-241 -269 0
-241 -270 0
-241 -271 0
-241 -272 0
-241 -273 0
-241 -274 0
-241 -275 0
-241 -276 0
-241 -277 0
-241 -278 0
-241 -279 0
-241 -280 0
-241 -281 0
-241 -282 0
-241 -283 0
-241 -284 0
-241 -285 0
-241 -286 0
-241 -287 0
-241 -288 0
-241 -289 0
-241 -290 0
-241 -291 0
-241 -292 0
-241 -293 0
-241 -294 0
-241 -295 0
-241 -296 0
-241 -297 0
-241 -298 0
-241 -299 0
-241 -300 0
-241 -301 0
-241 -302 0
-241 -303 0
-241 -304 0
-241 -305 0
-241 -306 0
-241 -307 0
-241 -308 0
-241 -309 0
-241 -310 0
-241 -311 0
-241 -312 0
-242 -243 0
-242 -244 0
-242 -245 0
-242 -246 0
-242 -247 0
-242 -248 0
-242 -249 0
-242 -250 0
-242 -251 0
-242 -252 0
-242 -253 0
-242 -254 0
-242 -255 0
-242 -256 0
-242 -257 0
-242 -258 0
-242 -259 0
-242 -260 0
-242 -261 0
-242 -262 0
-242 -263 0
-242 -264 0
-242 -265 0
-242 -266 0
-242 -267 0
-242 -268 0
-242 -269 0
-242 -270 0
-242 -271 0
-242 -272 0
-242 -273 0
-242 -274 0
-242 -275 0
-242 -276 0
-242 -277 0
-242 -278 0
-242 -279 0
-242 -280 0
-242 -281 0
-242 -282 0
-242 -283 0
-242 -284 0
-242 -285 0
-242 -286 0
-242 -287 0
-242 -288 0
-242 -289 0
-242 -290 0
-242 -291 0
-242 -292 0
-242 -293 0
-242 -294 0
-242 -295 0
-242 -296 0
-242 -297 0
-242 -298 0
-242 -299 0
-242 -300 0
-242 -301 0
-242 -302 0
-242 -303 0
-242 -304 0
-242 -305 0
-242 -306 0
-242 -307 0
-242 -308 0
-242 -309 0
-242 -310 0
-242 -311 0
-242 -312 0
-243 -244 0
-243 -245 0
-243 -246 0
-243 -247 0
-243 -248 0
-243 -249 0
-243 -250 0
-243 -251 0
-243 -252 0
-243 -253 0
-243 -254 0
-243 -255 0
-243 -256 0
-243 -257 0
-243 -258 0
-243 -259 0
-243 -260 0
-243 -261 0
-243 -262 0
-243 -263 0
-243 -264 0
-243 -265 0
-243 -266 0
-243 -267 0
-243 -268 0
-243 -269 0
-243 -270 0
-243 -271 0
-243 -272 0
-243 -273 0
-243 -274 0
-243 -275 0
-243 -276 0
-243 -277 0
-243 -278 0
-243 -279 0
-243 -280 0
-243 -281 0
-243 -282 0
-243 -283 0
-243 -284 0
-243 -285 0
-243 -286 0
-243 -287 0
-243 -288 0
-243 -289 0
-243 -290 0
-243 -291 0
-243 -292 0
-243 -293 0
-243 -294 0
-243 -295 0
-243 -296 0
-243 -297 0
-243 -298 0
-243 -299 0
-243 -300 0
-243 -301 0
-243 -302 0
-243 -303 0
-243 -304 0
-243 -305 0
-243 -306 0
-243 -307 0
-243 -308 0
-243 -309 0
-243 -310 0
-243 -311 0
-243 -312 0
-244 -245 0
-244 -246 0
-244 -247 0
-244 -248 0
-244 -249 0
-244 -250 0
-244 -251 0
-244 -252 0
-244 -253 0
-244 -254 0
-244 -255 0
-244 -256 0
-244 -257 0
-244 -258 0
-244 -259 0
-244 -260 0
-244 -261 0
-244 -262 0
-244 -263 0
-244 -264 0
-244 -265 0
-244 -266 0
-244 -267 0
-244 -268 0
-244 -269 0
-244 -270 0
-244 -271 0
-244 -272 0
-244 -273 0
-244 -274 0
-244 -275 0
-244 -276 0
-244 -277 0
-244 -278 0
-244 -279 0
-244 -280 0
-244 -281 0
-244 -282 0
-244 -283 0
-244 -284 0
-244 -285 0
-244 -286 0
-244 -287 0
-244 -288 0
-244 -289 0
-244 -290 0
-244 -291 0
-244 -292 0
-244 -293 0
-244 -294 0
-244 -295 0
-244 -296 0
-244 -297 0
-244 -298 0
-244 -299 0
-244 -300 0
-244 -301 0
-244 -302 0
-244 -303 0
-244 -304 0
-244 -305 0
-244 -306 0
-244 -307 0
-244 -308 0
-244 -309 0
-244 -310 0
-244 -311 0
-244 -312 0
-245 -246 0
-245 -247 0
-245 -248 0
-245 -249 0
-245 -250 0
-245 -251 0
-245 -252 0
-245 -253 0
-245 -254 0
-245 -255 0
-245 -256 0
-245 -257 0
-245 -258 0
-245 -259 0
-245 -260 0
-245 -261 0
-245 -262 0
-245 -263 0
-245 -264 0
-245 -265 0
-245 -266 0
-245 -267 0
-245 -268 0
-245 -269 0
-245 -270 0
-245 -271 0
-245 -272 0
-245 -273 0
-245 -274 0
-245 -275 0
-245 -276 0
-245 -277 0
-245 -278 0
-245 -279 0
-245 -280 0
-245 -281 0
-245 -282 0
-245 -283 0
-245 -284 0
-245 -285 0
-245 -286 0
-245 -287 0
-245 -288 0
-245 -289 0
-245 -290 0
-245 -291 0
-245 -292 0
-245 -293 0
-245 -294 0
-245 -295 0
-245 -296 0
-245 -297 0
-245 -298 0
-245 -299 0
-245 -300 0
-245 -301 0
-245 -302 0
-245 -303 0
-245 -304 0
-245 -305 0
-245 -306 0
-245 -307 0
-245 -308 0
-245 -309 0
-245 -310 0
-245 -311 0
-245 -312 0
-246 -247 0
-246 -248 0
-246 -249 0
-246 -250 0
-246 -251 0
-246 -252 0
-246 -253 0
-246 -254 0
-246 -255 0
-246 -256 0
-246 -257 0
-246 -258 0
-246 -259 0
-246 -260 0
-246 -261 0
-246 -262 0
-246 -263 0
-246 -264 0
-246 -265 0
-246 -266 0
-246 -267 0
-246 -268 0
-246 -269 0
-246 -270 0
-246 -271 0
-246 -272 0
-246 -273 0
-246 -274 0
-246 -275 0
-246 -276 0
-246 -277 0
-246 -278 0
-246 -279 0
-246 -280 0
-246 -281 0
-246 -282 0
-246 -283 0
-246 -284 0
-246 -285 0
-246 -286 0
-246 -287 0
-246 -288 0
-246 -289 0
-246 -290 0
-246 -291 0
-246 -292 0
-246 -293 0
-246 -294 0
-246 -295 0
-246 -296 0
-246 -297 0
-246 -298 0
-246 -299 0
-246 -300 0
-246 -301 0
-246 -302 0
-246 -303 0
-246 -304 0
-246 -305 0
-246 -306 0
-246 -307 0
-246 -308 0
-246 -309 0
-246 -310 0
-246 -311 0
-246 -312 0
-247 -248 0
-247 -249 0
-247 -250 0
-247 -251 0
-247 -252 0
-247 -253 0
-247 -254 0
-247 -255 0
-247 -256 0
-247 -257 0
-247 -258 0
-247 -259 0
-247 -260 0
-247 -261 0
-247 -262 0
-247 -263 0
-247 -264 0
-247 -265 0
-247 -266 0
-247 -267 0
-247 -268 0
-247 -269 0
-247 -270 0
-247 -271 0
-247 -272 0
-247 -273 0
-247 -274 0
-247 -275 0
-247 -276 0
-247 -277 0
-247 -278 0
-247 -279 0
-247 -280 0
-247 -281 0
-247 -282 0
-247 -283 0
-247 -284 0
-247 -285 0
-247 -286 0
-247 -287 0
-247 -288 0
-247 -289 0
-247 -290 0
-247 -291 0
-247 -292 0
-247 -293 0
-247 -294 0
-247 -295 0
-247 -296 0
-247 -297 0
-247 -298 0
-247 -299 0
-247 -300 0
-247 -301 0
-247 -302 0
-247 -303 0
-247 -304 0
-247 -305 0
-247 -306 0
-247 -307 0
-247 -308 0
-247 -309 0
-247 -310 0
-247 -311 0
-247 -312 0
-248 -249 0
-248 -250 0
-248 -251 0
-248 -252 0
-248 -253 0
-248 -254 0
-248 -255 0
-248 -256 0
-248 -257 0
-248 -258 0
-248 -259 0
-248 -260 0
-248 -261 0
-248 -262 0
-248 -263 0
-248 -264 0
-248 -265 0
-248 -266 0
-248 -267 0
-248 -268 0
-248 -269 0
-248 -270 0
-248 -271 0
-248 -272 0
-248 -273 0
-248 -274 0
-248 -275 0
-248 -276 0
-248 -277 0
-248 -278 0
-248 -279 0
-248 -280 0
-248 -281 0
-248 -282 0
-248 -283 0
-248 -284 0
-248 -285 0
-248 -286 0
-248 -287 0
-248 -288 0
-248 -289 0
-248 -290 0
-248 -291 0
-248 -292 0
-248 -293 0
-248 -294 0
-248 -295 0
-248 -296 0
-248 -297 0
-248 -298 0
-248 -299 0
-248 -300 0
-248 -301 0
-248 -302 0
-248 -303 0
-248 -304 0
-248 -305 0
-248 -306 0
-248 -307 0
-248 -308 0
-248 -309 0
-248 -310 0
-248 -311 0
-248 -312 0
-249 -250 0
-249 -251 0
-249 -252 0
-249 -253 0
-249 -254 0
-249 -255 0
-249 -256 0
-249 -257 0
-249 -258 0
-249 -259 0
-249 -260 0
-249 -261 0
-249 -262 0
-249 -263 0
-249 -264 0
-249 -265 0
-249 -266 0
-249 -267 0
-249 -268 0
-249 -269 0
-249 -270 0
-249 -271 0
-249 -272 0
-249 -273 0
-249 -274 0
-249 -275 0
-249 -276 0
-249 -277 0
-249 -278 0
-249 -279 0
-249 -280 0
-249 -281 0
-249 -282 0
-249 -283 0
-249 -284 0
-249 -285 0
-249 -286 0
-249 -287 0
-249 -288 0
-249 -289 0
-249 -290 0
-249 -291 0
-249 -292 0
-249 -293 0
-249 -294 0
-249 -295 0
-249 -296 0
-249 -297 0
-249 -298 0
-249 -299 0
-249 -300 0
-249 -301 0
-249 -302 0
-249 -303 0
-249 -304 0
-249 -305 0
-249 -306 0
-249 -307 0
-249 -308 0
-249 -309 0
-249 -310 0
-249 -311 0
-249 -312 0
-250 -251 0
-250 -252 0
-250 -253 0
-250 -254 0
-250 -255 0
-250 -256 0
-250 -257 0
-250 -258 0
-250 -259 0
-250 -260 0
-250 -261 0
-250 -262 0
-250 -263 0
-250 -264 0
-250 -265 0
-250 -266 0
-250 -267 0
-250 -268 0
-250 -269 0
-250 -270 0
-250 -271 0
-250 -272 0
-250 -273 0
-250 -274 0
-250 -275 0
-250 -276 0
-250 -277 0
-250 -278 0
-250 -279 0
-250 -280 0
-250 -281 0
-250 -282 0
-250 -283 0
-250 -284 0
-250 -285 0
-250 -286 0
-250 -287 0
-250 -288 0
-250 -289 0
-250 -290 0
-250 -291 0
-250 -292 0
-250 -293 0
-250 -294 0
-250 -295 0
-250 -296 0
-250 -297 0
-250 -298 0
-250 -299 0
-250 -300 0
-250 -301 0
-250 -302 0
-250 -303 0
-250 -304 0
-250 -305 0
-250 -306 0
-250 -307 0
-250 -308 0
-250 -309 0
-250 -310 0
-250 -311 0
-250 -312 0
-251 -252 0
-251 -253 0
-251 -254 0
-251 -255 0
-251 -256 0
-251 -257 0
-251 -258 0
-251 -259 0
-251 -260 0
-251 -261 0
-251 -262 0
-251 -263 0
-251 -264 0
-251 -265 0
-251 -266 0
-251 -267 0
-251 -268 0
-251 -269 0
-251 -270 0
-251 -271 0
-251 -272 0
-251 -273 0
-251 -274 0
-251 -275 0
-251 -276 0
-251 -277 0
-251 -278 0
-251 -279 0
-251 -280 0
-251 -281 0
-251 -282 0
-251 -283 0
-251 -284 0
-251 -285 0
-251 -286 0
-251 -287 0
-251 -288 0
-251 -289 0
-251 -290 0
-251 -291 0
-251 -292 0
-251 -293 0
-251 -294 0
-251 -295 0
-251 -296 0
-251 -297 0
-251 -298 0
-251 -299 0
-251 -300 0
-251 -301 0
-251 -302 0
-251 -303 0
-251 -304 0
-251 -305 0
-251 -306 0
-251 -307 0
-251 -308 0
-251 -309 0
-251 -310 0
-251 -311 0
-251 -312 0
-252 -253 0
-252 -254 0
-252 -255 0
-252 -256 0
-252 -257 0
-252 -258 0
-252 -259 0
-252 -260 0
-252 -261 0
-252 -262 0
-252 -263 0
-252 -264 0
-252 -265 0
-252 -266 0
-252 -267 0
-252 -268 0
-252 -269 0
-252 -270 0
-252 -271 0
-252 -272 0
-252 -273 0
-252 -274 0
-252 -275 0
-252 -276 0
-252 -277 0
-252 -278 0
-252 -279 0
-252 -280 0
-252 -281 0
-252 -282 0
-252 -283 0
-252 -284 0
-252 -285 0
-252 -286 0
-252 -287 0
-252 -288 0
-252 -289 0
-252 -290 0
-252 -291 0
-252 -292 0
-252 -293 0
-252 -294 0
-252 -295 0
-252 -296 0
-252 -297 0
-252 -298 0
-252 -299 0
-252 -300 0
-252 -301 0
-252 -302 0
-252 -303 0
-252 -304 0
-252 -305 0
-252 -306 0
-252 -307 0
-252 -308 0
-252 -309 0
-252 -310 0
-252 -311 0
-252 -312 0
-253 -254 0
-253 -255 0
-253 -256 0
-253 -257 0
-253 -258 0
-253 -259 0
-253 -260 0
-253 -261 0
-253 -262 0
-253 -263 0
-253 -264 0
-253 -265 0
-253 -266 0
-253 -267 0
-253 -268 0
-253 -269 0
-253 -270 0
-253 -271 0
-253 -272 0
-253 -273 0
-253 -274 0
-253 -275 0
-253 -276 0
-253 -277 0
-253 -278 0
-253 -279 0
-253 -280 0
-253 -281 0
-253 -282 0
-253 -283 0
-253 -284 0
-253 -285 0
-253 -286 0
-253 -287 0
-253 -288 0
-253 -289 0
-253 -290 0
-253 -291 0
-253 -292 0
-253 -293 0
-253 -294 0
-253 -295 0
-253 -296 0
-253 -297 0
-253 -298 0
-253 -299 0
-253 -300 0
-253 -301 0
-253 -302 0
-253 -303 0
-253 -304 0
-253 -305 0
-253 -306 0
-253 -307 0
-253 -308 0
-253 -309 0
-253 -310 0
-253 -311 0
-253 -312 0
-254 -255 0
-254 -256 0
-254 -257 0
-254 -258 0
-254 -259 0
-254 -260 0
-254 -261 0
-254 -262 0
-254 -263 0
-254 -264 0
-254 -265 0
-254 -266 0
-254 -267 0
-254 -268 0
-254 -269 0
-254 -270 0
-254 -271 0
-254 -272 0
-254 -273 0
-254 -274 0
-254 -275 0
-254 -276 0
-254 -277 0
-254 -278 0
-254 -279 0
-254 -280 0
-254 -281 0
-254 -282 0
-254 -283 0
-254 -284 0
-254 -285 0
-254 -286 0
-254 -287 0
-254 -288 0
-254 -289 0
-254 -290 0
-254 -291 0
-254 -292 0
-254 -293 0
-254 -294 0
-254 -295 0
-254 -296 0
-254 -297 0
-254 -298 0
-254 -299 0
-254 -300 0
-254 -301 0
-254 -302 0
-254 -303 0
-254 -304 0
-254 -305 0
-254 -306 0
-254 -307 0
-254 -308 0
-254 -309 0
-254 -310 0
-254 -311 0
-254 -312 0
-255 -256 0
-255 -257 0
-255 -258 0
-255 -259 0
-255 -260 0
-255 -261 0
-255 -262 0
-255 -263 0
-255 -264 0
-255 -265 0
-255 -266 0
-255 -267 0
-255 -268 0
-255 -269 0
-255 -270 0
-255 -271 0
-255 -272 0
-255 -273 0
-255 -274 0
-255 -275 0
-255 -276 0
-255 -277 0
-255 -278 0
-255 -279 0
-255 -280 0
-255 -281 0
-255 -282 0
-255 -283 0
-255 -284 0
-255 -285 0
-255 -286 0
-255 -287 0
-255 -288 0
-255 -289 0
-255 -290 0
-255 -291 0
-255 -292 0
-255 -293 0
-255 -294 0
-255 -295 0
-255 -296 0
-255 -297 0
-255 -298 0
-255 -299 0
-255 -300 0
-255 -301 0
-255 -302 0
-255 -303 0
-255 -304 0
-255 -305 0
-255 -306 0
-255 -307 0
-255 -308 0
-255 -309 0
-255 -310 0
-255 -311 0
-255 -312 0
-256 -257 0
-256 -258 0
-256 -259 0
-256 -260 0
-256 -261 0
-256 -262 0
-256 -263 0
-256 -264 0
-256 -265 0
-256 -266 0
-256 -267 0
-256 -268 0
-256 -269 0
-256 -270 0
-256 -271 0
-256 -272 0
-256 -273 0
-256 -274 0
-256 -275 0
-256 -276 0
-256 -277 0
-256 -278 0
-256 -279 0
-256 -280 0
-256 -281 0
-256 -282 0
-256 -283 0
-256 -284 0
-256 -285 0
-256 -286 0
-256 -287 0
-256 -288 0
-256 -289 0
-256 -290 0
-256 -291 0
-256 -292 0
-256 -293 0
-256 -294 0
-256 -295 0
-256 -296 0
-256 -297 0
-256 -298 0
-256 -299 0
-256 -300 0
-256 -301 0
-256 -302 0
-256 -303 0
-256 -304 0
-256 -305 0
-256 -306 0
-256 -307 0
-256 -308 0
-256 -309 0
-256 -310 0
-256 -311 0
-256 -312 0
-257 -258 0
-257 -259 0
-257 -260 0
-257 -261 0
-257 -262 0
-257 -263 0
-257 -264 0
-257 -265 0
-257 -266 0
-257 -267 0
-257 -268 0
-257 -269 0
-257 -270 0
-257 -271 0
-257 -272 0
-257 -273 0
-257 -274 0
-257 -275 0
-257 -276 0
-257 -277 0
-257 -278 0
-257 -279 0
-257 -280 0
-257 -281 0
-257 -282 0
-257 -283 0
-257 -284 0
-257 -285 0
-257 -286 0
-257 -287 0
-257 -288 0
-257 -289 0
-257 -290 0
-257 -291 0
-257 -292 0
-257 -293 0
-257 -294 0
-257 -295 0
-257 -296 0
-257 -297 0
-257 -298 0
-257 -299 0
-257 -300 0
-257 -301 0
-257 -302 0
-257 -303 0
-257 -304 0
-257 -305 0
-257 -306 0
-257 -307 0
-257 -308 0
-257 -309 0
-257 -310 0
-257 -311 0
-257 -312 0
-258 -259 0
-258 -260 0
-258 -261 0
-258 -262 0
-258 -263 0
-258 -264 0
-258 -265 0
-258 -266 0
-258 -267 0
-258 -268 0
-258 -269 0
-258 -270 0
-258 -271 0
-258 -272 0
-258 -273 0
-258 -274 0
-258 -275 0
-258 -276 0
-258 -277 0
-258 -278 0
-258 -279 0
-258 -280 0
-258 -281 0
-258 -282 0
-258 -283 0
-258 -284 0
-258 -285 0
-258 -286 0
-258 -287 0
-258 -288 0
-258 -289 0
-258 -290 0
-258 -291 0
-258 -292 0
-258 -293 0
-258 -294 0
-258 -295 0
-258 -296 0
-258 -297 0
-258 -298 0
-258 -299 0
-258 -300 0
-258 -301 0
-258 -302 0
-258 -303 0
-258 -304 0
-258 -305 0
-258 -306 0
-258 -307 0
-258 -308 0
-258 -309 0
-258 -310 0
-258 -311 0
-258 -312 0
-259 -260 0
-259 -261 0
-259 -262 0
-259 -263 0
-259 -264 0
-259 -265 0
-259 -266 0
-259 -267 0
-259 -268 0
-259 -269 0
-259 -270 0
-259 -271 0
-259 -272 0
-259 -273 0
-259 -274 0
-259 -275 0
-259 -276 0
-259 -277 0
-259 -278 0
-259 -279 0
-259 -280 0
-259 -281 0
-259 -282 0
-259 -283 0
-259 -284 0
-259 -285 0
-259 -286 0
-259 -287 0
-259 -288 0
-259 -289 0
-259 -290 0
-259 -291 0
-259 -292 0
-259 -293 0
-259 -294 0
-259 -295 0
-259 -296 0
-259 -297 0
-259 -298 0
-259 -299 0
-259 -300 0
-259 -301 0
-259 -302 0
-259 -303 0
-259 -304 0
-259 -305 0
-259 -306 0
-259 -307 0
-259 -308 0
-259 -309 0
-259 -310 0
-259 -311 0
-259 -312 0
-260 -261 0
-260 -262 0
-260 -263 0
-260 -264 0
-260 -265 0
-260 -266 0
-260 -267 0
-260 -268 0
-260 -269 0
-260 -270 0
-260 -271 0
-260 -272 0
-260 -273 0
-260 -274 0
-260 -275 0
-260 -276 0
-260 -277 0
-260 -278 0
-260 -279 0
-260 -280 0
-260 -281 0
-260 -282 0
-260 -283 0
-260 -284 0
-260 -285 0
-260 -286 0
-260 -287 0
-260 -288 0
-260 -289 0
-260 -290 0
-260 -291 0
-260 -292 0
-260 -293 0
-260 -294 0
-260 -295 0
-260 -296 0
-260 -297 0
-260 -298 0
-260 -299 0
-260 -300 0
-260 -301 0
-260 -302 0
-260 -303 0
-260 -304 0
-260 -305 0
-260 -306 0
-260 -307 0
-260 -308 0
-260 -309 0
-260 -310 0
-260 -311 0
-260 -312 0
-261 -262 0
-261 -263 0
-261 -264 0
-261 -265 0
-261 -266 0
-261 -267 0
-261 -268 0
-261 -269 0
-261 -270 0
-261 -271 0
-261 -272 0
-261 -273 0
-261 -274 0
-261 -275 0
-261 -276 0
-261 -277 0
-261 -278 0
-261 -279 0
-261 -280 0
-261 -281 0
-261 -282 0
-261 -283 0
-261 -284 0
-261 -285 0
-261 -286 0
-261 -287 0
-261 -288 0
-261 -289 0
-261 -290 0
-261 -291 0
-261 -292 0
-261 -293 0
-261 -294 0
-261 -295 0
-261 -296 0
-261 -297 0
-261 -298 0
-261 -299 0
-261 -300 0
-261 -301 0
-261 -302 0
-261 -303 0
-261 -304 0
-261 -305 0
-261 -306 0
-261 -307 0
-261 -308 0
-261 -309 0
-261 -310 0
-261 -311 0
-261 -312 0
-262 -263 0
-262 -264 0
-262 -265 0
-262 -266 0
-262 -267 0
-262 -268 0
-262 -269 0
-262 -270 0
-262 -271 0
-262 -272 0
-262 -273 0
-262 -274 0
-262 -275 0
-262 -276 0
-262 -277 0
-262 -278 0
-262 -279 0
-262 -280 0
-262 -281 0
-262 -282 0
-262 -283 0
-262 -284 0
-262 -285 0
-262 -286 0
-262 -287 0
-262 -288 0
-262 -289 0
-262 -290 0
-262 -291 0
-262 -292 0
-262 -293 0
-262 -294 0
-262 -295 0
-262 -296 0
-262 -297 0
-262 -298 0
-262 -299 0
-262 -300 0
-262 -301 0
-262 -302 0
-262 -303 0
-262 -304 0
-262 -305 0
-262 -306 0
-262 -307 0
-262 -308 0
-262 -309 0
-262 -310 0
-262 -311 0
-262 -312 0
-263 -264 0
-263 -265 0
-263 -266 0
-263 -267 0
-263 -268 0
-263 -269 0
-263 -270 0
-263 -271 0
-263 -272 0
-263 -273 0
-263 -274 0
-263 -275 0
-263 -276 0
-263 -277 0
-263 -278 0
-263 -279 0
-263 -280 0
-263 -281 0
-263 -282 0
-263 -283 0
-263 -284 0
-263 -285 0
-263 -286 0
-263 -287 0
-263 -288 0
-263 -289 0
-263 -290 0
-263 -291 0
-263 -292 0
-263 -293 0
-263 -294 0
-263 -295 0
-263 -296 0
-263 -297 0
-263 -298 0
-263 -299 0
-263 -300 0
-263 -301 0
-263 -302 0
-263 -303 0
-263 -304 0
-263 -305 0
-263 -306 0
-263 -307 0
-263 -308 0
-263 -309 0
-263 -310 0
-263 -311 0
-263 -312 0
-264 -265 0
-264 -266 0
-264 -267 0
-264 -268 0
-264 -269 0
-264 -270 0
-264 -271 0
-264 -272 0
-264 -273 0
-264 -274 0
-264 -275 0
-264 -276 0
-264 -277 0
-264 -278 0
-264 -279 0
-264 -280 0
-264 -281 0
-264 -282 0
-264 -283 0
-264 -284 0
-264 -285 0
-264 -286 0
-264 -287 0
-264 -288 0
-264 -289 0
-264 -290 0
-264 -291 0
-264 -292 0
-264 -293 0
-264 -294 0
-264 -295 0
-264 -296 0
-264 -297 0
-264 -298 0
-264 -299 0
-264 -300 0
-264 -301 0
-264 -302 0
-264 -303 0
-264 -304 0
-264 -305 0
-264 -306 0
-264 -307 0
-264 -308 0
-264 -309 0
-264 -310 0
-264 -311 0
-264 -312 0
-265 -266 0
-265 -267 0
-265 -268 0
-265 -269 0
-265 -270 0
-265 -271 0
-265 -272 0
-265 -273 0
-265 -274 0
-265 -275 0
-265 -276 0
-265 -277 0
-265 -278 0
-265 -279 0
-265 -280 0
-265 -281 0
-265 -282 0
-265 -283 0
-265 -284 0
-265 -285 0
-265 -286 0
-265 -287 0
-265 -288 0
-265 -289 0
-265 -290 0
-265 -291 0
-265 -292 0
-265 -293 0
-265 -294 0
-265 -295 0
-265 -296 0
-265 -297 0
-265 -298 0
-265 -299 0
-265 -300 0
-265 -301 0
-265 -302 0
-265 -303 0
-265 -304 0
-265 -305 0
-265 -306 0
-265 -307 0
-265 -308 0
-265 -309 0
-265 -310 0
-265 -311 0
-265 -312 0
-266 -267 0
-266 -268 0
-266 -269 0
-266 -270 0
-266 -271 0
-266 -272 0
-266 -273 0
-266 -274 0
-266 -275 0
-266 -276 0
-266 -277 0
-266 -278 0
-266 -279 0
-266 -280 0
-266 -281 0
-266 -282 0
-266 -283 0
-266 -284 0
-266 -285 0
-266 -286 0
-266 -287 0
-266 -288 0
-266 -289 0
-266 -290 0
-266 -291 0
-266 -292 0
-266 -293 0
-266 -294 0
-266 -295 0
-266 -296 0
-266 -297 0
-266 -298 0
-266 -299 0
-266 -300 0
-266 -301 0
-266 -302 0
-266 -303 0
-266 -304 0
-266 -305 0
-266 -306 0
-266 -307 0
-266 -308 0
-266 -309 0
-266 -310 0
-266 -311 0
-266 -312 0
-267 -268 0
-267 -269 0
-267 -270 0
-267 -271 0
-267 -272 0
-267 -273 0
-267 -274 0
-267 -275 0
-267 -276 0
-267 -277 0
-267 -278 0
-267 -279 0
-267 -280 0
-267 -281 0
-267 -282 0
-267 -283 0
-267 -284 0
-267 -285 0
-267 -286 0
-267 -287 0
-267 -288 0
-267 -289 0
-267 -290 0
-267 -291 0
-267 -292 0
-267 -293 0
-267 -294 0
-267 -295 0
-267 -296 0
-267 -297 0
-267 -298 0
-267 -299 0
-267 -300 0
-267 -301 0
-267 -302 0
-267 -303 0
-267 -304 0
-267 -305 0
-267 -306 0
-267 -307 0
-267 -308 0
-267 -309 0
-267 -310 0
-267 -311 0
-267 -312 0
-268 -269 0
-268 -270 0
-268 -271 0
-268 -272 0
-268 -273 0
-268 -274 0
-268 -275 0
-268 -276 0
-268 -277 0
-268 -278 0
-268 -279 0
-268 -280 0
-268 -281 0
-268 -282 0
-268 -283 0
-268 -284 0
-268 -285 0
-268 -286 0
-268 -287 0
-268 -288 0
-268 -289 0
-268 -290 0
-268 -291 0
-268 -292 0
-268 -293 0
-268 -294 0
-268 -295 0
-268 -296 0
-268 -297 0
-268 -298 0
-268 -299 0
-268 -300 0
-268 -301 0
-268 -302 0
-268 -303 0
-268 -304 0
-268 -305 0
-268 -306 0
-268 -307 0
-268 -308 0
-268 -309 0
-268 -310 0
-268 -311 0
-268 -312 0
-269 -270 0
-269 -271 0
-269 -272 0
-269 -273 0
-269 -274 0
-269 -275 0
-269 -276 0
-269 -277 0
-269 -278 0
-269 -279 0
-269 -280 0
-269 -281 0
-269 -282 0
-269 -283 0
-269 -284 0
-269 -285 0
-269 -286 0
-269 -287 0
-269 -288 0
-269 -289 0
-269 -290 0
-269 -291 0
-269 -292 0
-269 -293 0
-269 -294 0
-269 -295 0
-269 -296 0
-269 -297 0
-269 -298 0
-269 -299 0
-269 -300 0
-269 -301 0
-269 -302 0
-269 -303 0
-269 -304 0
-269 -305 0
-269 -306 0
-269 -307 0
-269 -308 0
-269 -309 0
-269 -310 0
-269 -311 0
-269 -312 0
-270 -271 0
-270 -272 0
-270 -273 0
-270 -274 0
-270 -275 0
-270 -276 0
-270 -277 0
-270 -278 0
-270 -279 0
-270 -280 0
-270 -281 0
-270 -282 0
-270 -283 0
-270 -284 0
-270 -285 0
-270 -286 0
-270 -287 0
-270 -288 0
-270 -289 0
-270 -290 0
-270 -291 0
-270 -292 0
-270 -293 0
-270 -294 0
-270 -295 0
-270 -296 0
-270 -297 0
-270 -298 0
-270 -299 0
-270 -300 0
-270 -301 0
-270 -302 0
-270 -303 0
-270 -304 0
-270 -305 0
-270 -306 0
-270 -307 0
-270 -308 0
-270 -309 0
-270 -310 0
-270 -311 0
-270 -312 0
-271 -272 0
-271 -273 0
-271 -274 0
-271 -275 0
-271 -276 0
-271 -277 0
-271 -278 0
-271 -279 0
-271 -280 0
-271 -281 0
-271 -282 0
-271 -283 0
-271 -284 0
-271 -285 0
-271 -286 0
-271 -287 0
-271 -288 0
-271 -289 0
-271 -290 0
-271 -291 0
-271 -292 0
-271 -293 0
-271 -294 0
-271 -295 0
-271 -296 0
-271 -297 0
-271 -298 0
-271 -299 0
-271 -300 0
-271 -301 0
-271 -302 0
-271 -303 0
-271 -304 0
-271 -305 0
-271 -306 0
-271 -307 0
-271 -308 0
-271 -309 0
-271 -310 0
-271 -311 0
-271 -312 0
-272 -273 0
-272 -274 0
-272 -275 0
-272 -276 0
-272 -277 0
-272 -278 0
-272 -279 0
-272 -280 0
-272 -281 0
-272 -282 0
-272 -283 0
-272 -284 0
-272 -285 0
-272 -286 0
-272 -287 0
-272 -288 0
-272 -289 0
-272 -290 0
-272 -291 0
-272 -292 0
-272 -293 0
-272 -294 0
-272 -295 0
-272 -296 0
-272 -297 0
-272 -298 0
-272 -299 0
-272 -300 0
-272 -301 0
-272 -302 0
-272 -303 0
-272 -304 0
-272 -305 0
-272 -306 0
-272 -307 0
-272 -308 0
-272 -309 0
-272 -310 0
-272 -311 0
-272 -312 0
-273 -274 0
-273 -275 0
-273 -276 0
-273 -277 0
-273 -278 0
-273 -279 0
-273 -280 0
-273 -281 0
-273 -282 0
-273 -283 0
-273 -284 0
-273 -285 0
-273 -286 0
-273 -287 0
-273 -288 0
-273 -289 0
-273 -290 0
-273 -291 0
-273 -292 0
-273 -293 0
-273 -294 0
-273 -295 0
-273 -296 0
-273 -297 0
-273 -298 0
-273 -299 0
-273 -300 0
-273 -301 0
-273 -302 0
-273 -303 0
-273 -304 0
-273 -305 0
-273 -306 0
-273 -307 0
-273 -308 0
-273 -309 0
-273 -310 0
-273 -311 0
-273 -312 0
-274 -275 0
-274 -276 0
-274 -277 0
-274 -278 0
-274 -279 0
-274 -280 0
-274 -281 0
-274 -282 0
-274 -283 0
-274 -284 0
-274 -285 0
-274 -286 0
-274 -287 0
-274 -288 0
-274 -289 0
-274 -290 0
-274 -291 0
-274 -292 0
-274 -293 0
-274 -294 0
-274 -295 0
-274 -296 0
-274 -297 0
-274 -298 0
-274 -299 0
-274 -300 0
-274 -301 0
-274 -302 0
-274 -303 0
-274 -304 0
-274 -305 0
-274 -306 0
-274 -307 0
-274 -308 0
-274 -309 0
-274 -310 0
-274 -311 0
-274 -312 0
-275 -276 0
-275 -277 0
-275 -278 0
-275 -279 0
-275 -280 0
-275 -281 0
-275 -282 0
-275 -283 0
-275 -284 0
-275 -285 0
-275 -286 0
-275 -287 0
-275 -288 0
-275 -289 0
-275 -290 0
-275 -291 0
-275 -292 0
-275 -293 0
-275 -294 0
-275 -295 0
-275 -296 0
-275 -297 0
-275 -298 0
-275 -299 0
-275 -300 0
-275 -301 0
-275 -302 0
-275 -303 0
-275 -304 0
-275 -305 0
-275 -306 0
-275 -307 0
-275 -308 0
-275 -309 0
-275 -310 0
-275 -311 0
-275 -312 0
-276 -277 0
-276 -278 0
-276 -279 0
-276 -280 0
-276 -281 0
-276 -282 0
-276 -283 0
-276 -284 0
-276 -285 0
-276 -286 0
-276 -287 0
-276 -288 0
-276 -289 0
-276 -290 0
-276 -291 0
-276 -292 0
-276 -293 0
-276 -294 0
-276 -295 0
-276 -296 0
-276 -297 0
-276 -298 0
-276 -299 0
-276 -300 0
-276 -301 0
-276 -302 0
-276 -303 0
-276 -304 0
-276 -305 0
-276 -306 0
-276 -307 0
-276 -308 0
-276 -309 0
-276 -310 0
-276 -311 0
-276 -312 0
-277 -278 0
-277 -279 0
-277 -280 0
-277 -281 0
-277 -282 0
-277 -283 0
-277 -284 0
-277 -285 0
-277 -286 0
-277 -287 0
-277 -288 0
-277 -289 0
-277 -290 0
-277 -291 0
-277 -292 0
-277 -293 0
-277 -294 0
-277 -295 0
-277 -296 0
-277 -297 0
-277 -298 0
-277 -299 0
-277 -300 0
-277 -301 0
-277 -302 0
-277 -303 0
-277 -304 0
-277 -305 0
-277 -306 0
-277 -307 0
-277 -308 0
-277 -309 0
-277 -310 0
-277 -311 0
-277 -312 0
-278 -279 0
-278 -280 0
-278 -281 0
-278 -282 0
-278 -283 0
-278 -284 0
-278 -285 0
-278 -286 0
-278 -287 0
-278 -288 0
-278 -289 0
-278 -290 0
-278 -291 0
-278 -292 0
-278 -293 0
-278 -294 0
-278 -295 0
-278 -296 0
-278 -297 0
-278 -298 0
-278 -299 0
-278 -300 0
-278 -301 0
-278 -302 0
-278 -303 0
-278 -304 0
-278 -305 0
-278 -306 0
-278 -307 0
-278 -308 0
-278 -309 0
-278 -310 0
-278 -311 0
-278 -312 0
-279 -280 0
-279 -281 0
-279 -282 0
-279 -283 0
-279 -284 0
-279 -285 0
-279 -286 0
-279 -287 0
-279 -288 0
-279 -289 0
-279 -290 0
-279 -291 0
-279 -292 0
-279 -293 0
-279 -294 0
-279 -295 0
-279 -296 0
-279 -297 0
-279 -298 0
-279 -299 0
-279 -300 0
-279 -301 0
-279 -302 0
-279 -303 0
-279 -304 0
-279 -305 0
-279 -306 0
-279 -307 0
-279 -308 0
-279 -309 0
-279 -310 0
-279 -311 0
-279 -312 0
-280 -281 0
-280 -282 0
-280 -283 0
-280 -284 0
-280 -285 0
-280 -286 0
-280 -287 0
-280 -288 0
-280 -289 0
-280 -290 0
-280 -291 0
-280 -292 0
-280 -293 0
-280 -294 0
-280 -295 0
-280 -296 0
-280 -297 0
-280 -298 0
-280 -299 0
-280 -300 0
-280 -301 0
-280 -302 0
-280 -303 0
-280 -304 0
-280 -305 0
-280 -306 0
-280 -307 0
-280 -308 0
-280 -309 0
-280 -310 0
-280 -311 0
-280 -312 0
-281 -282 0
-281 -283 0
-281 -284 0
-281 -285 0
-281 -286 0
-281 -287 0
-281 -288 0
-281 -289 0
-281 -290 0
-281 -291 0
-281 -292 0
-281 -293 0
-281 -294 0
-281 -295 0
-281 -296 0
-281 -297 0
-281 -298 0
-281 -299 0
-281 -300 0
-281 -301 0
-281 -302 0
-281 -303 0
-281 -304 0
-281 -305 0
-281 -306 0
-281 -307 0
-281 -308 0
-281 -309 0
-281 -310 0
-281 -311 0
-281 -312 0
-282 -283 0
-282 -284 0
-282 -285 0
-282 -286 0
-282 -287 0
-282 -288 0
-282 -289 0
-282 -290 0
-282 -291 0
-282 -292 0
-282 -293 0
-282 -294 0
-282 -295 0
-282 -296 0
-282 -297 0
-282 -298 0
-282 -299 0
-282 -300 0
-282 -301 0
-282 -302 0
-282 -303 0
-282 -304 0
-282 -305 0
-282 -306 0
-282 -307 0
-282 -308 0
-282 -309 0
-282 -310 0
-282 -311 0
-282 -312 0
-283 -284 0
-283 -285 0
-283 -286 0
-283 -287 0
-283 -288 0
-283 -289 0
-283 -290 0
-283 -291 0
-283 -292 0
-283 -293 0
-283 -294 0
-283 -295 0
-283 -296 0
-283 -297 0
-283 -298 0
-283 -299 0
-283 -300 0
-283 -301 0
-283 -302 0
-283 -303 0
-283 -304 0
-283 -305 0
-283 -306 0
-283 -307 0
-283 -308 0
-283 -309 0
-283 -310 0
-283 -311 0
-283 -312 0
-284 -285 0
-284 -286 0
-284 -287 0
-284 -288 0
-284 -289 0
-284 -290 0
-284 -291 0
-284 -292 0
-284 -293 0
-284 -294 0
-284 -295 0
-284 -296 0
-284 -297 0
-284 -298 0
-284 -299 0
-284 -300 0
-284 -301 0
-284 -302 0
-284 -303 0
-284 -304 0
-284 -305 0
-284 -306 0
-284 -307 0
-284 -308 0
-284 -309 0
-284 -310 0
-284 -311 0
-284 -312 0
-285 -286 0
-285 -287 0
-285 -288 0
-285 -289 0
-285 -290 0
-285 -291 0
-285 -292 0
-285 -293 0
-285 -294 0
-285 -295 0
-285 -296 0
-285 -297 0
-285 -298 0
-285 -299 0
-285 -300 0
-285 -301 0
-285 -302 0
-285 -303 0
-285 -304 0
-285 -305 0
-285 -306 0
-285 -307 0
-285 -308 0
-285 -309 0
-285 -310 0
-285 -311 0
-285 -312 0
-286 -287 0
-286 -288 0
-286 -289 0
-286 -290 0
-286 -291 0
-286 -292 0
-286 -293 0
-286 -294 0
-286 -295 0
-286 -296 0
-286 -297 0
-286 -298 0
-286 -299 0
-286 -300 0
-286 -301 0
-286 -302 0
-286 -303 0
-286 -304 0
-286 -305 0
-286 -306 0
-286 -307 0
-286 -308 0
-286 -309 0
-286 -310 0
-286 -311 0
-286 -312 0
-287 -288 0
-287 -289 0
-287 -290 0
-287 -291 0
-287 -292 0
-287 -293 0
-287 -294 0
-287 -295 0
-287 -296 0
-287 -297 0
-287 -298 0
-287 -299 0
-287 -300 0
-287 -301 0
-287 -302 0
-287 -303 0
-287 -304 0
-287 -305 0
-287 -306 0
-287 -307 0
-287 -308 0
-287 -309 0
-287 -310 0
-287 -311 0
-287 -312 0
-288 -289 0
-288 -290 0
-288 -291 0
-288 -292 0
-288 -293 0
-288 -294 0
-288 -295 0
-288 -296 0
-288 -297 0
-288 -298 0
-288 -299 0
-288 -300 0
-288 -301 0
-288 -302 0
-288 -303 0
-288 -304 0
-288 -305 0
-288 -306 0
-288 -307 0
-288 -308 0
-288 -309 0
-288 -310 0
-288 -311 0
-288 -312 0
-289 -290 0
-289 -291 0
-289 -292 0
-289 -293 0
-289 -294 0
-289 -295 0
-289 -296 0
-289 -297 0
-289 -298 0
-289 -299 0
-289 -300 0
-289 -301 0
-289 -302 0
-289 -303 0
-289 -304 0
-289 -305 0
-289 -306 0
-289 -307 0
-289 -308 0
-289 -309 0
-289 -310 0
-289 -311 0
-289 -312 0
-290 -291 0
-290 -292 0
-290 -293 0
-290 -294 0
-290 -295 0
-290 -296 0
-290 -297 0
-290 -298 0
-290 -299 0
-290 -300 0
-290 -301 0
-290 -302 0
-290 -303 0
-290 -304 0
-290 -305 0
-290 -306 0
-290 -307 0
-290 -308 0
-290 -309 0
-290 -310 0
-290 -311 0
-290 -312 0
-291 -292 0
-291 -293 0
-291 -294 0
-291 -295 0
-291 -296 0
-291 -297 0
-291 -298 0
-291 -299 0
-291 -300 0
-291 -301 0
-291 -302 0
-291 -303 0
-291 -304 0
-291 -305 0
-291 -306 0
-291 -307 0
-291 -308 0
-291 -309 0
-291 -310 0
-291 -311 0
-291 -312 0
-292 -293 0
-292 -294 0
-292 -295 0
-292 -296 0
-292 -297 0
-292 -298 0
-292 -299 0
-292 -300 0
-292 -301 0
-292 -302 0
-292 -303 0
-292 -304 0
-292 -305 0
-292 -306 0
-292 -307 0
-292 -308 0
-292 -309 0
-292 -310 0
-292 -311 0
-292 -312 0
-293 -294 0
-293 -295 0
-293 -296 0
-293 -297 0
-293 -298 0
-293 -299 0
-293 -300 0
-293 -301 0
-293 -302 0
-293 -303 0
-293 -304 0
-293 -305 0
-293 -306 0
-293 -307 0
-293 -308 0
-293 -309 0
-293 -310 0
-293 -311 0
-293 -312 0
-294 -295 0
-294 -296 0
-294 -297 0
-294 -298 0
-294 -299 0
-294 -300 0
-294 -301 0
-294 -302 0
-294 -303 0
-294 -304 0
-294 -305 0
-294 -306 0
-294 -307 0
-294 -308 0
-294 -309 0
-294 -310 0
-294 -311 0
-294 -312 0
-295 -296 0
-295 -297 0
-295 -298 0
-295 -299 0
-295 -300 0
-295 -301 0
-295 -302 0
-295 -303 0
-295 -304 0
-295 -305 0
-295 -306 0
-295 -307 0
-295 -308 0
-295 -309 0
-295 -310 0
-295 -311 0
-295 -312 0
-296 -297 0
-296 -298 0
-296 -299 0
-296 -300 0
-296 -301 0
-296 -302 0
-296 -303 0
-296 -304 0
-296 -305 0
-296 -306 0
-296 -307 0
-296 -308 0
-296 -309 0
-296 -310 0
-296 -311 0
-296 -312 0
-297 -298 0
-297 -299 0
-297 -300 0
-297 -301 0
-297 -302 0
-297 -303 0
-297 -304 0
-297 -305 0
-297 -306 0
-297 -307 0
-297 -308 0
-297 -309 0
-297 -310 0
-297 -311 0
-297 -312 0
-298 -299 0
-298 -300 0
-298 -301 0
-298 -302 0
-298 -303 0
-298 -304 0
-298 -305 0
-298 -306 0
-298 -307 0
-298 -308 0
-298 -309 0
-298 -310 0
-298 -311 0
-298 -312 0
-299 -300 0
-299 -301 0
-299 -302 0
-299 -303 0
-299 -304 0
-299 -305 0
-299 -306 0
-299 -307 0
-299 -308 0
-299 -309 0
-299 -310 0
-299 -311 0
-299 -312 0
-300 -301 0
-300 -302 0
-300 -303 0
-300 -304 0
-300 -305 0
-300 -306 0
-300 -307 0
-300 -308 0
-300 -309 0
-300 -310 0
-300 -311 0
-300 -312 0
-301 -302 0
-301 -303 0
-301 -304 0
-301 -305 0
-301 -306 0
-301 -307 0
-301 -308 0
-301 -309 0
-301 -310 0
-301 -311 0
-301 -312 0
-302 -303 0
-302 -304 0
-302 -305 0
-302 -306 0
-302 -307 0
-302 -308 0
-302 -309 0
-302 -310 0
-302 -311 0
-302 -312 0
-303 -304 0
-303 -305 0
-303 -306 0
-303 -307 0
-303 -308 0
-303 -309 0
-303 -310 0
-303 -311 0
-303 -312 0
-304 -305 0
-304 -306 0
-304 -307 0
-304 -308 0
-304 -309 0
-304 -310 0
-304 -311 0
-304 -312 0
-305 -306 0
-305 -307 0
-305 -308 0
-305 -309 0
-305 -310 0
-305 -311 0
-305 -312 0
-306 -307 0
-306 -308 0
-306 -309 0
-306 -310 0
-306 -311 0
-306 -312 0
-307 -308 0
-307 -309 0
-307 -310 0
-307 -311 0
-307 -312 0
-308 -309 0
-308 -310 0
-308 -311 0
-308 -312 0
-309 -310 0
-309 -311 0
-309 -312 0
-310 -311 0
-310 -312 0
-311 -312 0
-229 -65 0
-229 -66 0
-229 -67 0
-229 68 0
-229 -69 0
-229 -70 0
-229 -71 0
-229 72 0
-229 -73 0
-229 -74 0
-229 -75 0
-229 76 0
-229 -77 0
-229 -78 0
-229 -79 0
-229 80 0
-229 -81 0
-229 -82 0
-229 -83 0
-229 84 0
-229 -85 0
-229 -86 0
-229 -87 0
-229 88 0
-229 -89 0
-229 -90 0
-229 -91 0
-229 92 0
-229 -93 0
-229 -94 0
-229 -95 0
-229 96 0
-230 -65 0
-230 66 0
-230 -67 0
-230 -68 0
-230 -69 0
-230 70 0
-230 -71 0
-230 -72 0
-230 -73 0
-230 74 0
-230 -75 0
-230 -76 0
-230 -77 0
-230 78 0
-230 -79 0
-230 -80 0
-230 -81 0
-230 82 0
-230 -83 0
-230 -84 0
-230 -85 0
-230 86 0
-230 -87 0
-230 -88 0
-230 -89 0
-230 90 0
-230 -91 0
-230 -92 0
-230 -93 0
-230 94 0
-230 -95 0
-230 -96 0
-231 -65 0
-231 -66 0
-231 67 0
-231 -68 0
-231 -69 0
-231 -70 0
-231 71 0
-231 -72 0
-231 -73 0
-231 -74 0
-231 75 0
-231 -76 0
-231 -77 0
-231 -78 0
-231 79 0
-231 -80 0
-231 -81 0
-231 -82 0
-231 83 0
-231 -84 0
-231 -85 0
-231 -86 0
-231 87 0
-231 -88 0
-231 -89 0
-231 -90 0
-231 91 0
-231 -92 0
-231 -93 0
-231 -94 0
-231 95 0
-231 -96 0
-232 65 0
-232 -66 0
-232 -67 0
-232 -68 0
-232 69 0
-232 -70 0
-232 -71 0
-232 -72 0
-232 73 0
-232 -74 0
-232 -75 0
-232 -76 0
-232 77 0
-232 -78 0
-232 -79 0
-232 -80 0
-232 81 0
-232 -82 0
-232 -83 0
-232 -84 0
-232 85 0
-232 -86 0
-232 -87 0
-232 -88 0
-232 89 0
-232 -90 0
-232 -91 0
-232 -92 0
-232 93 0
-232 -94 0
-232 -95 0
-232 -96 0
-233 -65 0
-233 -66 0
-233 -67 0
-233 -68 0
-233 -69 0
-233 70 0
-233 -71 0
-233 72 0
-233 -73 0
-233 -74 0
-233 -75 0
-233 -76 0
-233 -77 0
-233 78 0
-233 -79 0
-233 80 0
-233 -81 0
-233 -82 0
-233 -83 0
-233 -84 0
-233 -85 0
-233 86 0
-233 -87 0
-233 88 0
-233 -89 0
-233 -90 0
-233 -91 0
-233 -92 0
-233 -93 0
-233 94 0
-233 -95 0
-233 96 0
-234 -65 0
-234 66 0
-234 -67 0
-234 68 0
-234 -69 0
-234 -70 0
-234 -71 0
-234 -72 0
-234 -73 0
-234 74 0
-234 -75 0
-234 76 0
-234 -77 0
-234 -78 0
-234 -79 0
-234 -80 0
-234 -81 0
-234 82 0
-234 -83 0
-234 84 0
-234 -85 0
-234 -86 0
-234 -87 0
-234 -88 0
-234 -89 0
-234 90 0
-234 -91 0
-234 92 0
-234 -93 0
-234 -94 0
-234 -95 0
-234 -96 0
-235 -65 0
-235 -66 0
-235 -67 0
-235 -68 0
-235 69 0
-235 -70 0
-235 71 0
-235 -72 0
-235 -73 0
-235 -74 0
-235 -75 0
-235 -76 0
-235 77 0
-235 -78 0
-235 79 0
-235 -80 0
-235 -81 0
-235 -82 0
-235 -83 0
-235 -84 0
-235 85 0
-235 -86 0
-235 87 0
-235 -88 0
-235 -89 0
-235 -90 0
-235 -91 0
-235 -92 0
-235 93 0
-235 -94 0
-235 95 0
-235 -96 0
-236 65 0
-236 -66 0
-236 67 0
-236 -68 0
-236 -69 0
-236 -70 0
-236 -71 0
-236 -72 0
-236 73 0
-236 -74 0
-236 75 0
-236 -76 0
-236 -77 0
-236 -78 0
-236 -79 0
-236 -80 0
-236 81 0
-236 -82 0
-236 83 0
-236 -84 0
-236 -85 0
-236 -86 0
-236 -87 0
-236 -88 0
-236 89 0
-236 -90 0
-236 91 0
-236 -92 0
-236 -93 0
-236 -94 0
-236 -95 0
-236 -96 0
-237 -65 0
-237 -66 0
-237 -67 0
-237 -68 0
-237 -69 0
-237 -70 0
-237 -71 0
-237 -72 0
-237 -73 0
-237 74 0
-237 -75 0
-237 76 0
-237 -77 0
-237 78 0
-237 -79 0
-237 80 0
-237 -81 0
-237 -82 0
-237 -83 0
-237 -84 0
-237 -85 0
-237 -86 0
-237 -87 0
-237 -88 0
-237 -89 0
-237 90 0
-237 -91 0
-237 92 0
-237 -93 0
-237 94 0
-237 -95 0
-237 96 0
-238 -65 0
-238 66 0
-238 -67 0
-238 68 0
-238 -69 0
-238 70 0
-238 -71 0
-238 72 0
-238 -73 0
-238 -74 0
-238 -75 0
-238 -76 0
-238 -77 0
-238 -78 0
-238 -79 0
-238 -80 0
-238 -81 0
-238 82 0
-238 -83 0
-238 84 0
-238 -85 0
-238 86 0
-238 -87 0
-238 88 0
-238 -89 0
-238 -90 0
-238 -91 0
-238 -92 0
-238 -93 0
-238 -94 0
-238 -95 0
-238 -96 0
-239 -65 0
-239 -66 0
-239 -67 0
-239 -68 0
-239 -69 0
-239 -70 0
-239 -71 0
-239 -72 0
-239 73 0
-239 -74 0
-239 75 0
-239 -76 0
-239 77 0
-239 -78 0
-239 79 0
-239 -80 0
-239 -81 0
-239 -82 0
-239 -83 0
-239 -84 0
-239 -85 0
-239 -86 0
-239 -87 0
-239 -88 0
-239 89 0
-239 -90 0
-239 91 0
-239 -92 0
-239 93 0
-239 -94 0
-239 95 0
-239 -96 0
-240 65 0
-240 -66 0
-240 67 0
-240 -68 0
-240 69 0
-240 -70 0
-240 71 0
-240 -72 0
-240 -73 0
-240 -74 0
-240 -75 0
-240 -76 0
-240 -77 0
-240 -78 0
-240 -79 0
-240 -80 0
-240 81 0
-240 -82 0
-240 83 0
-240 -84 0
-240 85 0
-240 -86 0
-240 87 0
-240 -88 0
-240 -89 0
-240 -90 0
-240 -91 0
-240 -92 0
-240 -93 0
-240 -94 0
-240 -95 0
-240 -96 0
-241 -65 0
-241 -66 0
-241 -67 0
-241 -68 0
-241 -69 0
-241 -70 0
-241 -71 0
-241 -72 0
-241 -73 0
-241 -74 0
-241 -75 0
-241 -76 0
-241 -77 0
-241 -78 0
-241 -79 0
-241 -80 0
-241 -81 0
-241 82 0
-241 -83 0
-241 84 0
-241 -85 0
-241 86 0
-241 -87 0
-241 88 0
-241 -89 0
-241 90 0
-241 -91 0
-241 92 0
-241 -93 0
-241 94 0
-241 -95 0
-241 96 0
-242 -65 0
-242 66 0
-242 -67 0
-242 68 0
-242 -69 0
-242 70 0
-242 -71 0
-242 72 0
-242 -73 0
-242 74 0
-242 -75 0
-242 76 0
-242 -77 0
-242 78 0
-242 -79 0
-242 80 0
-242 -81 0
-242 -82 0
-242 -83 0
-242 -84 0
-242 -85 0
-242 -86 0
-242 -87 0
-242 -88 0
-242 -89 0
-242 -90 0
-242 -91 0
-242 -92 0
-242 -93 0
-242 -94 0
-242 -95 0
-242 -96 0
-243 -65 0
-243 -66 0
-243 -67 0
-243 -68 0
-243 -69 0
-243 -70 0
-243 -71 0
-243 -72 0
-243 -73 0
-243 -74 0
-243 -75 0
-243 -76 0
-243 -77 0
-243 -78 0
-243 -79 0
-243 -80 0
-243 81 0
-243 -82 0
-243 83 0
-243 -84 0
-243 85 0
-243 -86 0
-243 87 0
-243 -88 0
-243 89 0
-243 -90 0
-243 91 0
-243 -92 0
-243 93 0
-243 -94 0
-243 95 0
-243 -96 0
-244 65 0
-244 -66 0
-244 67 0
-244 -68 0
-244 69 0
-244 -70 0
-244 71 0
-244 -72 0
-244 73 0
-244 -74 0
-244 75 0
-244 -76 0
-244 77 0
-244 -78 0
-244 79 0
-244 -80 0
-244 -81 0
-244 -82 0
-244 -83 0
-244 -84 0
-244 -85 0
-244 -86 0
-244 -87 0
-244 -88 0
-244 -89 0
-244 -90 0
-244 -91 0
-244 -92 0
-244 -93 0
-244 -94 0
-244 -95 0
-244 -96 0
-245 -65 0
-245 -66 2 0
-245 66 -2 0
-245 -67 0
-245 -68 4 0
-245 68 -4 0
-245 -69 0
-245 -70 6 0
-245 70 -6 0
-245 -71 0
-245 -72 8 0
-245 72 -8 0
-245 -73 0
-245 -74 10 0
-245 74 -10 0
-245 -75 0
-245 -76 12 0
-245 76 -12 0
-245 -77 0
-245 -78 14 0
-245 78 -14 0
-245 -79 0
-245 -80 16 0
-245 80 -16 0
-245 -81 0
-245 -82 18 0
-245 82 -18 0
-245 -83 0
-245 -84 20 0
-245 84 -20 0
-245 -85 0
-245 -86 22 0
-245 86 -22 0
-245 -87 0
-245 -88 24 0
-245 88 -24 0
-245 -89 0
-245 -90 26 0
-245 90 -26 0
-245 -91 0
-245 -92 28 0
-245 92 -28 0
-245 -93 0
-245 -94 30 0
-245 94 -30 0
-245 -95 0
-245 -96 32 0
-245 96 -32 0
-246 -65 0
-246 -66 -2 0
-246 66 2 0
-246 -67 0
-246 -68 -4 0
-246 68 4 0
-246 -69 0
-246 -70 -6 0
-246 70 6 0
-246 -71 0
-246 -72 -8 0
-246 72 8 0
-246 -73 0
-246 -74 -10 0
-246 74 10 0
-246 -75 0
-246 -76 -12 0
-246 76 12 0
-246 -77 0
-246 -78 -14 0
-246 78 14 0
-246 -79 0
-246 -80 -16 0
-246 80 16 0
-246 -81 0
-246 -82 -18 0
-246 82 18 0
-246 -83 0
-246 -84 -20 0
-246 84 20 0
-246 -85 0
-246 -86 -22 0
-246 86 22 0
-246 -87 0
-246 -88 -24 0
-246 88 24 0
-246 -89 0
-246 -90 -26 0
-246 90 26 0
-246 -91 0
-246 -92 -28 0
-246 92 28 0
-246 -93 0
-246 -94 -30 0
-246 94 30 0
-246 -95 0
-246 -96 -32 0
-246 96 32 0
-247 -65 1 0
-247 65 -1 0
-247 -66 0
-247 -67 3 0
-247 67 -3 0
-247 -68 0
-247 -69 5 0
-247 69 -5 0
-247 -70 0
-247 -71 7 0
-247 71 -7 0
-247 -72 0
-247 -73 9 0
-247 73 -9 0
-247 -74 0
-247 -75 11 0
-247 75 -11 0
-247 -76 0
-247 -77 13 0
-247 77 -13 0
-247 -78 0
-247 -79 15 0
-247 79 -15 0
-247 -80 0
-247 -81 17 0
-247 81 -17 0
-247 -82 0
-247 -83 19 0
-247 83 -19 0
-247 -84 0
-247 -85 21 0
-247 85 -21 0
-247 -86 0
-247 -87 23 0
-247 87 -23 0
-247 -88 0
-247 -89 25 0
-247 89 -25 0
-247 -90 0
-247 -91 27 0
-247 91 -27 0
-247 -92 0
-247 -93 29 0
-247 93 -29 0
-247 -94 0
-247 -95 31 0
-247 95 -31 0
-247 -96 0
-248 -65 -1 0
-248 65 1 0
-248 -66 0
-248 -67 -3 0
-248 67 3 0
-248 -68 0
-248 -69 -5 0
-248 69 5 0
-248 -70 0
-248 -71 -7 0
-248 71 7 0
-248 -72 0
-248 -73 -9 0
-248 73 9 0
-248 -74 0
-248 -75 -11 0
-248 75 11 0
-248 -76 0
-248 -77 -13 0
-248 77 13 0
-248 -78 0
-248 -79 -15 0
-248 79 15 0
-248 -80 0
-248 -81 -17 0
-248 81 17 0
-248 -82 0
-248 -83 -19 0
-248 83 19 0
-248 -84 0
-248 -85 -21 0
-248 85 21 0
-248 -86 0
-248 -87 -23 0
-248 87 23 0
-248 -88 0
-248 -89 -25 0
-248 89 25 0
-248 -90 0
-248 -91 -27 0
-248 91 27 0
-248 -92 0
-248 -93 -29 0
-248 93 29 0
-248 -94 0
-248 -95 -31 0
-248 95 31 0
-248 -96 0
-249 -65 0
-249 -66 34 0
-249 66 -34 0
-249 -67 0
-249 -68 36 0
-249 68 -36 0
-249 -69 0
-249 -70 38 0
-249 70 -38 0
-249 -71 0
-249 -72 40 0
-249 72 -40 0
-249 -73 0
-249 -74 42 0
-249 74 -42 0
-249 -75 0
-249 -76 44 0
-249 76 -44 0
-249 -77 0
-249 -78 46 0
-249 78 -46 0
-249 -79 0
-249 -80 48 0
-249 80 -48 0
-249 -81 0
-249 -82 50 0
-249 82 -50 0
-249 -83 0
-249 -84 52 0
-249 84 -52 0
-249 -85 0
-249 -86 54 0
-249 86 -54 0
-249 -87 0
-249 -88 56 0
-249 88 -56 0
-249 -89 0
-249 -90 58 0
-249 90 -58 0
-249 -91 0
-249 -92 60 0
-249 92 -60 0
-249 -93 0
-249 -94 62 0
-249 94 -62 0
-249 -95 0
-249 -96 64 0
-249 96 -64 0
-250 -65 0
-250 -66 -34 0
-250 66 34 0
-250 -67 0
-250 -68 -36 0
-250 68 36 0
-250 -69 0
-250 -70 -38 0
-250 70 38 0
-250 -71 0
-250 -72 -40 0
-250 72 40 0
-250 -73 0
-250 -74 -42 0
-250 74 42 0
-250 -75 0
-250 -76 -44 0
-250 76 44 0
-250 -77 0
-250 -78 -46 0
-250 78 46 0
-250 -79 0
-250 -80 -48 0
-250 80 48 0
-250 -81 0
-250 -82 -50 0
-250 82 50 0
-250 -83 0
-250 -84 -52 0
-250 84 52 0
-250 -85 0
-250 -86 -54 0
-250 86 54 0
-250 -87 0
-250 -88 -56 0
-250 88 56 0
-250 -89 0
-250 -90 -58 0
-250 90 58 0
-250 -91 0
-250 -92 -60 0
-250 92 60 0
-250 -93 0
-250 -94 -62 0
-250 94 62 0
-250 -95 0
-250 -96 -64 0
-250 96 64 0
-251 -65 33 0
-251 65 -33 0
-251 -66 0
-251 -67 35 0
-251 67 -35 0
-251 -68 0
-251 -69 37 0
-251 69 -37 0
-251 -70 0
-251 -71 39 0
-251 71 -39 0
-251 -72 0
-251 -73 41 0
-251 73 -41 0
-251 -74 0
-251 -75 43 0
-251 75 -43 0
-251 -76 0
-251 -77 45 0
-251 77 -45 0
-251 -78 0
-251 -79 47 0
-251 79 -47 0
-251 -80 0
-251 -81 49 0
-251 81 -49 0
-251 -82 0
-251 -83 51 0
-251 83 -51 0
-251 -84 0
-251 -85 53 0
-251 85 -53 0
-251 -86 0
-251 -87 55 0
-251 87 -55 0
-251 -88 0
-251 -89 57 0
-251 89 -57 0
-251 -90 0
-251 -91 59 0
-251 91 -59 0
-251 -92 0
-251 -93 61 0
-251 93 -61 0
-251 -94 0
-251 -95 63 0
-251 95 -63 0
-251 -96 0
-252 -65 -33 0
-252 65 33 0
-252 -66 0
-252 -67 -35 0
-252 67 35 0
-252 -68 0
-252 -69 -37 0
-252 69 37 0
-252 -70 0
-252 -71 -39 0
-252 71 39 0
-252 -72 0
-252 -73 -41 0
-252 73 41 0
-252 -74 0
-252 -75 -43 0
-252 75 43 0
-252 -76 0
-252 -77 -45 0
-252 77 45 0
-252 -78 0
-252 -79 -47 0
-252 79 47 0
-252 -80 0
-252 -81 -49 0
-252 81 49 0
-252 -82 0
-252 -83 -51 0
-252 83 51 0
-252 -84 0
-252 -85 -53 0
-252 85 53 0
-252 -86 0
-252 -87 -55 0
-252 87 55 0
-252 -88 0
-252 -89 -57 0
-252 89 57 0
-252 -90 0
-252 -91 -59 0
-252 91 59 0
-252 -92 0
-252 -93 -61 0
-252 93 61 0
-252 -94 0
-252 -95 -63 0
-252 95 63 0
-252 -96 0
-253 -65 0
-253 -66 0
-253 -67 0
-253 -68 0
-253 -69 0
-253 -70 0
-253 71 0
-253 72 0
-253 -73 0
-253 -74 0
-253 -75 0
-253 -76 0
-253 -77 0
-253 -78 0
-253 79 0
-253 80 0
-253 -81 0
-253 -82 0
-253 -83 0
-253 -84 0
-253 -85 0
-253 -86 0
-253 87 0
-253 88 0
-253 -89 0
-253 -90 0
-253 -91 0
-253 -92 0
-253 -93 0
-253 -94 0
-253 95 0
-253 96 0
-254 -65 0
-254 -66 0
-254 67 0
-254 68 0
-254 -69 0
-254 -70 0
-254 -71 0
-254 -72 0
-254 -73 0
-254 -74 0
-254 75 0
-254 76 0
-254 -77 0
-254 -78 0
-254 -79 0
-254 -80 0
-254 -81 0
-254 -82 0
-254 83 0
-254 84 0
-254 -85 0
-254 -86 0
-254 -87 0
-254 -88 0
-254 -89 0
-254 -90 0
-254 91 0
-254 92 0
-254 -93 0
-254 -94 0
-254 -95 0
-254 -96 0
-255 -65 0
-255 -66 0
-255 -67 0
-255 -68 0
-255 69 0
-255 70 0
-255 -71 0
-255 -72 0
-255 -73 0
-255 -74 0
-255 -75 0
-255 -76 0
-255 77 0
-255 78 0
-255 -79 0
-255 -80 0
-255 -81 0
-255 -82 0
-255 -83 0
-255 -84 0
-255 85 0
-255 86 0
-255 -87 0
-255 -88 0
-255 -89 0
-255 -90 0
-255 -91 0
-255 -92 0
-255 93 0
-255 94 0
-255 -95 0
-255 -96 0
-256 65 0
-256 66 0
-256 -67 0
-256 -68 0
-256 -69 0
-256 -70 0
-256 -71 0
-256 -72 0
-256 73 0
-256 74 0
-256 -75 0
-256 -76 0
-256 -77 0
-256 -78 0
-256 -79 0
-256 -80 0
-256 81 0
-256 82 0
-256 -83 0
-256 -84 0
-256 -85 0
-256 -86 0
-256 -87 0
-256 -88 0
-256 89 0
-256 90 0
-256 -91 0
-256 -92 0
-256 -93 0
-256 -94 0
-256 -95 0
-256 -96 0
-257 -65 0
-257 -66 0
-257 -67 0
-257 -68 0
-257 -69 0
-257 -70 0
-257 -71 0
-257 -72 0
-257 -73 0
-257 -74 0
-257 75 0
-257 76 0
-257 -77 0
-257 -78 0
-257 79 0
-257 80 0
-257 -81 0
-257 -82 0
-257 -83 0
-257 -84 0
-257 -85 0
-257 -86 0
-257 -87 0
-257 -88 0
-257 -89 0
-257 -90 0
-257 91 0
-257 92 0
-257 -93 0
-257 -94 0
-257 95 0
-257 96 0
-258 -65 0
-258 -66 0
-258 67 0
-258 68 0
-258 -69 0
-258 -70 0
-258 71 0
-258 72 0
-258 -73 0
-258 -74 0
-258 -75 0
-258 -76 0
-258 -77 0
-258 -78 0
-258 -79 0
-258 -80 0
-258 -81 0
-258 -82 0
-258 83 0
-258 84 0
-258 -85 0
-258 -86 0
-258 87 0
-258 88 0
-258 -89 0
-258 -90 0
-258 -91 0
-258 -92 0
-258 -93 0
-258 -94 0
-258 -95 0
-258 -96 0
-259 -65 0
-259 -66 0
-259 -67 0
-259 -68 0
-259 -69 0
-259 -70 0
-259 -71 0
-259 -72 0
-259 73 0
-259 74 0
-259 -75 0
-259 -76 0
-259 77 0
-259 78 0
-259 -79 0
-259 -80 0
-259 -81 0
-259 -82 0
-259 -83 0
-259 -84 0
-259 -85 0
-259 -86 0
-259 -87 0
-259 -88 0
-259 89 0
-259 90 0
-259 -91 0
-259 -92 0
-259 93 0
-259 94 0
-259 -95 0
-259 -96 0
-260 65 0
-260 66 0
-260 -67 0
-260 -68 0
-260 69 0
-260 70 0
-260 -71 0
-260 -72 0
-260 -73 0
-260 -74 0
-260 -75 0
-260 -76 0
-260 -77 0
-260 -78 0
-260 -79 0
-260 -80 0
-260 81 0
-260 82 0
-260 -83 0
-260 -84 0
-260 85 0
-260 86 0
-260 -87 0
-260 -88 0
-260 -89 0
-260 -90 0
-260 -91 0
-260 -92 0
-260 -93 0
-260 -94 0
-260 -95 0
-260 -96 0
-261 -65 0
-261 -66 0
-261 -67 0
-261 -68 0
-261 -69 0
-261 -70 0
-261 -71 0
-261 -72 0
-261 -73 0
-261 -74 0
-261 -75 0
-261 -76 0
-261 -77 0
-261 -78 0
-261 -79 0
-261 -80 0
-261 -81 0
-261 -82 0
-261 83 0
-261 84 0
-261 -85 0
-261 -86 0
-261 87 0
-261 88 0
-261 -89 0
-261 -90 0
-261 91 0
-261 92 0
-261 -93 0
-261 -94 0
-261 95 0
-261 96 0
-262 -65 0
-262 -66 0
-262 67 0
-262 68 0
-262 -69 0
-262 -70 0
-262 71 0
-262 72 0
-262 -73 0
-262 -74 0
-262 75 0
-262 76 0
-262 -77 0
-262 -78 0
-262 79 0
-262 80 0
-262 -81 0
-262 -82 0
-262 -83 0
-262 -84 0
-262 -85 0
-262 -86 0
-262 -87 0
-262 -88 0
-262 -89 0
-262 -90 0
-262 -91 0
-262 -92 0
-262 -93 0
-262 -94 0
-262 -95 0
-262 -96 0
-263 -65 0
-263 -66 0
-263 -67 0
-263 -68 0
-263 -69 0
-263 -70 0
-263 -71 0
-263 -72 0
-263 -73 0
-263 -74 0
-263 -75 0
-263 -76 0
-263 -77 0
-263 -78 0
-263 -79 0
-263 -80 0
-263 81 0
-263 82 0
-263 -83 0
-263 -84 0
-263 85 0
-263 86 0
-263 -87 0
-263 -88 0
-263 89 0
-263 90 0
-263 -91 0
-263 -92 0
-263 93 0
-263 94 0
-263 -95 0
-263 -96 0
-264 65 0
-264 66 0
-264 -67 0
-264 -68 0
-264 69 0
-264 70 0
-264 -71 0
-264 -72 0
-264 73 0
-264 74 0
-264 -75 0
-264 -76 0
-264 77 0
-264 78 0
-264 -79 0
-264 -80 0
-264 -81 0
-264 -82 0
-264 -83 0
-264 -84 0
-264 -85 0
-264 -86 0
-264 -87 0
-264 -88 0
-264 -89 0
-264 -90 0
-264 -91 0
-264 -92 0
-264 -93 0
-264 -94 0
-264 -95 0
-264 -96 0
-265 -65 0
-265 -66 0
-265 -67 3 0
-265 67 -3 0
-265 -68 4 0
-265 68 -4 0
-265 -69 0
-265 -70 0
-265 -71 7 0
-265 71 -7 0
-265 -72 8 0
-265 72 -8 0
-265 -73 0
-265 -74 0
-265 -75 11 0
-265 75 -11 0
-265 -76 12 0
-265 76 -12 0
-265 -77 0
-265 -78 0
-265 -79 15 0
-265 79 -15 0
-265 -80 16 0
-265 80 -16 0
-265 -81 0
-265 -82 0
-265 -83 19 0
-265 83 -19 0
-265 -84 20 0
-265 84 -20 0
-265 -85 0
-265 -86 0
-265 -87 23 0
-265 87 -23 0
-265 -88 24 0
-265 88 -24 0
-265 -89 0
-265 -90 0
-265 -91 27 0
-265 91 -27 0
-265 -92 28 0
-265 92 -28 0
-265 -93 0
-265 -94 0
-265 -95 31 0
-265 95 -31 0
-265 -96 32 0
-265 96 -32 0
-266 -65 0
-266 -66 0
-266 -67 -3 0
-266 67 3 0
-266 -68 -4 0
-266 68 4 0
-266 -69 0
-266 -70 0
-266 -71 -7 0
-266 71 7 0
-266 -72 -8 0
-266 72 8 0
-266 -73 0
-266 -74 0
-266 -75 -11 0
-266 75 11 0
-266 -76 -12 0
-266 76 12 0
-266 -77 0
-266 -78 0
-266 -79 -15 0
-266 79 15 0
-266 -80 -16 0
-266 80 16 0
-266 -81 0
-266 -82 0
-266 -83 -19 0
-266 83 19 0
-266 -84 -20 0
-266 84 20 0
-266 -85 0
-266 -86 0
-266 -87 -23 0
-266 87 23 0
-266 -88 -24 0
-266 88 24 0
-266 -89 0
-266 -90 0
-266 -91 -27 0
-266 91 27 0
-266 -92 -28 0
-266 92 28 0
-266 -93 0
-266 -94 0
-266 -95 -31 0
-266 95 31 0
-266 -96 -32 0
-266 96 32 0
-267 -65 1 0
-267 65 -1 0
-267 -66 2 0
-267 66 -2 0
-267 -67 0
-267 -68 0
-267 -69 5 0
-267 69 -5 0
-267 -70 6 0
-267 70 -6 0
-267 -71 0
-267 -72 0
-267 -73 9 0
-267 73 -9 0
-267 -74 10 0
-267 74 -10 0
-267 -75 0
-267 -76 0
-267 -77 13 0
-267 77 -13 0
-267 -78 14 0
-267 78 -14 0
-267 -79 0
-267 -80 0
-267 -81 17 0
-267 81 -17 0
-267 -82 18 0
-267 82 -18 0
-267 -83 0
-267 -84 0
-267 -85 21 0
-267 85 -21 0
-267 -86 22 0
-267 86 -22 0
-267 -87 0
-267 -88 0
-267 -89 25 0
-267 89 -25 0
-267 -90 26 0
-267 90 -26 0
-267 -91 0
-267 -92 0
-267 -93 29 0
-267 93 -29 0
-267 -94 30 0
-267 94 -30 0
-267 -95 0
-267 -96 0
-268 -65 -1 0
-268 65 1 0
-268 -66 -2 0
-268 66 2 0
-268 -67 0
-268 -68 0
-268 -69 -5 0
-268 69 5 0
-268 -70 -6 0
-268 70 6 0
-268 -71 0
-268 -72 0
-268 -73 -9 0
-268 73 9 0
-268 -74 -10 0
-268 74 10 0
-268 -75 0
-268 -76 0
-268 -77 -13 0
-268 77 13 0
-268 -78 -14 0
-268 78 14 0
-268 -79 0
-268 -80 0
-268 -81 -17 0
-268 81 17 0
-268 -82 -18 0
-268 82 18 0
-268 -83 0
-268 -84 0
-268 -85 -21 0
-268 85 21 0
-268 -86 -22 0
-268 86 22 0
-268 -87 0
-268 -88 0
-268 -89 -25 0
-268 89 25 0
-268 -90 -26 0
-268 90 26 0
-268 -91 0
-268 -92 0
-268 -93 -29 0
-268 93 29 0
-268 -94 -30 0
-268 94 30 0
-268 -95 0
-268 -96 0
-269 -65 0
-269 -66 0
-269 -67 35 0
-269 67 -35 0
-269 -68 36 0
-269 68 -36 0
-269 -69 0
-269 -70 0
-269 -71 39 0
-269 71 -39 0
-269 -72 40 0
-269 72 -40 0
-269 -73 0
-269 -74 0
-269 -75 43 0
-269 75 -43 0
-269 -76 44 0
-269 76 -44 0
-269 -77 0
-269 -78 0
-269 -79 47 0
-269 79 -47 0
-269 -80 48 0
-269 80 -48 0
-269 -81 0
-269 -82 0
-269 -83 51 0
-269 83 -51 0
-269 -84 52 0
-269 84 -52 0
-269 -85 0
-269 -86 0
-269 -87 55 0
-269 87 -55 0
-269 -88 56 0
-269 88 -56 0
-269 -89 0
-269 -90 0
-269 -91 59 0
-269 91 -59 0
-269 -92 60 0
-269 92 -60 0
-269 -93 0
-269 -94 0
-269 -95 63 0
-269 95 -63 0
-269 -96 64 0
-269 96 -64 0
-270 -65 0
-270 -66 0
-270 -67 -35 0
-270 67 35 0
-270 -68 -36 0
-270 68 36 0
-270 -69 0
-270 -70 0
-270 -71 -39 0
-270 71 39 0
-270 -72 -40 0
-270 72 40 0
-270 -73 0
-270 -74 0
-270 -75 -43 0
-270 75 43 0
-270 -76 -44 0
-270 76 44 0
-270 -77 0
-270 -78 0
-270 -79 -47 0
-270 79 47 0
-270 -80 -48 0
-270 80 48 0
-270 -81 0
-270 -82 0
-270 -83 -51 0
-270 83 51 0
-270 -84 -52 0
-270 84 52 0
-270 -85 0
-270 -86 0
-270 -87 -55 0
-270 87 55 0
-270 -88 -56 0
-270 88 56 0
-270 -89 0
-270 -90 0
-270 -91 -59 0
-270 91 59 0
-270 -92 -60 0
-270 92 60 0
-270 -93 0
-270 -94 0
-270 -95 -63 0
-270 95 63 0
-270 -96 -64 0
-270 96 64 0
-271 -65 33 0
-271 65 -33 0
-271 -66 34 0
-271 66 -34 0
-271 -67 0
-271 -68 0
-271 -69 37 0
-271 69 -37 0
-271 -70 38 0
-271 70 -38 0
-271 -71 0
-271 -72 0
-271 -73 41 0
-271 73 -41 0
-271 -74 42 0
-271 74 -42 0
-271 -75 0
-271 -76 0
-271 -77 45 0
-271 77 -45 0
-271 -78 46 0
-271 78 -46 0
-271 -79 0
-271 -80 0
-271 -81 49 0
-271 81 -49 0
-271 -82 50 0
-271 82 -50 0
-271 -83 0
-271 -84 0
-271 -85 53 0
-271 85 -53 0
-271 -86 54 0
-271 86 -54 0
-271 -87 0
-271 -88 0
-271 -89 57 0
-271 89 -57 0
-271 -90 58 0
-271 90 -58 0
-271 -91 0
-271 -92 0
-271 -93 61 0
-271 93 -61 0
-271 -94 62 0
-271 94 -62 0
-271 -95 0
-271 -96 0
-272 -65 -33 0
-272 65 33 0
-272 -66 -34 0
-272 66 34 0
-272 -67 0
-272 -68 0
-272 -69 -37 0
-272 69 37 0
-272 -70 -38 0
-272 70 38 0
-272 -71 0
-272 -72 0
-272 -73 -41 0
-272 73 41 0
-272 -74 -42 0
-272 74 42 0
-272 -75 0
-272 -76 0
-272 -77 -45 0
-272 77 45 0
-272 -78 -46 0
-272 78 46 0
-272 -79 0
-272 -80 0
-272 -81 -49 0
-272 81 49 0
-272 -82 -50 0
-272 82 50 0
-272 -83 0
-272 -84 0
-272 -85 -53 0
-272 85 53 0
-272 -86 -54 0
-272 86 54 0
-272 -87 0
-272 -88 0
-272 -89 -57 0
-272 89 57 0
-272 -90 -58 0
-272 90 58 0
-272 -91 0
-272 -92 0
-272 -93 -61 0
-272 93 61 0
-272 -94 -62 0
-272 94 62 0
-272 -95 0
-272 -96 0
-273 -65 0
-273 -66 0
-273 -67 0
-273 -68 0
-273 -69 0
-273 -70 0
-273 -71 0
-273 -72 0
-273 -73 0
-273 -74 0
-273 -75 0
-273 -76 0
-273 77 0
-273 78 0
-273 79 0
-273 80 0
-273 -81 0
-273 -82 0
-273 -83 0
-273 -84 0
-273 -85 0
-273 -86 0
-273 -87 0
-273 -88 0
-273 -89 0
-273 -90 0
-273 -91 0
-273 -92 0
-273 93 0
-273 94 0
-273 95 0
-273 96 0
-274 -65 0
-274 -66 0
-274 -67 0
-274 -68 0
-274 69 0
-274 70 0
-274 71 0
-274 72 0
-274 -73 0
-274 -74 0
-274 -75 0
-274 -76 0
-274 -77 0
-274 -78 0
-274 -79 0
-274 -80 0
-274 -81 0
-274 -82 0
-274 -83 0
-274 -84 0
-274 85 0
-274 86 0
-274 87 0
-274 88 0
-274 -89 0
-274 -90 0
-274 -91 0
-274 -92 0
-274 -93 0
-274 -94 0
-274 -95 0
-274 -96 0
-275 -65 0
-275 -66 0
-275 -67 0
-275 -68 0
-275 -69 0
-275 -70 0
-275 -71 0
-275 -72 0
-275 73 0
-275 74 0
-275 75 0
-275 76 0
-275 -77 0
-275 -78 0
-275 -79 0
-275 -80 0
-275 -81 0
-275 -82 0
-275 -83 0
-275 -84 0
-275 -85 0
-275 -86 0
-275 -87 0
-275 -88 0
-275 89 0
-275 90 0
-275 91 0
-275 92 0
-275 -93 0
-275 -94 0
-275 -95 0
-275 -96 0
-276 65 0
-276 66 0
-276 67 0
-276 68 0
-276 -69 0
-276 -70 0
-276 -71 0
-276 -72 0
-276 -73 0
-276 -74 0
-276 -75 0
-276 -76 0
-276 -77 0
-276 -78 0
-276 -79 0
-276 -80 0
-276 81 0
-276 82 0
-276 83 0
-276 84 0
-276 -85 0
-276 -86 0
-276 -87 0
-276 -88 0
-276 -89 0
-276 -90 0
-276 -91 0
-276 -92 0
-276 -93 0
-276 -94 0
-276 -95 0
-276 -96 0
-277 -65 0
-277 -66 0
-277 -67 0
-277 -68 0
-277 -69 0
-277 -70 0
-277 -71 0
-277 -72 0
-277 -73 0
-277 -74 0
-277 -75 0
-277 -76 0
-277 -77 0
-277 -78 0
-277 -79 0
-277 -80 0
-277 -81 0
-277 -82 0
-277 -83 0
-277 -84 0
-277 85 0
-277 86 0
-277 87 0
-277 88 0
-277 -89 0
-277 -90 0
-277 -91 0
-277 -92 0
-277 93 0
-277 94 0
-277 95 0
-277 96 0
-278 -65 0
-278 -66 0
-278 -67 0
-278 -68 0
-278 69 0
-278 70 0
-278 71 0
-278 72 0
-278 -73 0
-278 -74 0
-278 -75 0
-278 -76 0
-278 77 0
-278 78 0
-278 79 0
-278 80 0
-278 -81 0
-278 -82 0
-278 -83 0
-278 -84 0
-278 -85 0
-278 -86 0
-278 -87 0
-278 -88 0
-278 -89 0
-278 -90 0
-278 -91 0
-278 -92 0
-278 -93 0
-278 -94 0
-278 -95 0
-278 -96 0
-279 -65 0
-279 -66 0
-279 -67 0
-279 -68 0
-279 -69 0
-279 -70 0
-279 -71 0
-279 -72 0
-279 -73 0
-279 -74 0
-279 -75 0
-279 -76 0
-279 -77 0
-279 -78 0
-279 -79 0
-279 -80 0
-279 81 0
-279 82 0
-279 83 0
-279 84 0
-279 -85 0
-279 -86 0
-279 -87 0
-279 -88 0
-279 89 0
-279 90 0
-279 91 0
-279 92 0
-279 -93 0
-279 -94 0
-279 -95 0
-279 -96 0
-280 65 0
-280 66 0
-280 67 0
-280 68 0
-280 -69 0
-280 -70 0
-280 -71 0
-280 -72 0
-280 73 0
-280 74 0
-280 75 0
-280 76 0
-280 -77 0
-280 -78 0
-280 -79 0
-280 -80 0
-280 -81 0
-280 -82 0
-280 -83 0
-280 -84 0
-280 -85 0
-280 -86 0
-280 -87 0
-280 -88 0
-280 -89 0
-280 -90 0
-280 -91 0
-280 -92 0
-280 -93 0
-280 -94 0
-280 -95 0
-280 -96 0
-281 -65 0
-281 -66 0
-281 -67 0
-281 -68 0
-281 -69 5 0
-281 69 -5 0
-281 -70 6 0
-281 70 -6 0
-281 -71 7 0
-281 71 -7 0
-281 -72 8 0
-281 72 -8 0
-281 -73 0
-281 -74 0
-281 -75 0
-281 -76 0
-281 -77 13 0
-281 77 -13 0
-281 -78 14 0
-281 78 -14 0
-281 -79 15 0
-281 79 -15 0
-281 -80 16 0
-281 80 -16 0
-281 -81 0
-281 -82 0
-281 -83 0
-281 -84 0
-281 -85 21 0
-281 85 -21 0
-281 -86 22 0
-281 86 -22 0
-281 -87 23 0
-281 87 -23 0
-281 -88 24 0
-281 88 -24 0
-281 -89 0
-281 -90 0
-281 -91 0
-281 -92 0
-281 -93 29 0
-281 93 -29 0
-281 -94 30 0
-281 94 -30 0
-281 -95 31 0
-281 95 -31 0
-281 -96 32 0
-281 96 -32 0
-282 -65 0
-282 -66 0
-282 -67 0
-282 -68 0
-282 -69 -5 0
-282 69 5 0
-282 -70 -6 0
-282 70 6 0
-282 -71 -7 0
-282 71 7 0
-282 -72 -8 0
-282 72 8 0
-282 -73 0
-282 -74 0
-282 -75 0
-282 -76 0
-282 -77 -13 0
-282 77 13 0
-282 -78 -14 0
-282 78 14 0
-282 -79 -15 0
-282 79 15 0
-282 -80 -16 0
-282 80 16 0
-282 -81 0
-282 -82 0
-282 -83 0
-282 -84 0
-282 -85 -21 0
-282 85 21 0
-282 -86 -22 0
-282 86 22 0
-282 -87 -23 0
-282 87 23 0
-282 -88 -24 0
-282 88 24 0
-282 -89 0
-282 -90 0
-282 -91 0
-282 -92 0
-282 -93 -29 0
-282 93 29 0
-282 -94 -30 0
-282 94 30 0
-282 -95 -31 0
-282 95 31 0
-282 -96 -32 0
-282 96 32 0
-283 -65 1 0
-283 65 -1 0
-283 -66 2 0
-283 66 -2 0
-283 -67 3 0
-283 67 -3 0
-283 -68 4 0
-283 68 -4 0
-283 -69 0
-283 -70 0
-283 -71 0
-283 -72 0
-283 -73 9 0
-283 73 -9 0
-283 -74 10 0
-283 74 -10 0
-283 -75 11 0
-283 75 -11 0
-283 -76 12 0
-283 76 -12 0
-283 -77 0
-283 -78 0
-283 -79 0
-283 -80 0
-283 -81 17 0
-283 81 -17 0
-283 -82 18 0
-283 82 -18 0
-283 -83 19 0
-283 83 -19 0
-283 -84 20 0
-283 84 -20 0
-283 -85 0
-283 -86 0
-283 -87 0
-283 -88 0
-283 -89 25 0
-283 89 -25 0
-283 -90 26 0
-283 90 -26 0
-283 -91 27 0
-283 91 -27 0
-283 -92 28 0
-283 92 -28 0
-283 -93 0
-283 -94 0
-283 -95 0
-283 -96 0
-284 -65 -1 0
-284 65 1 0
-284 -66 -2 0
-284 66 2 0
-284 -67 -3 0
-284 67 3 0
-284 -68 -4 0
-284 68 4 0
-284 -69 0
-284 -70 0
-284 -71 0
-284 -72 0
-284 -73 -9 0
-284 73 9 0
-284 -74 -10 0
-284 74 10 0
-284 -75 -11 0
-284 75 11 0
-284 -76 -12 0
-284 76 12 0
-284 -77 0
-284 -78 0
-284 -79 0
-284 -80 0
-284 -81 -17 0
-284 81 17 0
-284 -82 -18 0
-284 82 18 0
-284 -83 -19 0
-284 83 19 0
-284 -84 -20 0
-284 84 20 0
-284 -85 0
-284 -86 0
-284 -87 0
-284 -88 0
-284 -89 -25 0
-284 89 25 0
-284 -90 -26 0
-284 90 26 0
-284 -91 -27 0
-284 91 27 0
-284 -92 -28 0
-284 92 28 0
-284 -93 0
-284 -94 0
-284 -95 0
-284 -96 0
-285 -65 0
-285 -66 0
-285 -67 0
-285 -68 0
-285 -69 37 0
-285 69 -37 0
-285 -70 38 0
-285 70 -38 0
-285 -71 39 0
-285 71 -39 0
-285 -72 40 0
-285 72 -40 0
-285 -73 0
-285 -74 0
-285 -75 0
-285 -76 0
-285 -77 45 0
-285 77 -45 0
-285 -78 46 0
-285 78 -46 0
-285 -79 47 0
-285 79 -47 0
-285 -80 48 0
-285 80 -48 0
-285 -81 0
-285 -82 0
-285 -83 0
-285 -84 0
-285 -85 53 0
-285 85 -53 0
-285 -86 54 0
-285 86 -54 0
-285 -87 55 0
-285 87 -55 0
-285 -88 56 0
-285 88 -56 0
-285 -89 0
-285 -90 0
-285 -91 0
-285 -92 0
-285 -93 61 0
-285 93 -61 0
-285 -94 62 0
-285 94 -62 0
-285 -95 63 0
-285 95 -63 0
-285 -96 64 0
-285 96 -64 0
-286 -65 0
-286 -66 0
-286 -67 0
-286 -68 0
-286 -69 -37 0
-286 69 37 0
-286 -70 -38 0
-286 70 38 0
-286 -71 -39 0
-286 71 39 0
-286 -72 -40 0
-286 72 40 0
-286 -73 0
-286 -74 0
-286 -75 0
-286 -76 0
-286 -77 -45 0
-286 77 45 0
-286 -78 -46 0
-286 78 46 0
-286 -79 -47 0
-286 79 47 0
-286 -80 -48 0
-286 80 48 0
-286 -81 0
-286 -82 0
-286 -83 0
-286 -84 0
-286 -85 -53 0
-286 85 53 0
-286 -86 -54 0
-286 86 54 0
-286 -87 -55 0
-286 87 55 0
-286 -88 -56 0
-286 88 56 0
-286 -89 0
-286 -90 0
-286 -91 0
-286 -92 0
-286 -93 -61 0
-286 93 61 0
-286 -94 -62 0
-286 94 62 0
-286 -95 -63 0
-286 95 63 0
-286 -96 -64 0
-286 96 64 0
-287 -65 33 0
-287 65 -33 0
-287 -66 34 0
-287 66 -34 0
-287 -67 35 0
-287 67 -35 0
-287 -68 36 0
-287 68 -36 0
-287 -69 0
-287 -70 0
-287 -71 0
-287 -72 0
-287 -73 41 0
-287 73 -41 0
-287 -74 42 0
-287 74 -42 0
-287 -75 43 0
-287 75 -43 0
-287 -76 44 0
-287 76 -44 0
-287 -77 0
-287 -78 0
-287 -79 0
-287 -80 0
-287 -81 49 0
-287 81 -49 0
-287 -82 50 0
-287 82 -50 0
-287 -83 51 0
-287 83 -51 0
-287 -84 52 0
-287 84 -52 0
-287 -85 0
-287 -86 0
-287 -87 0
-287 -88 0
-287 -89 57 0
-287 89 -57 0
-287 -90 58 0
-287 90 -58 0
-287 -91 59 0
-287 91 -59 0
-287 -92 60 0
-287 92 -60 0
-287 -93 0
-287 -94 0
-287 -95 0
-287 -96 0
-288 -65 -33 0
-288 65 33 0
-288 -66 -34 0
-288 66 34 0
-288 -67 -35 0
-288 67 35 0
-288 -68 -36 0
-288 68 36 0
-288 -69 0
-288 -70 0
-288 -71 0
-288 -72 0
-288 -73 -41 0
-288 73 41 0
-288 -74 -42 0
-288 74 42 0
-288 -75 -43 0
-288 75 43 0
-288 -76 -44 0
-288 76 44 0
-288 -77 0
-288 -78 0
-288 -79 0
-288 -80 0
-288 -81 -49 0
-288 81 49 0
-288 -82 -50 0
-288 82 50 0
-288 -83 -51 0
-288 83 51 0
-288 -84 -52 0
-288 84 52 0
-288 -85 0
-288 -86 0
-288 -87 0
-288 -88 0
-288 -89 -57 0
-288 89 57 0
-288 -90 -58 0
-288 90 58 0
-288 -91 -59 0
-288 91 59 0
-288 -92 -60 0
-288 92 60 0
-288 -93 0
-288 -94 0
-288 -95 0
-288 -96 0
-289 -65 0
-289 -66 0
-289 -67 0
-289 -68 0
-289 -69 0
-289 -70 0
-289 -71 0
-289 -72 0
-289 -73 0
-289 -74 0
-289 -75 0
-289 -76 0
-289 -77 0
-289 -78 0
-289 -79 0
-289 -80 0
-289 -81 0
-289 -82 0
-289 -83 0
-289 -84 0
-289 -85 0
-289 -86 0
-289 -87 0
-289 -88 0
-289 89 0
-289 90 0
-289 91 0
-289 92 0
-289 93 0
-289 94 0
-289 95 0
-289 96 0
-290 -65 0
-290 -66 0
-290 -67 0
-290 -68 0
-290 -69 0
-290 -70 0
-290 -71 0
-290 -72 0
-290 73 0
-290 74 0
-290 75 0
-290 76 0
-290 77 0
-290 78 0
-290 79 0
-290 80 0
-290 -81 0
-290 -82 0
-290 -83 0
-290 -84 0
-290 -85 0
-290 -86 0
-290 -87 0
-290 -88 0
-290 -89 0
-290 -90 0
-290 -91 0
-290 -92 0
-290 -93 0
-290 -94 0
-290 -95 0
-290 -96 0
-291 -65 0
-291 -66 0
-291 -67 0
-291 -68 0
-291 -69 0
-291 -70 0
-291 -71 0
-291 -72 0
-291 -73 0
-291 -74 0
-291 -75 0
-291 -76 0
-291 -77 0
-291 -78 0
-291 -79 0
-291 -80 0
-291 81 0
-291 82 0
-291 83 0
-291 84 0
-291 85 0
-291 86 0
-291 87 0
-291 88 0
-291 -89 0
-291 -90 0
-291 -91 0
-291 -92 0
-291 -93 0
-291 -94 0
-291 -95 0
-291 -96 0
-292 65 0
-292 66 0
-292 67 0
-292 68 0
-292 69 0
-292 70 0
-292 71 0
-292 72 0
-292 -73 0
-292 -74 0
-292 -75 0
-292 -76 0
-292 -77 0
-292 -78 0
-292 -79 0
-292 -80 0
-292 -81 0
-292 -82 0
-292 -83 0
-292 -84 0
-292 -85 0
-292 -86 0
-292 -87 0
-292 -88 0
-292 -89 0
-292 -90 0
-292 -91 0
-292 -92 0
-292 -93 0
-292 -94 0
-292 -95 0
-292 -96 0
-293 -65 0
-293 -66 0
-293 -67 0
-293 -68 0
-293 -69 0
-293 -70 0
-293 -71 0
-293 -72 0
-293 -73 9 0
-293 73 -9 0
-293 -74 10 0
-293 74 -10 0
-293 -75 11 0
-293 75 -11 0
-293 -76 12 0
-293 76 -12 0
-293 -77 13 0
-293 77 -13 0
-293 -78 14 0
-293 78 -14 0
-293 -79 15 0
-293 79 -15 0
-293 -80 16 0
-293 80 -16 0
-293 -81 0
-293 -82 0
-293 -83 0
-293 -84 0
-293 -85 0
-293 -86 0
-293 -87 0
-293 -88 0
-293 -89 25 0
-293 89 -25 0
-293 -90 26 0
-293 90 -26 0
-293 -91 27 0
-293 91 -27 0
-293 -92 28 0
-293 92 -28 0
-293 -93 29 0
-293 93 -29 0
-293 -94 30 0
-293 94 -30 0
-293 -95 31 0
-293 95 -31 0
-293 -96 32 0
-293 96 -32 0
-294 -65 0
-294 -66 0
-294 -67 0
-294 -68 0
-294 -69 0
-294 -70 0
-294 -71 0
-294 -72 0
-294 -73 -9 0
-294 73 9 0
-294 -74 -10 0
-294 74 10 0
-294 -75 -11 0
-294 75 11 0
-294 -76 -12 0
-294 76 12 0
-294 -77 -13 0
-294 77 13 0
-294 -78 -14 0
-294 78 14 0
-294 -79 -15 0
-294 79 15 0
-294 -80 -16 0
-294 80 16 0
-294 -81 0
-294 -82 0
-294 -83 0
-294 -84 0
-294 -85 0
-294 -86 0
-294 -87 0
-294 -88 0
-294 -89 -25 0
-294 89 25 0
-294 -90 -26 0
-294 90 26 0
-294 -91 -27 0
-294 91 27 0
-294 -92 -28 0
-294 92 28 0
-294 -93 -29 0
-294 93 29 0
-294 -94 -30 0
-294 94 30 0
-294 -95 -31 0
-294 95 31 0
-294 -96 -32 0
-294 96 32 0
-295 -65 1 0
-295 65 -1 0
-295 -66 2 0
-295 66 -2 0
-295 -67 3 0
-295 67 -3 0
-295 -68 4 0
-295 68 -4 0
-295 -69 5 0
-295 69 -5 0
-295 -70 6 0
-295 70 -6 0
-295 -71 7 0
-295 71 -7 0
-295 -72 8 0
-295 72 -8 0
-295 -73 0
-295 -74 0
-295 -75 0
-295 -76 0
-295 -77 0
-295 -78 0
-295 -79 0
-295 -80 0
-295 -81 17 0
-295 81 -17 0
-295 -82 18 0
-295 82 -18 0
-295 -83 19 0
-295 83 -19 0
-295 -84 20 0
-295 84 -20 0
-295 -85 21 0
-295 85 -21 0
-295 -86 22 0
-295 86 -22 0
-295 -87 23 0
-295 87 -23 0
-295 -88 24 0
-295 88 -24 0
-295 -89 0
-295 -90 0
-295 -91 0
-295 -92 0
-295 -93 0
-295 -94 0
-295 -95 0
-295 -96 0
-296 -65 -1 0
-296 65 1 0
-296 -66 -2 0
-296 66 2 0
-296 -67 -3 0
-296 67 3 0
-296 -68 -4 0
-296 68 4 0
-296 -69 -5 0
-296 69 5 0
-296 -70 -6 0
-296 70 6 0
-296 -71 -7 0
-296 71 7 0
-296 -72 -8 0
-296 72 8 0
-296 -73 0
-296 -74 0
-296 -75 0
-296 -76 0
-296 -77 0
-296 -78 0
-296 -79 0
-296 -80 0
-296 -81 -17 0
-296 81 17 0
-296 -82 -18 0
-296 82 18 0
-296 -83 -19 0
-296 83 19 0
-296 -84 -20 0
-296 84 20 0
-296 -85 -21 0
-296 85 21 0
-296 -86 -22 0
-296 86 22 0
-296 -87 -23 0
-296 87 23 0
-296 -88 -24 0
-296 88 24 0
-296 -89 0
-296 -90 0
-296 -91 0
-296 -92 0
-296 -93 0
-296 -94 0
-296 -95 0
-296 -96 0
-297 -65 0
-297 -66 0
-297 -67 0
-297 -68 0
-297 -69 0
-297 -70 0
-297 -71 0
-297 -72 0
-297 -73 41 0
-297 73 -41 0
-297 -74 42 0
-297 74 -42 0
-297 -75 43 0
-297 75 -43 0
-297 -76 44 0
-297 76 -44 0
-297 -77 45 0
-297 77 -45 0
-297 -78 46 0
-297 78 -46 0
-297 -79 47 0
-297 79 -47 0
-297 -80 48 0
-297 80 -48 0
-297 -81 0
-297 -82 0
-297 -83 0
-297 -84 0
-297 -85 0
-297 -86 0
-297 -87 0
-297 -88 0
-297 -89 57 0
-297 89 -57 0
-297 -90 58 0
-297 90 -58 0
-297 -91 59 0
-297 91 -59 0
-297 -92 60 0
-297 92 -60 0
-297 -93 61 0
-297 93 -61 0
-297 -94 62 0
-297 94 -62 0
-297 -95 63 0
-297 95 -63 0
-297 -96 64 0
-297 96 -64 0
-298 -65 0
-298 -66 0
-298 -67 0
-298 -68 0
-298 -69 0
-298 -70 0
-298 -71 0
-298 -72 0
-298 -73 -41 0
-298 73 41 0
-298 -74 -42 0
-298 74 42 0
-298 -75 -43 0
-298 75 43 0
-298 -76 -44 0
-298 76 44 0
-298 -77 -45 0
-298 77 45 0
-298 -78 -46 0
-298 78 46 0
-298 -79 -47 0
-298 79 47 0
-298 -80 -48 0
-298 80 48 0
-298 -81 0
-298 -82 0
-298 -83 0
-298 -84 0
-298 -85 0
-298 -86 0
-298 -87 0
-298 -88 0
-298 -89 -57 0
-298 89 57 0
-298 -90 -58 0
-298 90 58 0
-298 -91 -59 0
-298 91 59 0
-298 -92 -60 0
-298 92 60 0
-298 -93 -61 0
-298 93 61 0
-298 -94 -62 0
-298 94 62 0
-298 -95 -63 0
-298 95 63 0
-298 -96 -64 0
-298 96 64 0
-299 -65 33 0
-299 65 -33 0
-299 -66 34 0
-299 66 -34 0
-299 -67 35 0
-299 67 -35 0
-299 -68 36 0
-299 68 -36 0
-299 -69 37 0
-299 69 -37 0
-299 -70 38 0
-299 70 -38 0
-299 -71 39 0
-299 71 -39 0
-299 -72 40 0
-299 72 -40 0
-299 -73 0
-299 -74 0
-299 -75 0
-299 -76 0
-299 -77 0
-299 -78 0
-299 -79 0
-299 -80 0
-299 -81 49 0
-299 81 -49 0
-299 -82 50 0
-299 82 -50 0
-299 -83 51 0
-299 83 -51 0
-299 -84 52 0
-299 84 -52 0
-299 -85 53 0
-299 85 -53 0
-299 -86 54 0
-299 86 -54 0
-299 -87 55 0
-299 87 -55 0
-299 -88 56 0
-299 88 -56 0
-299 -89 0
-299 -90 0
-299 -91 0
-299 -92 0
-299 -93 0
-299 -94 0
-299 -95 0
-299 -96 0
-300 -65 -33 0
-300 65 33 0
-300 -66 -34 0
-300 66 34 0
-300 -67 -35 0
-300 67 35 0
-300 -68 -36 0
-300 68 36 0
-300 -69 -37 0
-300 69 37 0
-300 -70 -38 0
-300 70 38 0
-300 -71 -39 0
-300 71 39 0
-300 -72 -40 0
-300 72 40 0
-300 -73 0
-300 -74 0
-300 -75 0
-300 -76 0
-300 -77 0
-300 -78 0
-300 -79 0
-300 -80 0
-300 -81 -49 0
-300 81 49 0
-300 -82 -50 0
-300 82 50 0
-300 -83 -51 0
-300 83 51 0
-300 -84 -52 0
-300 84 52 0
-300 -85 -53 0
-300 85 53 0
-300 -86 -54 0
-300 86 54 0
-300 -87 -55 0
-300 87 55 0
-300 -88 -56 0
-300 88 56 0
-300 -89 0
-300 -90 0
-300 -91 0
-300 -92 0
-300 -93 0
-300 -94 0
-300 -95 0
-300 -96 0
-301 -65 0
-301 -66 0
-301 -67 0
-301 -68 0
-301 -69 0
-301 -70 0
-301 -71 0
-301 -72 0
-301 -73 0
-301 -74 0
-301 -75 0
-301 -76 0
-301 -77 0
-301 -78 0
-301 -79 0
-301 -80 0
-301 -81 17 0
-301 81 -17 0
-301 -82 18 0
-301 82 -18 0
-301 -83 19 0
-301 83 -19 0
-301 -84 20 0
-301 84 -20 0
-301 -85 21 0
-301 85 -21 0
-301 -86 22 0
-301 86 -22 0
-301 -87 23 0
-301 87 -23 0
-301 -88 24 0
-301 88 -24 0
-301 -89 25 0
-301 89 -25 0
-301 -90 26 0
-301 90 -26 0
-301 -91 27 0
-301 91 -27 0
-301 -92 28 0
-301 92 -28 0
-301 -93 29 0
-301 93 -29 0
-301 -94 30 0
-301 94 -30 0
-301 -95 31 0
-301 95 -31 0
-301 -96 32 0
-301 96 -32 0
-302 -65 0
-302 -66 0
-302 -67 0
-302 -68 0
-302 -69 0
-302 -70 0
-302 -71 0
-302 -72 0
-302 -73 0
-302 -74 0
-302 -75 0
-302 -76 0
-302 -77 0
-302 -78 0
-302 -79 0
-302 -80 0
-302 -81 -17 0
-302 81 17 0
-302 -82 -18 0
-302 82 18 0
-302 -83 -19 0
-302 83 19 0
-302 -84 -20 0
-302 84 20 0
-302 -85 -21 0
-302 85 21 0
-302 -86 -22 0
-302 86 22 0
-302 -87 -23 0
-302 87 23 0
-302 -88 -24 0
-302 88 24 0
-302 -89 -25 0
-302 89 25 0
-302 -90 -26 0
-302 90 26 0
-302 -91 -27 0
-302 91 27 0
-302 -92 -28 0
-302 92 28 0
-302 -93 -29 0
-302 93 29 0
-302 -94 -30 0
-302 94 30 0
-302 -95 -31 0
-302 95 31 0
-302 -96 -32 0
-302 96 32 0
-303 -65 1 0
-303 65 -1 0
-303 -66 2 0
-303 66 -2 0
-303 -67 3 0
-303 67 -3 0
-303 -68 4 0
-303 68 -4 0
-303 -69 5 0
-303 69 -5 0
-303 -70 6 0
-303 70 -6 0
-303 -71 7 0
-303 71 -7 0
-303 -72 8 0
-303 72 -8 0
-303 -73 9 0
-303 73 -9 0
-303 -74 10 0
-303 74 -10 0
-303 -75 11 0
-303 75 -11 0
-303 -76 12 0
-303 76 -12 0
-303 -77 13 0
-303 77 -13 0
-303 -78 14 0
-303 78 -14 0
-303 -79 15 0
-303 79 -15 0
-303 -80 16 0
-303 80 -16 0
-303 -81 0
-303 -82 0
-303 -83 0
-303 -84 0
-303 -85 0
-303 -86 0
-303 -87 0
-303 -88 0
-303 -89 0
-303 -90 0
-303 -91 0
-303 -92 0
-303 -93 0
-303 -94 0
-303 -95 0
-303 -96 0
-304 -65 -1 0
-304 65 1 0
-304 -66 -2 0
-304 66 2 0
-304 -67 -3 0
-304 67 3 0
-304 -68 -4 0
-304 68 4 0
-304 -69 -5 0
-304 69 5 0
-304 -70 -6 0
-304 70 6 0
-304 -71 -7 0
-304 71 7 0
-304 -72 -8 0
-304 72 8 0
-304 -73 -9 0
-304 73 9 0
-304 -74 -10 0
-304 74 10 0
-304 -75 -11 0
-304 75 11 0
-304 -76 -12 0
-304 76 12 0
-304 -77 -13 0
-304 77 13 0
-304 -78 -14 0
-304 78 14 0
-304 -79 -15 0
-304 79 15 0
-304 -80 -16 0
-304 80 16 0
-304 -81 0
-304 -82 0
-304 -83 0
-304 -84 0
-304 -85 0
-304 -86 0
-304 -87 0
-304 -88 0
-304 -89 0
-304 -90 0
-304 -91 0
-304 -92 0
-304 -93 0
-304 -94 0
-304 -95 0
-304 -96 0
-305 -65 0
-305 -66 0
-305 -67 0
-305 -68 0
-305 -69 0
-305 -70 0
-305 -71 0
-305 -72 0
-305 -73 0
-305 -74 0
-305 -75 0
-305 -76 0
-305 -77 0
-305 -78 0
-305 -79 0
-305 -80 0
-305 -81 49 0
-305 81 -49 0
-305 -82 50 0
-305 82 -50 0
-305 -83 51 0
-305 83 -51 0
-305 -84 52 0
-305 84 -52 0
-305 -85 53 0
-305 85 -53 0
-305 -86 54 0
-305 86 -54 0
-305 -87 55 0
-305 87 -55 0
-305 -88 56 0
-305 88 -56 0
-305 -89 57 0
-305 89 -57 0
-305 -90 58 0
-305 90 -58 0
-305 -91 59 0
-305 91 -59 0
-305 -92 60 0
-305 92 -60 0
-305 -93 61 0
-305 93 -61 0
-305 -94 62 0
-305 94 -62 0
-305 -95 63 0
-305 95 -63 0
-305 -96 64 0
-305 96 -64 0
-306 -65 0
-306 -66 0
-306 -67 0
-306 -68 0
-306 -69 0
-306 -70 0
-306 -71 0
-306 -72 0
-306 -73 0
-306 -74 0
-306 -75 0
-306 -76 0
-306 -77 0
-306 -78 0
-306 -79 0
-306 -80 0
-306 -81 -49 0
-306 81 49 0
-306 -82 -50 0
-306 82 50 0
-306 -83 -51 0
-306 83 51 0
-306 -84 -52 0
-306 84 52 0
-306 -85 -53 0
-306 85 53 0
-306 -86 -54 0
-306 86 54 0
-306 -87 -55 0
-306 87 55 0
-306 -88 -56 0
-306 88 56 0
-306 -89 -57 0
-306 89 57 0
-306 -90 -58 0
-306 90 58 0
-306 -91 -59 0
-306 91 59 0
-306 -92 -60 0
-306 92 60 0
-306 -93 -61 0
-306 93 61 0
-306 -94 -62 0
-306 94 62 0
-306 -95 -63 0
-306 95 63 0
-306 -96 -64 0
-306 96 64 0
-307 -65 33 0
-307 65 -33 0
-307 -66 34 0
-307 66 -34 0
-307 -67 35 0
-307 67 -35 0
-307 -68 36 0
-307 68 -36 0
-307 -69 37 0
-307 69 -37 0
-307 -70 38 0
-307 70 -38 0
-307 -71 39 0
-307 71 -39 0
-307 -72 40 0
-307 72 -40 0
-307 -73 41 0
-307 73 -41 0
-307 -74 42 0
-307 74 -42 0
-307 -75 43 0
-307 75 -43 0
-307 -76 44 0
-307 76 -44 0
-307 -77 45 0
-307 77 -45 0
-307 -78 46 0
-307 78 -46 0
-307 -79 47 0
-307 79 -47 0
-307 -80 48 0
-307 80 -48 0
-307 -81 0
-307 -82 0
-307 -83 0
-307 -84 0
-307 -85 0
-307 -86 0
-307 -87 0
-307 -88 0
-307 -89 0
-307 -90 0
-307 -91 0
-307 -92 0
-307 -93 0
-307 -94 0
-307 -95 0
-307 -96 0
-308 -65 -33 0
-308 65 33 0
-308 -66 -34 0
-308 66 34 0
-308 -67 -35 0
-308 67 35 0
-308 -68 -36 0
-308 68 36 0
-308 -69 -37 0
-308 69 37 0
-308 -70 -38 0
-308 70 38 0
-308 -71 -39 0
-308 71 39 0
-308 -72 -40 0
-308 72 40 0
-308 -73 -41 0
-308 73 41 0
-308 -74 -42 0
-308 74 42 0
-308 -75 -43 0
-308 75 43 0
-308 -76 -44 0
-308 76 44 0
-308 -77 -45 0
-308 77 45 0
-308 -78 -46 0
-308 78 46 0
-308 -79 -47 0
-308 79 47 0
-308 -80 -48 0
-308 80 48 0
-308 -81 0
-308 -82 0
-308 -83 0
-308 -84 0
-308 -85 0
-308 -86 0
-308 -87 0
-308 -88 0
-308 -89 0
-308 -90 0
-308 -91 0
-308 -92 0
-308 -93 0
-308 -94 0
-308 -95 0
-308 -96 0
-309 -65 1 0
-309 -65 33 0
-309 65 -1 -33 0
-309 -66 2 0
-309 -66 34 0
-309 66 -2 -34 0
-309 -67 3 0
-309 -67 35 0
-309 67 -3 -35 0
-309 -68 4 0
-309 -68 36 0
-309 68 -4 -36 0
-309 -69 5 0
-309 -69 37 0
-309 69 -5 -37 0
-309 -70 6 0
-309 -70 38 0
-309 70 -6 -38 0
-309 -71 7 0
-309 -71 39 0
-309 71 -7 -39 0
-309 -72 8 0
-309 -72 40 0
-309 72 -8 -40 0
-309 -73 9 0
-309 -73 41 0
-309 73 -9 -41 0
-309 -74 10 0
-309 -74 42 0
-309 74 -10 -42 0
-309 -75 11 0
-309 -75 43 0
-309 75 -11 -43 0
-309 -76 12 0
-309 -76 44 0
-309 76 -12 -44 0
-309 -77 13 0
-309 -77 45 0
-309 77 -13 -45 0
-309 -78 14 0
-309 -78 46 0
-309 78 -14 -46 0
-309 -79 15 0
-309 -79 47 0
-309 79 -15 -47 0
-309 -80 16 0
-309 -80 48 0
-309 80 -16 -48 0
-309 -81 17 0
-309 -81 49 0
-309 81 -17 -49 0
-309 -82 18 0
-309 -82 50 0
-309 82 -18 -50 0
-309 -83 19 0
-309 -83 51 0
-309 83 -19 -51 0
-309 -84 20 0
-309 -84 52 0
-309 84 -20 -52 0
-309 -85 21 0
-309 -85 53 0
-309 85 -21 -53 0
-309 -86 22 0
-309 -86 54 0
-309 86 -22 -54 0
-309 -87 23 0
-309 -87 55 0
-309 87 -23 -55 0
-309 -88 24 0
-309 -88 56 0
-309 88 -24 -56 0
-309 -89 25 0
-309 -89 57 0
-309 89 -25 -57 0
-309 -90 26 0
-309 -90 58 0
-309 90 -26 -58 0
-309 -91 27 0
-309 -91 59 0
-309 91 -27 -59 0
-309 -92 28 0
-309 -92 60 0
-309 92 -28 -60 0
-309 -93 29 0
-309 -93 61 0
-309 93 -29 -61 0
-309 -94 30 0
-309 -94 62 0
-309 94 -30 -62 0
-309 -95 31 0
-309 -95 63 0
-309 95 -31 -63 0
-309 -96 32 0
-309 -96 64 0
-309 96 -32 -64 0
-310 -65 1 0
-310 -65 -33 0
-310 65 -1 33 0
-310 -66 2 0
-310 -66 -34 0
-310 66 -2 34 0
-310 -67 3 0
-310 -67 -35 0
-310 67 -3 35 0
-310 -68 4 0
-310 -68 -36 0
-310 68 -4 36 0
-310 -69 5 0
-310 -69 -37 0
-310 69 -5 37 0
-310 -70 6 0
-310 -70 -38 0
-310 70 -6 38 0
-310 -71 7 0
-310 -71 -39 0
-310 71 -7 39 0
-310 -72 8 0
-310 -72 -40 0
-310 72 -8 40 0
-310 -73 9 0
-310 -73 -41 0
-310 73 -9 41 0
-310 -74 10 0
-310 -74 -42 0
-310 74 -10 42 0
-310 -75 11 0
-310 -75 -43 0
-310 75 -11 43 0
-310 -76 12 0
-310 -76 -44 0
-310 76 -12 44 0
-310 -77 13 0
-310 -77 -45 0
-310 77 -13 45 0
-310 -78 14 0
-310 -78 -46 0
-310 78 -14 46 0
-310 -79 15 0
-310 -79 -47 0
-310 79 -15 47 0
-310 -80 16 0
-310 -80 -48 0
-310 80 -16 48 0
-310 -81 17 0
-310 -81 -49 0
-310 81 -17 49 0
-310 -82 18 0
-310 -82 -50 0
-310 82 -18 50 0
-310 -83 19 0
-310 -83 -51 0
-310 83 -19 51 0
-310 -84 20 0
-310 -84 -52 0
-310 84 -20 52 0
-310 -85 21 0
-310 -85 -53 0
-310 85 -21 53 0
-310 -86 22 0
-310 -86 -54 0
-310 86 -22 54 0
-310 -87 23 0
-310 -87 -55 0
-310 87 -23 55 0
-310 -88 24 0
-310 -88 -56 0
-310 88 -24 56 0
-310 -89 25 0
-310 -89 -57 0
-310 89 -25 57 0
-310 -90 26 0
-310 -90 -58 0
-310 90 -26 58 0
-310 -91 27 0
-310 -91 -59 0
-310 91 -27 59 0
-310 -92 28 0
-310 -92 -60 0
-310 92 -28 60 0
-310 -93 29 0
-310 -93 -61 0
-310 93 -29 61 0
-310 -94 30 0
-310 -94 -62 0
-310 94 -30 62 0
-310 -95 31 0
-310 -95 -63 0
-310 95 -31 63 0
-310 -96 32 0
-310 -96 -64 0
-310 96 -32 64 0
-311 -65 -1 0
-311 -65 33 0
-311 65 1 -33 0
-311 -66 -2 0
-311 -66 34 0
-311 66 2 -34 0
-311 -67 -3 0
-311 -67 35 0
-311 67 3 -35 0
-311 -68 -4 0
-311 -68 36 0
-311 68 4 -36 0
-311 -69 -5 0
-311 -69 37 0
-311 69 5 -37 0
-311 -70 -6 0
-311 -70 38 0
-311 70 6 -38 0
-311 -71 -7 0
-311 -71 39 0
-311 71 7 -39 0
-311 -72 -8 0
-311 -72 40 0
-311 72 8 -40 0
-311 -73 -9 0
-311 -73 41 0
-311 73 9 -41 0
-311 -74 -10 0
-311 -74 42 0
-311 74 10 -42 0
-311 -75 -11 0
-311 -75 43 0
-311 75 11 -43 0
-311 -76 -12 0
-311 -76 44 0
-311 76 12 -44 0
-311 -77 -13 0
-311 -77 45 0
-311 77 13 -45 0
-311 -78 -14 0
-311 -78 46 0
-311 78 14 -46 0
-311 -79 -15 0
-311 -79 47 0
-311 79 15 -47 0
-311 -80 -16 0
-311 -80 48 0
-311 80 16 -48 0
-311 -81 -17 0
-311 -81 49 0
-311 81 17 -49 0
-311 -82 -18 0
-311 -82 50 0
-311 82 18 -50 0
-311 -83 -19 0
-311 -83 51 0
-311 83 19 -51 0
-311 -84 -20 0
-311 -84 52 0
-311 84 20 -52 0
-311 -85 -21 0
-311 -85 53 0
-311 85 21 -53 0
-311 -86 -22 0
-311 -86 54 0
-311 86 22 -54 0
-311 -87 -23 0
-311 -87 55 0
-311 87 23 -55 0
-311 -88 -24 0
-311 -88 56 0
-311 88 24 -56 0
-311 -89 -25 0
-311 -89 57 0
-311 89 25 -57 0
-311 -90 -26 0
-311 -90 58 0
-311 90 26 -58 0
-311 -91 -27 0
-311 -91 59 0
-311 91 27 -59 0
-311 -92 -28 0
-311 -92 60 0
-311 92 28 -60 0
-311 -93 -29 0
-311 -93 61 0
-311 93 29 -61 0
-311 -94 -30 0
-311 -94 62 0
-311 94 30 -62 0
-311 -95 -31 0
-311 -95 63 0
-311 95 31 -63 0
-311 -96 -32 0
-311 -96 64 0
-311 96 32 -64 0
-312 -65 -1 0
-312 -65 -33 0
-312 65 1 33 0
-312 -66 -2 0
-312 -66 -34 0
-312 66 2 34 0
-312 -67 -3 0
-312 -67 -35 0
-312 67 3 35 0
-312 -68 -4 0
-312 -68 -36 0
-312 68 4 36 0
-312 -69 -5 0
-312 -69 -37 0
-312 69 5 37 0
-312 -70 -6 0
-312 -70 -38 0
-312 70 6 38 0
-312 -71 -7 0
-312 -71 -39 0
-312 71 7 39 0
-312 -72 -8 0
-312 -72 -40 0
-312 72 8 40 0
-312 -73 -9 0
-312 -73 -41 0
-312 73 9 41 0
-312 -74 -10 0
-312 -74 -42 0
-312 74 10 42 0
-312 -75 -11 0
-312 -75 -43 0
-312 75 11 43 0
-312 -76 -12 0
-312 -76 -44 0
-312 76 12 44 0
-312 -77 -13 0
-312 -77 -45 0
-312 77 13 45 0
-312 -78 -14 0
-312 -78 -46 0
-312 78 14 46 0
-312 -79 -15 0
-312 -79 -47 0
-312 79 15 47 0
-312 -80 -16 0
-312 -80 -48 0
-312 80 16 48 0
-312 -81 -17 0
-312 -81 -49 0
-312 81 17 49 0
-312 -82 -18 0
-312 -82 -50 0
-312 82 18 50 0
-312 -83 -19 0
-312 -83 -51 0
-312 83 19 51 0
-312 -84 -20 0
-312 -84 -52 0
-312 84 20 52 0
-312 -85 -21 0
-312 -85 -53 0
-312 85 21 53 0
-312 -86 -22 0
-312 -86 -54 0
-312 86 22 54 0
-312 -87 -23 0
-312 -87 -55 0
-312 87 23 55 0
-312 -88 -24 0
-312 -88 -56 0
-312 88 24 56 0
-312 -89 -25 0
-312 -89 -57 0
-312 89 25 57 0
-312 -90 -26 0
-312 -90 -58 0
-312 90 26 58 0
-312 -91 -27 0
-312 -91 -59 0
-312 91 27 59 0
-312 -92 -28 0
-312 -92 -60 0
-312 92 28 60 0
-312 -93 -29 0
-312 -93 -61 0
-312 93 29 61 0
-312 -94 -30 0
-312 -94 -62 0
-312 94 30 62 0
-312 -95 -31 0
-312 -95 -63 0
-312 95 31 63 0
-312 -96 -32 0
-312 -96 -64 0
-312 96 32 64 0
313 314 315 316 317 318 319 320 321 322 323 324 325 326 327 328 329 330 331 332 333 334 335 336 337 338 339 340 341 342 343 344 345 346 347 348 349 350 351 352 353 354 355 356 357 358 359 360 361 362 363 364 365 366 367 368 369 370 371 372 373 374 375 376 377 378 379 380 381 382 383 384 385 386 387 388 389 390 391 392 393 394 395 396 397 398 399 400 401 402 403 404 405 406 407 408 409 410 411 412 413 414 415 416 417 418 419 420 421 422 423 424 0
-313 -314 0
-313 -315 0
-313 -316 0
-313 -317 0
-313 -318 0
-313 -319 0
-313 -320 0
-313 -321 0
-313 -322 0
-313 -323 0
-313 -324 0
-313 -325 0
-313 -326 0
-313 -327 0
-313 -328 0
-313 -329 0
-313 -330 0
-313 -331 0
-313 -332 0
-313 -333 0
-313 -334 0
-313 -335 0
-313 -336 0
-313 -337 0
-313 -338 0
-313 -339 0
-313 -340 0
-313 -341 0
-313 -342 0
-313 -343 0
-313 -344 0
-313 -345 0
-313 -346 0
-313 -347 0
-313 -348 0
-313 -349 0
-313 -350 0
-313 -351 0
-313 -352 0
-313 -353 0
-313 -354 0
-313 -355 0
-313 -356 0
-313 -357 0
-313 -358 0
-313 -359 0
-313 -360 0
-313 -361 0
-313 -362 0
-313 -363 0
-313 -364 0
-313 -365 0
-313 -366 0
-313 -367 0
-313 -368 0
-313 -369 0
-313 -370 0
-313 -371 0
-313 -372 0
-313 -373 0
-313 -374 0
-313 -375 0
-313 -376 0
-313 -377 0
-313 -378 0
-313 -379 0
-313 -380 0
-313 -381 0
-313 -382 0
-313 -383 0
-313 -384 0
-313 -385 0
-313 -386 0
-313 -387 0
-313 -388 0
-313 -389 0
-313 -390 0
-313 -391 0
-313 -392 0
-313 -393 0
-313 -394 0
-313 -395 0
-313 -396 0
-313 -397 0
-313 -398 0
-313 -399 0
-313 -400 0
-313 -401 0
-313 -402 0
-313 -403 0
-313 -404 0
-313 -405 0
-313 -406 0
-313 -407 0
-313 -408 0
-313 -409 0
-313 -410 0
-313 -411 0
-313 -412 0
-313 -413 0
-313 -414 0
-313 -415 0
-313 -416 0
-313 -417 0
-313 -418 0
-313 -419 0
-313 -420 0
-313 -421 0
-313 -422 0
-313 -423 0
-313 -424 0
-314 -315 0
-314 -316 0
-314 -317 0
-314 -318 0
-314 -319 0
-314 -320 0
-314 -321 0
-314 -322 0
-314 -323 0
-314 -324 0
-314 -325 0
-314 -326 0
-314 -327 0
-314 -328 0
-314 -329 0
-314 -330 0
-314 -331 0
-314 -332 0
-314 -333 0
-314 -334 0
-314 -335 0
-314 -336 0
-314 -337 0
-314 -338 0
-314 -339 0
-314 -340 0
-314 -341 0
-314 -342 0
-314 -343 0
-314 -344 0
-314 -345 0
-314 -346 0
-314 -347 0
-314 -348 0
-314 -349 0
-314 -350 0
-314 -351 0
-314 -352 0
-314 -353 0
-314 -354 0
-314 -355 0
-314 -356 0
-314 -357 0
-314 -358 0
-314 -359 0
-314 -360 0
-314 -361 0
-314 -362 0
-314 -363 0
-314 -364 0
-314 -365 0
-314 -366 0
-314 -367 0
-314 -368 0
-314 -369 0
-314 -370 0
-314 -371 0
-314 -372 0
-314 -373 0
-314 -374 0
-314 -375 0
-314 -376 0
-314 -377 0
-314 -378 0
-314 -379 0
-314 -380 0
-314 -381 0
-314 -382 0
-314 -383 0
-314 -384 0
-314 -385 0
-314 -386 0
-314 -387 0
-314 -388 0
-314 -389 0
-314 -390 0
-314 -391 0
-314 -392 0
-314 -393 0
-314 -394 0
-314 -395 0
-314 -396 0
-314 -397 0
-314 -398 0
-314 -399 0
-314 -400 0
-314 -401 0
-314 -402 0
-314 -403 0
-314 -404 0
-314 -405 0
-314 -406 0
-314 -407 0
-314 -408 0
-314 -409 0
-314 -410 0
-314 -411 0
-314 -412 0
-314 -413 0
-314 -414 0
-314 -415 0
-314 -416 0
-314 -417 0
-314 -418 0
-314 -419 0
-314 -420 0
-314 -421 0
-314 -422 0
-314 -423 0
-314 -424 0
-315 -316 0
-315 -317 0
-315 -318 0
-315 -319 0
-315 -320 0
-315 -321 0
-315 -322 0
-315 -323 0
-315 -324 0
-315 -325 0
-315 -326 0
-315 -327 0
-315 -328 0
-315 -329 0
-315 -330 0
-315 -331 0
-315 -332 0
-315 -333 0
-315 -334 0
-315 -335 0
-315 -336 0
-315 -337 0
-315 -338 0
-315 -339 0
-315 -340 0
-315 -341 0
-315 -342 0
-315 -343 0
-315 -344 0
-315 -345 0
-315 -346 0
-315 -347 0
-315 -348 0
-315 -349 0
-315 -350 0
-315 -351 0
-315 -352 0
-315 -353 0
-315 -354 0
-315 -355 0
-315 -356 0
-315 -357 0
-315 -358 0
-315 -359 0
-315 -360 0
-315 -361 0
-315 -362 0
-315 -363 0
-315 -364 0
-315 -365 0
-315 -366 0
-315 -367 0
-315 -368 0
-315 -369 0
-315 -370 0
-315 -371 0
-315 -372 0
-315 -373 0
-315 -374 0
-315 -375 0
-315 -376 0
-315 -377 0
-315 -378 0
-315 -379 0
-315 -380 0
-315 -381 0
-315 -382 0
-315 -383 0
-315 -384 0
-315 -385 0
-315 -386 0
-315 -387 0
-315 -388 0
-315 -389 0
-315 -390 0
-315 -391 0
-315 -392 0
-315 -393 0
-315 -394 0
-315 -395 0
-315 -396 0
-315 -397 0
-315 -398 0
-315 -399 0
-315 -400 0
-315 -401 0
-315 -402 0
-315 -403 0
-315 -404 0
-315 -405 0
-315 -406 0
-315 -407 0
-315 -408 0
-315 -409 0
-315 -410 0
-315 -411 0
-315 -412 0
-315 -413 0
-315 -414 0
-315 -415 0
-315 -416 0
-315 -417 0
-315 -418 0
-315 -419 0
-315 -420 0
-315 -421 0
-315 -422 0
-315 -423 0
-315 -424 0
-316 -317 0
-316 -318 0
-316 -319 0
-316 -320 0
-316 -321 0
-316 -322 0
-316 -323 0
-316 -324 0
-316 -325 0
-316 -326 0
-316 -327 0
-316 -328 0
-316 -329 0
-316 -330 0
-316 -331 0
-316 -332 0
-316 -333 0
-316 -334 0
-316 -335 0
-316 -336 0
-316 -337 0
-316 -338 0
-316 -339 0
-316 -340 0
-316 -341 0
-316 -342 0
-316 -343 0
-316 -344 0
-316 -345 0
-316 -346 0
-316 -347 0
-316 -348 0
-316 -349 0
-316 -350 0
-316 -351 0
-316 -352 0
-316 -353 0
-316 -354 0
-316 -355 0
-316 -356 0
-316 -357 0
-316 -358 0
-316 -359 0
-316 -360 0
-316 -361 0
-316 -362 0
-316 -363 0
-316 -364 0
-316 -365 0
-316 -366 0
-316 -367 0
-316 -368 0
-316 -369 0
-316 -370 0
-316 -371 0
-316 -372 0
-316 -373 0
-316 -374 0
-316 -375 0
-316 -376 0
-316 -377 0
-316 -378 0
-316 -379 0
-316 -380 0
-316 -381 0
-316 -382 0
-316 -383 0
-316 -384 0
-316 -385 0
-316 -386 0
-316 -387 0
-316 -388 0
-316 -389 0
-316 -390 0
-316 -391 0
-316 -392 0
-316 -393 0
-316 -394 0
-316 -395 0
-316 -396 0
-316 -397 0
-316 -398 0
-316 -399 0
-316 -400 0
-316 -401 0
-316 -402 0
-316 -403 0
-316 -404 0
-316 -405 0
-316 -406 0
-316 -407 0
-316 -408 0
-316 -409 0
-316 -410 0
-316 -411 0
-316 -412 0
-316 -413 0
-316 -414 0
-316 -415 0
-316 -416 0
-316 -417 0
-316 -418 0
-316 -419 0
-316 -420 0
-316 -421 0
-316 -422 0
-316 -423 0
-316 -424 0
-317 -318 0
-317 -319 0
-317 -320 0
-317 -321 0
-317 -322 0
-317 -323 0
-317 -324 0
-317 -325 0
-317 -326 0
-317 -327 0
-317 -328 0
-317 -329 0
-317 -330 0
-317 -331 0
-317 -332 0
-317 -333 0
-317 -334 0
-317 -335 0
-317 -336 0
-317 -337 0
-317 -338 0
-317 -339 0
-317 -340 0
-317 -341 0
-317 -342 0
-317 -343 0
-317 -344 0
-317 -345 0
-317 -346 0
-317 -347 0
-317 -348 0
-317 -349 0
-317 -350 0
-317 -351 0
-317 -352 0
-317 -353 0
-317 -354 0
-317 -355 0
-317 -356 0
-317 -357 0
-317 -358 0
-317 -359 0
-317 -360 0
-317 -361 0
-317 -362 0
-317 -363 0
-317 -364 0
-317 -365 0
-317 -366 0
-317 -367 0
-317 -368 0
-317 -369 0
-317 -370 0
-317 -371 0
-317 -372 0
-317 -373 0
-317 -374 0
-317 -375 0
-317 -376 0
-317 -377 0
-317 -378 0
-317 -379 0
-317 -380 0
-317 -381 0
-317 -382 0
-317 -383 0
-317 -384 0
-317 -385 0
-317 -386 0
-317 -387 0
-317 -388 0
-317 -389 0
-317 -390 0
-317 -391 0
-317 -392 0
-317 -393 0
-317 -394 0
-317 -395 0
-317 -396 0
-317 -397 0
-317 -398 0
-317 -399 0
-317 -400 0
-317 -401 0
-317 -402 0
-317 -403 0
-317 -404 0
-317 -405 0
-317 -406 0
-317 -407 0
-317 -408 0
-317 -409 0
-317 -410 0
-317 -411 0
-317 -412 0
-317 -413 0
-317 -414 0
-317 -415 0
-317 -416 0
-317 -417 0
-317 -418 0
-317 -419 0
-317 -420 0
-317 -421 0
-317 -422 0
-317 -423 0
-317 -424 0
-318 -319 0
-318 -320 0
-318 -321 0
-318 -322 0
-318 -323 0
-318 -324 0
-318 -325 0
-318 -326 0
-318 -327 0
-318 -328 0
-318 -329 0
-318 -330 0
-318 -331 0
-318 -332 0
-318 -333 0
-318 -334 0
-318 -335 0
-318 -336 0
-318 -337 0
-318 -338 0
-318 -339 0
-318 -340 0
-318 -341 0
-318 -342 0
-318 -343 0
-318 -344 0
-318 -345 0
-318 -346 0
-318 -347 0
-318 -348 0
-318 -349 0
-318 -350 0
-318 -351 0
-318 -352 0
-318 -353 0
-318 -354 0
-318 -355 0
-318 -356 0
-318 -357 0
-318 -358 0
-318 -359 0
-318 -360 0
-318 -361 0
-318 -362 0
-318 -363 0
-318 -364 0
-318 -365 0
-318 -366 0
-318 -367 0
-318 -368 0
-318 -369 0
-318 -370 0
-318 -371 0
-318 -372 0
-318 -373 0
-318 -374 0
-318 -375 0
-318 -376 0
-318 -377 0
-318 -378 0
-318 -379 0
-318 -380 0
-318 -381 0
-318 -382 0
-318 -383 0
-318 -384 0
-318 -385 0
-318 -386 0
-318 -387 0
-318 -388 0
-318 -389 0
-318 -390 0
-318 -391 0
-318 -392 0
-318 -393 0
-318 -394 0
-318 -395 0
-318 -396 0
-318 -397 0
-318 -398 0
-318 -399 0
-318 -400 0
-318 -401 0
-318 -402 0
-318 -403 0
-318 -404 0
-318 -405 0
-318 -406 0
-318 -407 0
-318 -408 0
-318 -409 0
-318 -410 0
-318 -411 0
-318 -412 0
-318 -413 0
-318 -414 0
-318 -415 0
-318 -416 0
-318 -417 0
-318 -418 0
-318 -419 0
-318 -420 0
-318 -421 0
-318 -422 0
-318 -423 0
-318 -424 0
-319 -320 0
-319 -321 0
-319 -322 0
-319 -323 0
-319 -324 0
-319 -325 0
-319 -326 0
-319 -327 0
-319 -328 0
-319 -329 0
-319 -330 0
-319 -331 0
-319 -332 0
-319 -333 0
-319 -334 0
-319 -335 0
-319 -336 0
-319 -337 0
-319 -338 0
-319 -339 0
-319 -340 0
-319 -341 0
-319 -342 0
-319 -343 0
-319 -344 0
-319 -345 0
-319 -346 0
-319 -347 0
-319 -348 0
-319 -349 0
-319 -350 0
-319 -351 0
-319 -352 0
-319 -353 0
-319 -354 0
-319 -355 0
-319 -356 0
-319 -357 0
-319 -358 0
-319 -359 0
-319 -360 0
-319 -361 0
-319 -362 0
-319 -363 0
-319 -364 0
-319 -365 0
-319 -366 0
-319 -367 0
-319 -368 0
-319 -369 0
-319 -370 0
-319 -371 0
-319 -372 0
-319 -373 0
-319 -374 0
-319 -375 0
-319 -376 0
-319 -377 0
-319 -378 0
-319 -379 0
-319 -380 0
-319 -381 0
-319 -382 0
-319 -383 0
-319 -384 0
-319 -385 0
-319 -386 0
-319 -387 0
-319 -388 0
-319 -389 0
-319 -390 0
-319 -391 0
-319 -392 0
-319 -393 0
-319 -394 0
-319 -395 0
-319 -396 0
-319 -397 0
-319 -398 0
-319 -399 0
-319 -400 0
-319 -401 0
-319 -402 0
-319 -403 0
-319 -404 0
-319 -405 0
-319 -406 0
-319 -407 0
-319 -408 0
-319 -409 0
-319 -410 0
-319 -411 0
-319 -412 0
-319 -413 0
-319 -414 0
-319 -415 0
-319 -416 0
-319 -417 0
-319 -418 0
-319 -419 0
-319 -420 0
-319 -421 0
-319 -422 0
-319 -423 0
-319 -424 0
-320 -321 0
-320 -322 0
-320 -323 0
-320 -324 0
-320 -325 0
-320 -326 0
-320 -327 0
-320 -328 0
-320 -329 0
-320 -330 0
-320 -331 0
-320 -332 0
-320 -333 0
-320 -334 0
-320 -335 0
-320 -336 0
-320 -337 0
-320 -338 0
-320 -339 0
-320 -340 0
-320 -341 0
-320 -342 0
-320 -343 0
-320 -344 0
-320 -345 0
-320 -346 0
-320 -347 0
-320 -348 0
-320 -349 0
-320 -350 0
-320 -351 0
-320 -352 0
-320 -353 0
-320 -354 0
-320 -355 0
-320 -356 0
-320 -357 0
-320 -358 0
-320 -359 0
-320 -360 0
-320 -361 0
-320 -362 0
-320 -363 0
-320 -364 0
-320 -365 0
-320 -366 0
-320 -367 0
-320 -368 0
-320 -369 0
-320 -370 0
-320 -371 0
-320 -372 0
-320 -373 0
-320 -374 0
-320 -375 0
-320 -376 0
-320 -377 0
-320 -378 0
-320 -379 0
-320 -380 0
-320 -381 0
-320 -382 0
-320 -383 0
-320 -384 0
-320 -385 0
-320 -386 0
-320 -387 0
-320 -388 0
-320 -389 0
-320 -390 0
-320 -391 0
-320 -392 0
-320 -393 0
-320 -394 0
-320 -395 0
-320 -396 0
-320 -397 0
-320 -398 0
-320 -399 0
-320 -400 0
-320 -401 0
-320 -402 0
-320 -403 0
-320 -404 0
-320 -405 0
-320 -406 0
-320 -407 0
-320 -408 0
-320 -409 0
-320 -410 0
-320 -411 0
-320 -412 0
-320 -413 0
-320 -414 0
-320 -415 0
-320 -416 0
-320 -417 0
-320 -418 0
-320 -419 0
-320 -420 0
-320 -421 0
-320 -422 0
-320 -423 0
-320 -424 0
-321 -322 0
-321 -323 0
-321 -324 0
-321 -325 0
-321 -326 0
-321 -327 0
-321 -328 0
-321 -329 0
-321 -330 0
-321 -331 0
-321 -332 0
-321 -333 0
-321 -334 0
-321 -335 0
-321 -336 0
-321 -337 0
-321 -338 0
-321 -339 0
-321 -340 0
-321 -341 0
-321 -342 0
-321 -343 0
-321 -344 0
-321 -345 0
-321 -346 0
-321 -347 0
-321 -348 0
-321 -349 0
-321 -350 0
-321 -351 0
-321 -352 0
-321 -353 0
-321 -354 0
-321 -355 0
-321 -356 0
-321 -357 0
-321 -358 0
-321 -359 0
-321 -360 0
-321 -361 0
-321 -362 0
-321 -363 0
-321 -364 0
-321 -365 0
-321 -366 0
-321 -367 0
-321 -368 0
-321 -369 0
-321 -370 0
-321 -371 0
-321 -372 0
-321 -373 0
-321 -374 0
-321 -375 0
-321 -376 0
-321 -377 0
-321 -378 0
-321 -379 0
-321 -380 0
-321 -381 0
-321 -382 0
-321 -383 0
-321 -384 0
-321 -385 0
-321 -386 0
-321 -387 0
-321 -388 0
-321 -389 0
-321 -390 0
-321 -391 0
-321 -392 0
-321 -393 0
-321 -394 0
-321 -395 0
-321 -396 0
-321 -397 0
-321 -398 0
-321 -399 0
-321 -400 0
-321 -401 0
-321 -402 0
-321 -403 0
-321 -404 0
-321 -405 0
-321 -406 0
-321 -407 0
-321 -408 0
-321 -409 0
-321 -410 0
-321 -411 0
-321 -412 0
-321 -413 0
-321 -414 0
-321 -415 0
-321 -416 0
-321 -417 0
-321 -418 0
-321 -419 0
-321 -420 0
-321 -421 0
-321 -422 0
-321 -423 0
-321 -424 0
-322 -323 0
-322 -324 0
-322 -325 0
-322 -326 0
-322 -327 0
-322 -328 0
-322 -329 0
-322 -330 0
-322 -331 0
-322 -332 0
-322 -333 0
-322 -334 0
-322 -335 0
-322 -336 0
-322 -337 0
-322 -338 0
-322 -339 0
-322 -340 0
-322 -341 0
-322 -342 0
-322 -343 0
-322 -344 0
-322 -345 0
-322 -346 0
-322 -347 0
-322 -348 0
-322 -349 0
-322 -350 0
-322 -351 0
-322 -352 0
-322 -353 0
-322 -354 0
-322 -355 0
-322 -356 0
-322 -357 0
-322 -358 0
-322 -359 0
-322 -360 0
-322 -361 0
-322 -362 0
-322 -363 0
-322 -364 0
-322 -365 0
-322 -366 0
-322 -367 0
-322 -368 0
-322 -369 0
-322 -370 0
-322 -371 0
-322 -372 0
-322 -373 0
-322 -374 0
-322 -375 0
-322 -376 0
-322 -377 0
-322 -378 0
-322 -379 0
-322 -380 0
-322 -381 0
-322 -382 0
-322 -383 0
-322 -384 0
-322 -385 0
-322 -386 0
-322 -387 0
-322 -388 0
-322 -389 0
-322 -390 0
-322 -391 0
-322 -392 0
-322 -393 0
-322 -394 0
-322 -395 0
-322 -396 0
-322 -397 0
-322 -398 0
-322 -399 0
-322 -400 0
-322 -401 0
-322 -402 0
-322 -403 0
-322 -404 0
-322 -405 0
-322 -406 0
-322 -407 0
-322 -408 0
-322 -409 0
-322 -410 0
-322 -411 0
-322 -412 0
-322 -413 0
-322 -414 0
-322 -415 0
-322 -416 0
-322 -417 0
-322 -418 0
-322 -419 0
-322 -420 0
-322 -421 0
-322 -422 0
-322 -423 0
-322 -424 0
-323 -324 0
-323 -325 0
-323 -326 0
-323 -327 0
-323 -328 0
-323 -329 0
-323 -330 0
-323 -331 0
-323 -332 0
-323 -333 0
-323 -334 0
-323 -335 0
-323 -336 0
-323 -337 0
-323 -338 0
-323 -339 0
-323 -340 0
-323 -341 0
-323 -342 0
-323 -343 0
-323 -344 0
-323 -345 0
-323 -346 0
-323 -347 0
-323 -348 0
-323 -349 0
-323 -350 0
-323 -351 0
-323 -352 0
-323 -353 0
-323 -354 0
-323 -355 0
-323 -356 0
-323 -357 0
-323 -358 0
-323 -359 0
-323 -360 0
-323 -361 0
-323 -362 0
-323 -363 0
-323 -364 0
-323 -365 0
-323 -366 0
-323 -367 0
-323 -368 0
-323 -369 0
-323 -370 0
-323 -371 0
-323 -372 0
-323 -373 0
-323 -374 0
-323 -375 0
-323 -376 0
-323 -377 0
-323 -378 0
-323 -379 0
-323 -380 0
-323 -381 0
-323 -382 0
-323 -383 0
-323 -384 0
-323 -385 0
-323 -386 0
-323 -387 0
-323 -388 0
-323 -389 0
-323 -390 0
-323 -391 0
-323 -392 0
-323 -393 0
-323 -394 0
-323 -395 0
-323 -396 0
-323 -397 0
-323 -398 0
-323 -399 0
-323 -400 0
-323 -401 0
-323 -402 0
-323 -403 0
-323 -404 0
-323 -405 0
-323 -406 0
-323 -407 0
-323 -408 0
-323 -409 0
-323 -410 0
-323 -411 0
-323 -412 0
-323 -413 0
-323 -414 0
-323 -415 0
-323 -416 0
-323 -417 0
-323 -418 0
-323 -419 0
-323 -420 0
-323 -421 0
-323 -422 0
-323 -423 0
-323 -424 0
-324 -325 0
-324 -326 0
-324 -327 0
-324 -328 0
-324 -329 0
-324 -330 0
-324 -331 0
-324 -332 0
-324 -333 0
-324 -334 0
-324 -335 0
-324 -336 0
-324 -337 0
-324 -338 0
-324 -339 0
-324 -340 0
-324 -341 0
-324 -342 0
-324 -343 0
-324 -344 0
-324 -345 0
-324 -346 0
-324 -347 0
-324 -348 0
-324 -349 0
-324 -350 0
-324 -351 0
-324 -352 0
-324 -353 0
-324 -354 0
-324 -355 0
-324 -356 0
-324 -357 0
-324 -358 0
-324 -359 0
-324 -360 0
-324 -361 0
-324 -362 0
-324 -363 0
-324 -364 0
-324 -365 0
-324 -366 0
-324 -367 0
-324 -368 0
-324 -369 0
-324 -370 0
-324 -371 0
-324 -372 0
-324 -373 0
-324 -374 0
-324 -375 0
-324 -376 0
-324 -377 0
-324 -378 0
-324 -379 0
-324 -380 0
-324 -381 0
-324 -382 0
-324 -383 0
-324 -384 0
-324 -385 0
-324 -386 0
-324 -387 0
-324 -388 0
-324 -389 0
-324 -390 0
-324 -391 0
-324 -392 0
-324 -393 0
-324 -394 0
-324 -395 0
-324 -396 0
-324 -397 0
-324 -398 0
-324 -399 0
-324 -400 0
-324 -401 0
-324 -402 0
-324 -403 0
-324 -404 0
-324 -405 0
-324 -406 0
-324 -407 0
-324 -408 0
-324 -409 0
-324 -410 0
-324 -411 0
-324 -412 0
-324 -413 0
-324 -414 0
-324 -415 0
-324 -416 0
-324 -417 0
-324 -418 0
-324 -419 0
-324 -420 0
-324 -421 0
-324 -422 0
-324 -423 0
-324 -424 0
-325 -326 0
-325 -327 0
-325 -328 0
-325 -329 0
-325 -330 0
-325 -331 0
-325 -332 0
-325 -333 0
-325 -334 0
-325 -335 0
-325 -336 0
-325 -337 0
-325 -338 0
-325 -339 0
-325 -340 0
-325 -341 0
-325 -342 0
-325 -343 0
-325 -344 0
-325 -345 0
-325 -346 0
-325 -347 0
-325 -348 0
-325 -349 0
-325 -350 0
-325 -351 0
-325 -352 0
-325 -353 0
-325 -354 0
-325 -355 0
-325 -356 0
-325 -357 0
-325 -358 0
-325 -359 0
-325 -360 0
-325 -361 0
-325 -362 0
-325 -363 0
-325 -364 0
-325 -365 0
-325 -366 0
-325 -367 0
-325 -368 0
-325 -369 0
-325 -370 0
-325 -371 0
-325 -372 0
-325 -373 0
-325 -374 0
-325 -375 0
-325 -376 0
-325 -377 0
-325 -378 0
-325 -379 0
-325 -380 0
-325 -381 0
-325 -382 0
-325 -383 0
-325 -384 0
-325 -385 0
-325 -386 0
-325 -387 0
-325 -388 0
-325 -389 0
-325 -390 0
-325 -391 0
-325 -392 0
-325 -393 0
-325 -394 0
-325 -395 0
-325 -396 0
-325 -397 0
-325 -398 0
-325 -399 0
-325 -400 0
-325 -401 0
-325 -402 0
-325 -403 0
-325 -404 0
-325 -405 0
-325 -406 0
-325 -407 0
-325 -408 0
-325 -409 0
-325 -410 0
-325 -411 0
-325 -412 0
-325 -413 0
-325 -414 0
-325 -415 0
-325 -416 0
-325 -417 0
-325 -418 0
-325 -419 0
-325 -420 0
-325 -421 0
-325 -422 0
-325 -423 0
-325 -424 0
-326 -327 0
-326 -328 0
-326 -329 0
-326 -330 0
-326 -331 0
-326 -332 0
-326 -333 0
-326 -334 0
-326 -335 0
-326 -336 0
-326 -337 0
-326 -338 0
-326 -339 0
-326 -340 0
-326 -341 0
-326 -342 0
-326 -343 0
-326 -344 0
-326 -345 0
-326 -346 0
-326 -347 0
-326 -348 0
-326 -349 0
-326 -350 0
-326 -351 0
-326 -352 0
-326 -353 0
-326 -354 0
-326 -355 0
-326 -356 0
-326 -357 0
-326 -358 0
-326 -359 0
-326 -360 0
-326 -361 0
-326 -362 0
-326 -363 0
-326 -364 0
-326 -365 0
-326 -366 0
-326 -367 0
-326 -368 0
-326 -369 0
-326 -370 0
-326 -371 0
-326 -372 0
-326 -373 0
-326 -374 0
-326 -375 0
-326 -376 0
-326 -377 0
-326 -378 0
-326 -379 0
-326 -380 0
-326 -381 0
-326 -382 0
-326 -383 0
-326 -384 0
-326 -385 0
-326 -386 0
-326 -387 0
-326 -388 0
-326 -389 0
-326 -390 0
-326 -391 0
-326 -392 0
-326 -393 0
-326 -394 0
-326 -395 0
-326 -396 0
-326 -397 0
-326 -398 0
-326 -399 0
-326 -400 0
-326 -401 0
-326 -402 0
-326 -403 0
-326 -404 0
-326 -405 0
-326 -406 0
-326 -407 0
-326 -408 0
-326 -409 0
-326 -410 0
-326 -411 0
-326 -412 0
-326 -413 0
-326 -414 0
-326 -415 0
-326 -416 0
-326 -417 0
-326 -418 0
-326 -419 0
-326 -420 0
-326 -421 0
-326 -422 0
-326 -423 0
-326 -424 0
-327 -328 0
-327 -329 0
-327 -330 0
-327 -331 0
-327 -332 0
-327 -333 0
-327 -334 0
-327 -335 0
-327 -336 0
-327 -337 0
-327 -338 0
-327 -339 0
-327 -340 0
-327 -341 0
-327 -342 0
-327 -343 0
-327 -344 0
-327 -345 0
-327 -346 0
-327 -347 0
-327 -348 0
-327 -349 0
-327 -350 0
-327 -351 0
-327 -352 0
-327 -353 0
-327 -354 0
-327 -355 0
-327 -356 0
-327 -357 0
-327 -358 0
-327 -359 0
-327 -360 0
-327 -361 0
-327 -362 0
-327 -363 0
-327 -364 0
-327 -365 0
-327 -366 0
-327 -367 0
-327 -368 0
-327 -369 0
-327 -370 0
-327 -371 0
-327 -372 0
-327 -373 0
-327 -374 0
-327 -375 0
-327 -376 0
-327 -377 0
-327 -378 0
-327 -379 0
-327 -380 0
-327 -381 0
-327 -382 0
-327 -383 0
-327 -384 0
-327 -385 0
-327 -386 0
-327 -387 0
-327 -388 0
-327 -389 0
-327 -390 0
-327 -391 0
-327 -392 0
-327 -393 0
-327 -394 0
-327 -395 0
-327 -396 0
-327 -397 0
-327 -398 0
-327 -399 0
-327 -400 0
-327 -401 0
-327 -402 0
-327 -403 0
-327 -404 0
-327 -405 0
-327 -406 0
-327 -407 0
-327 -408 0
-327 -409 0
-327 -410 0
-327 -411 0
-327 -412 0
-327 -413 0
-327 -414 0
-327 -415 0
-327 -416 0
-327 -417 0
-327 -418 0
-327 -419 0
-327 -420 0
-327 -421 0
-327 -422 0
-327 -423 0
-327 -424 0
-328 -329 0
-328 -330 0
-328 -331 0
-328 -332 0
-328 -333 0
-328 -334 0
-328 -335 0
-328 -336 0
-328 -337 0
-328 -338 0
-328 -339 0
-328 -340 0
-328 -341 0
-328 -342 0
-328 -343 0
-328 -344 0
-328 -345 0
-328 -346 0
-328 -347 0
-328 -348 0
-328 -349 0
-328 -350 0
-328 -351 0
-328 -352 0
-328 -353 0
-328 -354 0
-328 -355 0
-328 -356 0
-328 -357 0
-328 -358 0
-328 -359 0
-328 -360 0
-328 -361 0
-328 -362 0
-328 -363 0
-328 -364 0
-328 -365 0
-328 -366 0
-328 -367 0
-328 -368 0
-328 -369 0
-328 -370 0
-328 -371 0
-328 -372 0
-328 -373 0
-328 -374 0
-328 -375 0
-328 -376 0
-328 -377 0
-328 -378 0
-328 -379 0
-328 -380 0
-328 -381 0
-328 -382 0
-328 -383 0
-328 -384 0
-328 -385 0
-328 -386 0
-328 -387 0
-328 -388 0
-328 -389 0
-328 -390 0
-328 -391 0
-328 -392 0
-328 -393 0
-328 -394 0
-328 -395 0
-328 -396 0
-328 -397 0
-328 -398 0
-328 -399 0
-328 -400 0
-328 -401 0
-328 -402 0
-328 -403 0
-328 -404 0
-328 -405 0
-328 -406 0
-328 -407 0
-328 -408 0
-328 -409 0
-328 -410 0
-328 -411 0
-328 -412 0
-328 -413 0
-328 -414 0
-328 -415 0
-328 -416 0
-328 -417 0
-328 -418 0
-328 -419 0
-328 -420 0
-328 -421 0
-328 -422 0
-328 -423 0
-328 -424 0
-329 -330 0
-329 -331 0
-329 -332 0
-329 -333 0
-329 -334 0
-329 -335 0
-329 -336 0
-329 -337 0
-329 -338 0
-329 -339 0
-329 -340 0
-329 -341 0
-329 -342 0
-329 -343 0
-329 -344 0
-329 -345 0
-329 -346 0
-329 -347 0
-329 -348 0
-329 -349 0
-329 -350 0
-329 -351 0
-329 -352 0
-329 -353 0
-329 -354 0
-329 -355 0
-329 -356 0
-329 -357 0
-329 -358 0
-329 -359 0
-329 -360 0
-329 -361 0
-329 -362 0
-329 -363 0
-329 -364 0
-329 -365 0
-329 -366 0
-329 -367 0
-329 -368 0
-329 -369 0
-329 -370 0
-329 -371 0
-329 -372 0
-329 -373 0
-329 -374 0
-329 -375 0
-329 -376 0
-329 -377 0
-329 -378 0
-329 -379 0
-329 -380 0
-329 -381 0
-329 -382 0
-329 -383 0
-329 -384 0
-329 -385 0
-329 -386 0
-329 -387 0
-329 -388 0
-329 -389 0
-329 -390 0
-329 -391 0
-329 -392 0
-329 -393 0
-329 -394 0
-329 -395 0
-329 -396 0
-329 -397 0
-329 -398 0
-329 -399 0
-329 -400 0
-329 -401 0
-329 -402 0
-329 -403 0
-329 -404 0
-329 -405 0
-329 -406 0
-329 -407 0
-329 -408 0
-329 -409 0
-329 -410 0
-329 -411 0
-329 -412 0
-329 -413 0
-329 -414 0
-329 -415 0
-329 -416 0
-329 -417 0
-329 -418 0
-329 -419 0
-329 -420 0
-329 -421 0
-329 -422 0
-329 -423 0
-329 -424 0
-330 -331 0
-330 -332 0
-330 -333 0
-330 -334 0
-330 -335 0
-330 -336 0
-330 -337 0
-330 -338 0
-330 -339 0
-330 -340 0
-330 -341 0
-330 -342 0
-330 -343 0
-330 -344 0
-330 -345 0
-330 -346 0
-330 -347 0
-330 -348 0
-330 -349 0
-330 -350 0
-330 -351 0
-330 -352 0
-330 -353 0
-330 -354 0
-330 -355 0
-330 -356 0
-330 -357 0
-330 -358 0
-330 -359 0
-330 -360 0
-330 -361 0
-330 -362 0
-330 -363 0
-330 -364 0
-330 -365 0
-330 -366 0
-330 -367 0
-330 -368 0
-330 -369 0
-330 -370 0
-330 -371 0
-330 -372 0
-330 -373 0
-330 -374 0
-330 -375 0
-330 -376 0
-330 -377 0
-330 -378 0
-330 -379 0
-330 -380 0
-330 -381 0
-330 -382 0
-330 -383 0
-330 -384 0
-330 -385 0
-330 -386 0
-330 -387 0
-330 -388 0
-330 -389 0
-330 -390 0
-330 -391 0
-330 -392 0
-330 -393 0
-330 -394 0
-330 -395 0
-330 -396 0
-330 -397 0
-330 -398 0
-330 -399 0
-330 -400 0
-330 -401 0
-330 -402 0
-330 -403 0
-330 -404 0
-330 -405 0
-330 -406 0
-330 -407 0
-330 -408 0
-330 -409 0
-330 -410 0
-330 -411 0
-330 -412 0
-330 -413 0
-330 -414 0
-330 -415 0
-330 -416 0
-330 -417 0
-330 -418 0
-330 -419 0
-330 -420 0
-330 -421 0
-330 -422 0
-330 -423 0
-330 -424 0
-331 -332 0
-331 -333 0
-331 -334 0
-331 -335 0
-331 -336 0
-331 -337 0
-331 -338 0
-331 -339 0
-331 -340 0
-331 -341 0
-331 -342 0
-331 -343 0
-331 -344 0
-331 -345 0
-331 -346 0
-331 -347 0
-331 -348 0
-331 -349 0
-331 -350 0
-331 -351 0
-331 -352 0
-331 -353 0
-331 -354 0
-331 -355 0
-331 -356 0
-331 -357 0
-331 -358 0
-331 -359 0
-331 -360 0
-331 -361 0
-331 -362 0
-331 -363 0
-331 -364 0
-331 -365 0
-331 -366 0
-331 -367 0
-331 -368 0
-331 -369 0
-331 -370 0
-331 -371 0
-331 -372 0
-331 -373 0
-331 -374 0
-331 -375 0
-331 -376 0
-331 -377 0
-331 -378 0
-331 -379 0
-331 -380 0
-331 -381 0
-331 -382 0
-331 -383 0
-331 -384 0
-331 -385 0
-331 -386 0
-331 -387 0
-331 -388 0
-331 -389 0
-331 -390 0
-331 -391 0
-331 -392 0
-331 -393 0
-331 -394 0
-331 -395 0
-331 -396 0
-331 -397 0
-331 -398 0
-331 -399 0
-331 -400 0
-331 -401 0
-331 -402 0
-331 -403 0
-331 -404 0
-331 -405 0
-331 -406 0
-331 -407 0
-331 -408 0
-331 -409 0
-331 -410 0
-331 -411 0
-331 -412 0
-331 -413 0
-331 -414 0
-331 -415 0
-331 -416 0
-331 -417 0
-331 -418 0
-331 -419 0
-331 -420 0
-331 -421 0
-331 -422 0
-331 -423 0
-331 -424 0
-332 -333 0
-332 -334 0
-332 -335 0
-332 -336 0
-332 -337 0
-332 -338 0
-332 -339 0
-332 -340 0
-332 -341 0
-332 -342 0
-332 -343 0
-332 -344 0
-332 -345 0
-332 -346 0
-332 -347 0
-332 -348 0
-332 -349 0
-332 -350 0
-332 -351 0
-332 -352 0
-332 -353 0
-332 -354 0
-332 -355 0
-332 -356 0
-332 -357 0
-332 -358 0
-332 -359 0
-332 -360 0
-332 -361 0
-332 -362 0
-332 -363 0
-332 -364 0
-332 -365 0
-332 -366 0
-332 -367 0
-332 -368 0
-332 -369 0
-332 -370 0
-332 -371 0
-332 -372 0
-332 -373 0
-332 -374 0
-332 -375 0
-332 -376 0
-332 -377 0
-332 -378 0
-332 -379 0
-332 -380 0
-332 -381 0
-332 -382 0
-332 -383 0
-332 -384 0
-332 -385 0
-332 -386 0
-332 -387 0
-332 -388 0
-332 -389 0
-332 -390 0
-332 -391 0
-332 -392 0
-332 -393 0
-332 -394 0
-332 -395 0
-332 -396 0
-332 -397 0
-332 -398 0
-332 -399 0
-332 -400 0
-332 -401 0
-332 -402 0
-332 -403 0
-332 -404 0
-332 -405 0
-332 -406 0
-332 -407 0
-332 -408 0
-332 -409 0
-332 -410 0
-332 -411 0
-332 -412 0
-332 -413 0
-332 -414 0
-332 -415 0
-332 -416 0
-332 -417 0
-332 -418 0
-332 -419 0
-332 -420 0
-332 -421 0
-332 -422 0
-332 -423 0
-332 -424 0
-333 -334 0
-333 -335 0
-333 -336 0
-333 -337 0
-333 -338 0
-333 -339 0
-333 -340 0
-333 -341 0
-333 -342 0
-333 -343 0
-333 -344 0
-333 -345 0
-333 -346 0
-333 -347 0
-333 -348 0
-333 -349 0
-333 -350 0
-333 -351 0
-333 -352 0
-333 -353 0
-333 -354 0
-333 -355 0
-333 -356 0
-333 -357 0
-333 -358 0
-333 -359 0
-333 -360 0
-333 -361 0
-333 -362 0
-333 -363 0
-333 -364 0
-333 -365 0
-333 -366 0
-333 -367 0
-333 -368 0
-333 -369 0
-333 -370 0
-333 -371 0
-333 -372 0
-333 -373 0
-333 -374 0
-333 -375 0
-333 -376 0
-333 -377 0
-333 -378 0
-333 -379 0
-333 -380 0
-333 -381 0
-333 -382 0
-333 -383 0
-333 -384 0
-333 -385 0
-333 -386 0
-333 -387 0
-333 -388 0
-333 -389 0
-333 -390 0
-333 -391 0
-333 -392 0
-333 -393 0
-333 -394 0
-333 -395 0
-333 -396 0
-333 -397 0
-333 -398 0
-333 -399 0
-333 -400 0
-333 -401 0
-333 -402 0
-333 -403 0
-333 -404 0
-333 -405 0
-333 -406 0
-333 -407 0
-333 -408 0
-333 -409 0
-333 -410 0
-333 -411 0
-333 -412 0
-333 -413 0
-333 -414 0
-333 -415 0
-333 -416 0
-333 -417 0
-333 -418 0
-333 -419 0
-333 -420 0
-333 -421 0
-333 -422 0
-333 -423 0
-333 -424 0
-334 -335 0
-334 -336 0
-334 -337 0
-334 -338 0
-334 -339 0
-334 -340 0
-334 -341 0
-334 -342 0
-334 -343 0
-334 -344 0
-334 -345 0
-334 -346 0
-334 -347 0
-334 -348 0
-334 -349 0
-334 -350 0
-334 -351 0
-334 -352 0
-334 -353 0
-334 -354 0
-334 -355 0
-334 -356 0
-334 -357 0
-334 -358 0
-334 -359 0
-334 -360 0
-334 -361 0
-334 -362 0
-334 -363 0
-334 -364 0
-334 -365 0
-334 -366 0
-334 -367 0
-334 -368 0
-334 -369 0
-334 -370 0
-334 -371 0
-334 -372 0
-334 -373 0
-334 -374 0
-334 -375 0
-334 -376 0
-334 -377 0
-334 -378 0
-334 -379 0
-334 -380 0
-334 -381 0
-334 -382 0
-334 -383 0
-334 -384 0
-334 -385 0
-334 -386 0
-334 -387 0
-334 -388 0
-334 -389 0
-334 -390 0
-334 -391 0
-334 -392 0
-334 -393 0
-334 -394 0
-334 -395 0
-334 -396 0
-334 -397 0
-334 -398 0
-334 -399 0
-334 -400 0
-334 -401 0
-334 -402 0
-334 -403 0
-334 -404 0
-334 -405 0
-334 -406 0
-334 -407 0
-334 -408 0
-334 -409 0
-334 -410 0
-334 -411 0
-334 -412 0
-334 -413 0
-334 -414 0
-334 -415 0
-334 -416 0
-334 -417 0
-334 -418 0
-334 -419 0
-334 -420 0
-334 -421 0
-334 -422 0
-334 -423 0
-334 -424 0
-335 -336 0
-335 -337 0
-335 -338 0
-335 -339 0
-335 -340 0
-335 -341 0
-335 -342 0
-335 -343 0
-335 -344 0
-335 -345 0
-335 -346 0
-335 -347 0
-335 -348 0
-335 -349 0
-335 -350 0
-335 -351 0
-335 -352 0
-335 -353 0
-335 -354 0
-335 -355 0
-335 -356 0
-335 -357 0
-335 -358 0
-335 -359 0
-335 -360 0
-335 -361 0
-335 -362 0
-335 -363 0
-335 -364 0
-335 -365 0
-335 -366 0
-335 -367 0
-335 -368 0
-335 -369 0
-335 -370 0
-335 -371 0
-335 -372 0
-335 -373 0
-335 -374 0
-335 -375 0
-335 -376 0
-335 -377 0
-335 -378 0
-335 -379 0
-335 -380 0
-335 -381 0
-335 -382 0
-335 -383 0
-335 -384 0
-335 -385 0
-335 -386 0
-335 -387 0
-335 -388 0
-335 -389 0
-335 -390 0
-335 -391 0
-335 -392 0
-335 -393 0
-335 -394 0
-335 -395 0
-335 -396 0
-335 -397 0
-335 -398 0
-335 -399 0
-335 -400 0
-335 -401 0
-335 -402 0
-335 -403 0
-335 -404 0
-335 -405 0
-335 -406 0
-335 -407 0
-335 -408 0
-335 -409 0
-335 -410 0
-335 -411 0
-335 -412 0
-335 -413 0
-335 -414 0
-335 -415 0
-335 -416 0
-335 -417 0
-335 -418 0
-335 -419 0
-335 -420 0
-335 -421 0
-335 -422 0
-335 -423 0
-335 -424 0
-336 -337 0
-336 -338 0
-336 -339 0
-336 -340 0
-336 -341 0
-336 -342 0
-336 -343 0
-336 -344 0
-336 -345 0
-336 -346 0
-336 -347 0
-336 -348 0
-336 -349 0
-336 -350 0
-336 -351 0
-336 -352 0
-336 -353 0
-336 -354 0
-336 -355 0
-336 -356 0
-336 -357 0
-336 -358 0
-336 -359 0
-336 -360 0
-336 -361 0
-336 -362 0
-336 -363 0
-336 -364 0
-336 -365 0
-336 -366 0
-336 -367 0
-336 -368 0
-336 -369 0
-336 -370 0
-336 -371 0
-336 -372 0
-336 -373 0
-336 -374 0
-336 -375 0
-336 -376 0
-336 -377 0
-336 -378 0
-336 -379 0
-336 -380 0
-336 -381 0
-336 -382 0
-336 -383 0
-336 -384 0
-336 -385 0
-336 -386 0
-336 -387 0
-336 -388 0
-336 -389 0
-336 -390 0
-336 -391 0
-336 -392 0
-336 -393 0
-336 -394 0
-336 -395 0
-336 -396 0
-336 -397 0
-336 -398 0
-336 -399 0
-336 -400 0
-336 -401 0
-336 -402 0
-336 -403 0
-336 -404 0
-336 -405 0
-336 -406 0
-336 -407 0
-336 -408 0
-336 -409 0
-336 -410 0
-336 -411 0
-336 -412 0
-336 -413 0
-336 -414 0
-336 -415 0
-336 -416 0
-336 -417 0
-336 -418 0
-336 -419 0
-336 -420 0
-336 -421 0
-336 -422 0
-336 -423 0
-336 -424 0
-337 -338 0
-337 -339 0
-337 -340 0
-337 -341 0
-337 -342 0
-337 -343 0
-337 -344 0
-337 -345 0
-337 -346 0
-337 -347 0
-337 -348 0
-337 -349 0
-337 -350 0
-337 -351 0
-337 -352 0
-337 -353 0
-337 -354 0
-337 -355 0
-337 -356 0
-337 -357 0
-337 -358 0
-337 -359 0
-337 -360 0
-337 -361 0
-337 -362 0
-337 -363 0
-337 -364 0
-337 -365 0
-337 -366 0
-337 -367 0
-337 -368 0
-337 -369 0
-337 -370 0
-337 -371 0
-337 -372 0
-337 -373 0
-337 -374 0
-337 -375 0
-337 -376 0
-337 -377 0
-337 -378 0
-337 -379 0
-337 -380 0
-337 -381 0
-337 -382 0
-337 -383 0
-337 -384 0
-337 -385 0
-337 -386 0
-337 -387 0
-337 -388 0
-337 -389 0
-337 -390 0
-337 -391 0
-337 -392 0
-337 -393 0
-337 -394 0
-337 -395 0
-337 -396 0
-337 -397 0
-337 -398 0
-337 -399 0
-337 -400 0
-337 -401 0
-337 -402 0
-337 -403 0
-337 -404 0
-337 -405 0
-337 -406 0
-337 -407 0
-337 -408 0
-337 -409 0
-337 -410 0
-337 -411 0
-337 -412 0
-337 -413 0
-337 -414 0
-337 -415 0
-337 -416 0
-337 -417 0
-337 -418 0
-337 -419 0
-337 -420 0
-337 -421 0
-337 -422 0
-337 -423 0
-337 -424 0
-338 -339 0
-338 -340 0
-338 -341 0
-338 -342 0
-338 -343 0
-338 -344 0
-338 -345 0
-338 -346 0
-338 -347 0
-338 -348 0
-338 -349 0
-338 -350 0
-338 -351 0
-338 -352 0
-338 -353 0
-338 -354 0
-338 -355 0
-338 -356 0
-338 -357 0
-338 -358 0
-338 -359 0
-338 -360 0
-338 -361 0
-338 -362 0
-338 -363 0
-338 -364 0
-338 -365 0
-338 -366 0
-338 -367 0
-338 -368 0
-338 -369 0
-338 -370 0
-338 -371 0
-338 -372 0
-338 -373 0
-338 -374 0
-338 -375 0
-338 -376 0
-338 -377 0
-338 -378 0
-338 -379 0
-338 -380 0
-338 -381 0
-338 -382 0
-338 -383 0
-338 -384 0
-338 -385 0
-338 -386 0
-338 -387 0
-338 -388 0
-338 -389 0
-338 -390 0
-338 -391 0
-338 -392 0
-338 -393 0
-338 -394 0
-338 -395 0
-338 -396 0
-338 -397 0
-338 -398 0
-338 -399 0
-338 -400 0
-338 -401 0
-338 -402 0
-338 -403 0
-338 -404 0
-338 -405 0
-338 -406 0
-338 -407 0
-338 -408 0
-338 -409 0
-338 -410 0
-338 -411 0
-338 -412 0
-338 -413 0
-338 -414 0
-338 -415 0
-338 -416 0
-338 -417 0
-338 -418 0
-338 -419 0
-338 -420 0
-338 -421 0
-338 -422 0
-338 -423 0
-338 -424 0
-339 -340 0
-339 -341 0
-339 -342 0
-339 -343 0
-339 -344 0
-339 -345 0
-339 -346 0
-339 -347 0
-339 -348 0
-339 -349 0
-339 -350 0
-339 -351 0
-339 -352 0
-339 -353 0
-339 -354 0
-339 -355 0
-339 -356 0
-339 -357 0
-339 -358 0
-339 -359 0
-339 -360 0
-339 -361 0
-339 -362 0
-339 -363 0
-339 -364 0
-339 -365 0
-339 -366 0
-339 -367 0
-339 -368 0
-339 -369 0
-339 -370 0
-339 -371 0
-339 -372 0
-339 -373 0
-339 -374 0
-339 -375 0
-339 -376 0
-339 -377 0
-339 -378 0
-339 -379 0
-339 -380 0
-339 -381 0
-339 -382 0
-339 -383 0
-339 -384 0
-339 -385 0
-339 -386 0
-339 -387 0
-339 -388 0
-339 -389 0
-339 -390 0
-339 -391 0
-339 -392 0
-339 -393 0
-339 -394 0
-339 -395 0
-339 -396 0
-339 -397 0
-339 -398 0
-339 -399 0
-339 -400 0
-339 -401 0
-339 -402 0
-339 -403 0
-339 -404 0
-339 -405 0
-339 -406 0
-339 -407 0
-339 -408 0
-339 -409 0
-339 -410 0
-339 -411 0
-339 -412 0
-339 -413 0
-339 -414 0
-339 -415 0
-339 -416 0
-339 -417 0
-339 -418 0
-339 -419 0
-339 -420 0
-339 -421 0
-339 -422 0
-339 -423 0
-339 -424 0
-340 -341 0
-340 -342 0
-340 -343 0
-340 -344 0
-340 -345 0
-340 -346 0
-340 -347 0
-340 -348 0
-340 -349 0
-340 -350 0
-340 -351 0
-340 -352 0
-340 -353 0
-340 -354 0
-340 -355 0
-340 -356 0
-340 -357 0
-340 -358 0
-340 -359 0
-340 -360 0
-340 -361 0
-340 -362 0
-340 -363 0
-340 -364 0
-340 -365 0
-340 -366 0
-340 -367 0
-340 -368 0
-340 -369 0
-340 -370 0
-340 -371 0
-340 -372 0
-340 -373 0
-340 -374 0
-340 -375 0
-340 -376 0
-340 -377 0
-340 -378 0
-340 -379 0
-340 -380 0
-340 -381 0
-340 -382 0
-340 -383 0
-340 -384 0
-340 -385 0
-340 -386 0
-340 -387 0
-340 -388 0
-340 -389 0
-340 -390 0
-340 -391 0
-340 -392 0
-340 -393 0
-340 -394 0
-340 -395 0
-340 -396 0
-340 -397 0
-340 -398 0
-340 -399 0
-340 -400 0
-340 -401 0
-340 -402 0
-340 -403 0
-340 -404 0
-340 -405 0
-340 -406 0
-340 -407 0
-340 -408 0
-340 -409 0
-340 -410 0
-340 -411 0
-340 -412 0
-340 -413 0
-340 -414 0
-340 -415 0
-340 -416 0
-340 -417 0
-340 -418 0
-340 -419 0
-340 -420 0
-340 -421 0
-340 -422 0
-340 -423 0
-340 -424 0
-341 -342 0
-341 -343 0
-341 -344 0
-341 -345 0
-341 -346 0
-341 -347 0
-341 -348 0
-341 -349 0
-341 -350 0
-341 -351 0
-341 -352 0
-341 -353 0
-341 -354 0
-341 -355 0
-341 -356 0
-341 -357 0
-341 -358 0
-341 -359 0
-341 -360 0
-341 -361 0
-341 -362 0
-341 -363 0
-341 -364 0
-341 -365 0
-341 -366 0
-341 -367 0
-341 -368 0
-341 -369 0
-341 -370 0
-341 -371 0
-341 -372 0
-341 -373 0
-341 -374 0
-341 -375 0
-341 -376 0
-341 -377 0
-341 -378 0
-341 -379 0
-341 -380 0
-341 -381 0
-341 -382 0
-341 -383 0
-341 -384 0
-341 -385 0
-341 -386 0
-341 -387 0
-341 -388 0
-341 -389 0
-341 -390 0
-341 -391 0
-341 -392 0
-341 -393 0
-341 -394 0
-341 -395 0
-341 -396 0
-341 -397 0
-341 -398 0
-341 -399 0
-341 -400 0
-341 -401 0
-341 -402 0
-341 -403 0
-341 -404 0
-341 -405 0
-341 -406 0
-341 -407 0
-341 -408 0
-341 -409 0
-341 -410 0
-341 -411 0
-341 -412 0
-341 -413 0
-341 -414 0
-341 -415 0
-341 -416 0
-341 -417 0
-341 -418 0
-341 -419 0
-341 -420 0
-341 -421 0
-341 -422 0
-341 -423 0
-341 -424 0
-342 -343 0
-342 -344 0
-342 -345 0
-342 -346 0
-342 -347 0
-342 -348 0
-342 -349 0
-342 -350 0
-342 -351 0
-342 -352 0
-342 -353 0
-342 -354 0
-342 -355 0
-342 -356 0
-342 -357 0
-342 -358 0
-342 -359 0
-342 -360 0
-342 -361 0
-342 -362 0
-342 -363 0
-342 -364 0
-342 -365 0
-342 -366 0
-342 -367 0
-342 -368 0
-342 -369 0
-342 -370 0
-342 -371 0
-342 -372 0
-342 -373 0
-342 -374 0
-342 -375 0
-342 -376 0
-342 -377 0
-342 -378 0
-342 -379 0
-342 -380 0
-342 -381 0
-342 -382 0
-342 -383 0
-342 -384 0
-342 -385 0
-342 -386 0
-342 -387 0
-342 -388 0
-342 -389 0
-342 -390 0
-342 -391 0
-342 -392 0
-342 -393 0
-342 -394 0
-342 -395 0
-342 -396 0
-342 -397 0
-342 -398 0
-342 -399 0
-342 -400 0
-342 -401 0
-342 -402 0
-342 -403 0
-342 -404 0
-342 -405 0
-342 -406 0
-342 -407 0
-342 -408 0
-342 -409 0
-342 -410 0
-342 -411 0
-342 -412 0
-342 -413 0
-342 -414 0
-342 -415 0
-342 -416 0
-342 -417 0
-342 -418 0
-342 -419 0
-342 -420 0
-342 -421 0
-342 -422 0
-342 -423 0
-342 -424 0
-343 -344 0
-343 -345 0
-343 -346 0
-343 -347 0
-343 -348 0
-343 -349 0
-343 -350 0
-343 -351 0
-343 -352 0
-343 -353 0
-343 -354 0
-343 -355 0
-343 -356 0
-343 -357 0
-343 -358 0
-343 -359 0
-343 -360 0
-343 -361 0
-343 -362 0
-343 -363 0
-343 -364 0
-343 -365 0
-343 -366 0
-343 -367 0
-343 -368 0
-343 -369 0
-343 -370 0
-343 -371 0
-343 -372 0
-343 -373 0
-343 -374 0
-343 -375 0
-343 -376 0
-343 -377 0
-343 -378 0
-343 -379 0
-343 -380 0
-343 -381 0
-343 -382 0
-343 -383 0
-343 -384 0
-343 -385 0
-343 -386 0
-343 -387 0
-343 -388 0
-343 -389 0
-343 -390 0
-343 -391 0
-343 -392 0
-343 -393 0
-343 -394 0
-343 -395 0
-343 -396 0
-343 -397 0
-343 -398 0
-343 -399 0
-343 -400 0
-343 -401 0
-343 -402 0
-343 -403 0
-343 -404 0
-343 -405 0
-343 -406 0
-343 -407 0
-343 -408 0
-343 -409 0
-343 -410 0
-343 -411 0
-343 -412 0
-343 -413 0
-343 -414 0
-343 -415 0
-343 -416 0
-343 -417 0
-343 -418 0
-343 -419 0
-343 -420 0
-343 -421 0
-343 -422 0
-343 -423 0
-343 -424 0
-344 -345 0
-344 -346 0
-344 -347 0
-344 -348 0
-344 -349 0
-344 -350 0
-344 -351 0
-344 -352 0
-344 -353 0
-344 -354 0
-344 -355 0
-344 -356 0
-344 -357 0
-344 -358 0
-344 -359 0
-344 -360 0
-344 -361 0
-344 -362 0
-344 -363 0
-344 -364 0
-344 -365 0
-344 -366 0
-344 -367 0
-344 -368 0
-344 -369 0
-344 -370 0
-344 -371 0
-344 -372 0
-344 -373 0
-344 -374 0
-344 -375 0
-344 -376 0
-344 -377 0
-344 -378 0
-344 -379 0
-344 -380 0
-344 -381 0
-344 -382 0
-344 -383 0
-344 -384 0
-344 -385 0
-344 -386 0
-344 -387 0
-344 -388 0
-344 -389 0
-344 -390 0
-344 -391 0
-344 -392 0
-344 -393 0
-344 -394 0
-344 -395 0
-344 -396 0
-344 -397 0
-344 -398 0
-344 -399 0
-344 -400 0
-344 -401 0
-344 -402 0
-344 -403 0
-344 -404 0
-344 -405 0
-344 -406 0
-344 -407 0
-344 -408 0
-344 -409 0
-344 -410 0
-344 -411 0
-344 -412 0
-344 -413 0
-344 -414 0
-344 -415 0
-344 -416 0
-344 -417 0
-344 -418 0
-344 -419 0
-344 -420 0
-344 -421 0
-344 -422 0
-344 -423 0
-344 -424 0
-345 -346 0
-345 -347 0
-345 -348 0
-345 -349 0
-345 -350 0
-345 -351 0
-345 -352 0
-345 -353 0
-345 -354 0
-345 -355 0
-345 -356 0
-345 -357 0
-345 -358 0
-345 -359 0
-345 -360 0
-345 -361 0
-345 -362 0
-345 -363 0
-345 -364 0
-345 -365 0
-345 -366 0
-345 -367 0
-345 -368 0
-345 -369 0
-345 -370 0
-345 -371 0
-345 -372 0
-345 -373 0
-345 -374 0
-345 -375 0
-345 -376 0
-345 -377 0
-345 -378 0
-345 -379 0
-345 -380 0
-345 -381 0
-345 -382 0
-345 -383 0
-345 -384 0
-345 -385 0
-345 -386 0
-345 -387 0
-345 -388 0
-345 -389 0
-345 -390 0
-345 -391 0
-345 -392 0
-345 -393 0
-345 -394 0
-345 -395 0
-345 -396 0
-345 -397 0
-345 -398 0
-345 -399 0
-345 -400 0
-345 -401 0
-345 -402 0
-345 -403 0
-345 -404 0
-345 -405 0
-345 -406 0
-345 -407 0
-345 -408 0
-345 -409 0
-345 -410 0
-345 -411 0
-345 -412 0
-345 -413 0
-345 -414 0
-345 -415 0
-345 -416 0
-345 -417 0
-345 -418 0
-345 -419 0
-345 -420 0
-345 -421 0
-345 -422 0
-345 -423 0
-345 -424 0
-346 -347 0
-346 -348 0
-346 -349 0
-346 -350 0
-346 -351 0
-346 -352 0
-346 -353 0
-346 -354 0
-346 -355 0
-346 -356 0
-346 -357 0
-346 -358 0
-346 -359 0
-346 -360 0
-346 -361 0
-346 -362 0
-346 -363 0
-346 -364 0
-346 -365 0
-346 -366 0
-346 -367 0
-346 -368 0
-346 -369 0
-346 -370 0
-346 -371 0
-346 -372 0
-346 -373 0
-346 -374 0
-346 -375 0
-346 -376 0
-346 -377 0
-346 -378 0
-346 -379 0
-346 -380 0
-346 -381 0
-346 -382 0
-346 -383 0
-346 -384 0
-346 -385 0
-346 -386 0
-346 -387 0
-346 -388 0
-346 -389 0
-346 -390 0
-346 -391 0
-346 -392 0
-346 -393 0
-346 -394 0
-346 -395 0
-346 -396 0
-346 -397 0
-346 -398 0
-346 -399 0
-346 -400 0
-346 -401 0
-346 -402 0
-346 -403 0
-346 -404 0
-346 -405 0
-346 -406 0
-346 -407 0
-346 -408 0
-346 -409 0
-346 -410 0
-346 -411 0
-346 -412 0
-346 -413 0
-346 -414 0
-346 -415 0
-346 -416 0
-346 -417 0
-346 -418 0
-346 -419 0
-346 -420 0
-346 -421 0
-346 -422 0
-346 -423 0
-346 -424 0
-347 -348 0
-347 -349 0
-347 -350 0
-347 -351 0
-347 -352 0
-347 -353 0
-347 -354 0
-347 -355 0
-347 -356 0
-347 -357 0
-347 -358 0
-347 -359 0
-347 -360 0
-347 -361 0
-347 -362 0
-347 -363 0
-347 -364 0
-347 -365 0
-347 -366 0
-347 -367 0
-347 -368 0
-347 -369 0
-347 -370 0
-347 -371 0
-347 -372 0
-347 -373 0
-347 -374 0
-347 -375 0
-347 -376 0
-347 -377 0
-347 -378 0
-347 -379 0
-347 -380 0
-347 -381 0
-347 -382 0
-347 -383 0
-347 -384 0
-347 -385 0
-347 -386 0
-347 -387 0
-347 -388 0
-347 -389 0
-347 -390 0
-347 -391 0
-347 -392 0
-347 -393 0
-347 -394 0
-347 -395 0
-347 -396 0
-347 -397 0
-347 -398 0
-347 -399 0
-347 -400 0
-347 -401 0
-347 -402 0
-347 -403 0
-347 -404 0
-347 -405 0
-347 -406 0
-347 -407 0
-347 -408 0
-347 -409 0
-347 -410 0
-347 -411 0
-347 -412 0
-347 -413 0
-347 -414 0
-347 -415 0
-347 -416 0
-347 -417 0
-347 -418 0
-347 -419 0
-347 -420 0
-347 -421 0
-347 -422 0
-347 -423 0
-347 -424 0
-348 -349 0
-348 -350 0
-348 -351 0
-348 -352 0
-348 -353 0
-348 -354 0
-348 -355 0
-348 -356 0
-348 -357 0
-348 -358 0
-348 -359 0
-348 -360 0
-348 -361 0
-348 -362 0
-348 -363 0
-348 -364 0
-348 -365 0
-348 -366 0
-348 -367 0
-348 -368 0
-348 -369 0
-348 -370 0
-348 -371 0
-348 -372 0
-348 -373 0
-348 -374 0
-348 -375 0
-348 -376 0
-348 -377 0
-348 -378 0
-348 -379 0
-348 -380 0
-348 -381 0
-348 -382 0
-348 -383 0
-348 -384 0
-348 -385 0
-348 -386 0
-348 -387 0
-348 -388 0
-348 -389 0
-348 -390 0
-348 -391 0
-348 -392 0
-348 -393 0
-348 -394 0
-348 -395 0
-348 -396 0
-348 -397 0
-348 -398 0
-348 -399 0
-348 -400 0
-348 -401 0
-348 -402 0
-348 -403 0
-348 -404 0
-348 -405 0
-348 -406 0
-348 -407 0
-348 -408 0
-348 -409 0
-348 -410 0
-348 -411 0
-348 -412 0
-348 -413 0
-348 -414 0
-348 -415 0
-348 -416 0
-348 -417 0
-348 -418 0
-348 -419 0
-348 -420 0
-348 -421 0
-348 -422 0
-348 -423 0
-348 -424 0
-349 -350 0
-349 -351 0
-349 -352 0
-349 -353 0
-349 -354 0
-349 -355 0
-349 -356 0
-349 -357 0
-349 -358 0
-349 -359 0
-349 -360 0
-349 -361 0
-349 -362 0
-349 -363 0
-349 -364 0
-349 -365 0
-349 -366 0
-349 -367 0
-349 -368 0
-349 -369 0
-349 -370 0
-349 -371 0
-349 -372 0
-349 -373 0
-349 -374 0
-349 -375 0
-349 -376 0
-349 -377 0
-349 -378 0
-349 -379 0
-349 -380 0
-349 -381 0
-349 -382 0
-349 -383 0
-349 -384 0
-349 -385 0
-349 -386 0
-349 -387 0
-349 -388 0
-349 -389 0
-349 -390 0
-349 -391 0
-349 -392 0
-349 -393 0
-349 -394 0
-349 -395 0
-349 -396 0
-349 -397 0
-349 -398 0
-349 -399 0
-349 -400 0
-349 -401 0
-349 -402 0
-349 -403 0
-349 -404 0
-349 -405 0
-349 -406 0
-349 -407 0
-349 -408 0
-349 -409 0
-349 -410 0
-349 -411 0
-349 -412 0
-349 -413 0
-349 -414 0
-349 -415 0
-349 -416 0
-349 -417 0
-349 -418 0
-349 -419 0
-349 -420 0
-349 -421 0
-349 -422 0
-349 -423 0
-349 -424 0
-350 -351 0
-350 -352 0
-350 -353 0
-350 -354 0
-350 -355 0
-350 -356 0
-350 -357 0
-350 -358 0
-350 -359 0
-350 -360 0
-350 -361 0
-350 -362 0
-350 -363 0
-350 -364 0
-350 -365 0
-350 -366 0
-350 -367 0
-350 -368 0
-350 -369 0
-350 -370 0
-350 -371 0
-350 -372 0
-350 -373 0
-350 -374 0
-350 -375 0
-350 -376 0
-350 -377 0
-350 -378 0
-350 -379 0
-350 -380 0
-350 -381 0
-350 -382 0
-350 -383 0
-350 -384 0
-350 -385 0
-350 -386 0
-350 -387 0
-350 -388 0
-350 -389 0
-350 -390 0
-350 -391 0
-350 -392 0
-350 -393 0
-350 -394 0
-350 -395 0
-350 -396 0
-350 -397 0
-350 -398 0
-350 -399 0
-350 -400 0
-350 -401 0
-350 -402 0
-350 -403 0
-350 -404 0
-350 -405 0
-350 -406 0
-350 -407 0
-350 -408 0
-350 -409 0
-350 -410 0
-350 -411 0
-350 -412 0
-350 -413 0
-350 -414 0
-350 -415 0
-350 -416 0
-350 -417 0
-350 -418 0
-350 -419 0
-350 -420 0
-350 -421 0
-350 -422 0
-350 -423 0
-350 -424 0
-351 -352 0
-351 -353 0
-351 -354 0
-351 -355 0
-351 -356 0
-351 -357 0
-351 -358 0
-351 -359 0
-351 -360 0
-351 -361 0
-351 -362 0
-351 -363 0
-351 -364 0
-351 -365 0
-351 -366 0
-351 -367 0
-351 -368 0
-351 -369 0
-351 -370 0
-351 -371 0
-351 -372 0
-351 -373 0
-351 -374 0
-351 -375 0
-351 -376 0
-351 -377 0
-351 -378 0
-351 -379 0
-351 -380 0
-351 -381 0
-351 -382 0
-351 -383 0
-351 -384 0
-351 -385 0
-351 -386 0
-351 -387 0
-351 -388 0
-351 -389 0
-351 -390 0
-351 -391 0
-351 -392 0
-351 -393 0
-351 -394 0
-351 -395 0
-351 -396 0
-351 -397 0
-351 -398 0
-351 -399 0
-351 -400 0
-351 -401 0
-351 -402 0
-351 -403 0
-351 -404 0
-351 -405 0
-351 -406 0
-351 -407 0
-351 -408 0
-351 -409 0
-351 -410 0
-351 -411 0
-351 -412 0
-351 -413 0
-351 -414 0
-351 -415 0
-351 -416 0
-351 -417 0
-351 -418 0
-351 -419 0
-351 -420 0
-351 -421 0
-351 -422 0
-351 -423 0
-351 -424 0
-352 -353 0
-352 -354 0
-352 -355 0
-352 -356 0
-352 -357 0
-352 -358 0
-352 -359 0
-352 -360 0
-352 -361 0
-352 -362 0
-352 -363 0
-352 -364 0
-352 -365 0
-352 -366 0
-352 -367 0
-352 -368 0
-352 -369 0
-352 -370 0
-352 -371 0
-352 -372 0
-352 -373 0
-352 -374 0
-352 -375 0
-352 -376 0
-352 -377 0
-352 -378 0
-352 -379 0
-352 -380 0
-352 -381 0
-352 -382 0
-352 -383 0
-352 -384 0
-352 -385 0
-352 -386 0
-352 -387 0
-352 -388 0
-352 -389 0
-352 -390 0
-352 -391 0
-352 -392 0
-352 -393 0
-352 -394 0
-352 -395 0
-352 -396 0
-352 -397 0
-352 -398 0
-352 -399 0
-352 -400 0
-352 -401 0
-352 -402 0
-352 -403 0
-352 -404 0
-352 -405 0
-352 -406 0
-352 -407 0
-352 -408 0
-352 -409 0
-352 -410 0
-352 -411 0
-352 -412 0
-352 -413 0
-352 -414 0
-352 -415 0
-352 -416 0
-352 -417 0
-352 -418 0
-352 -419 0
-352 -420 0
-352 -421 0
-352 -422 0
-352 -423 0
-352 -424 0
-353 -354 0
-353 -355 0
-353 -356 0
-353 -357 0
-353 -358 0
-353 -359 0
-353 -360 0
-353 -361 0
-353 -362 0
-353 -363 0
-353 -364 0
-353 -365 0
-353 -366 0
-353 -367 0
-353 -368 0
-353 -369 0
-353 -370 0
-353 -371 0
-353 -372 0
-353 -373 0
-353 -374 0
-353 -375 0
-353 -376 0
-353 -377 0
-353 -378 0
-353 -379 0
-353 -380 0
-353 -381 0
-353 -382 0
-353 -383 0
-353 -384 0
-353 -385 0
-353 -386 0
-353 -387 0
-353 -388 0
-353 -389 0
-353 -390 0
-353 -391 0
-353 -392 0
-353 -393 0
-353 -394 0
-353 -395 0
-353 -396 0
-353 -397 0
-353 -398 0
-353 -399 0
-353 -400 0
-353 -401 0
-353 -402 0
-353 -403 0
-353 -404 0
-353 -405 0
-353 -406 0
-353 -407 0
-353 -408 0
-353 -409 0
-353 -410 0
-353 -411 0
-353 -412 0
-353 -413 0
-353 -414 0
-353 -415 0
-353 -416 0
-353 -417 0
-353 -418 0
-353 -419 0
-353 -420 0
-353 -421 0
-353 -422 0
-353 -423 0
-353 -424 0
-354 -355 0
-354 -356 0
-354 -357 0
-354 -358 0
-354 -359 0
-354 -360 0
-354 -361 0
-354 -362 0
-354 -363 0
-354 -364 0
-354 -365 0
-354 -366 0
-354 -367 0
-354 -368 0
-354 -369 0
-354 -370 0
-354 -371 0
-354 -372 0
-354 -373 0
-354 -374 0
-354 -375 0
-354 -376 0
-354 -377 0
-354 -378 0
-354 -379 0
-354 -380 0
-354 -381 0
-354 -382 0
-354 -383 0
-354 -384 0
-354 -385 0
-354 -386 0
-354 -387 0
-354 -388 0
-354 -389 0
-354 -390 0
-354 -391 0
-354 -392 0
-354 -393 0
-354 -394 0
-354 -395 0
-354 -396 0
-354 -397 0
-354 -398 0
-354 -399 0
-354 -400 0
-354 -401 0
-354 -402 0
-354 -403 0
-354 -404 0
-354 -405 0
-354 -406 0
-354 -407 0
-354 -408 0
-354 -409 0
-354 -410 0
-354 -411 0
-354 -412 0
-354 -413 0
-354 -414 0
-354 -415 0
-354 -416 0
-354 -417 0
-354 -418 0
-354 -419 0
-354 -420 0
-354 -421 0
-354 -422 0
-354 -423 0
-354 -424 0
-355 -356 0
-355 -357 0
-355 -358 0
-355 -359 0
-355 -360 0
-355 -361 0
-355 -362 0
-355 -363 0
-355 -364 0
-355 -365 0
-355 -366 0
-355 -367 0
-355 -368 0
-355 -369 0
-355 -370 0
-355 -371 0
-355 -372 0
-355 -373 0
-355 -374 0
-355 -375 0
-355 -376 0
-355 -377 0
-355 -378 0
-355 -379 0
-355 -380 0
-355 -381 0
-355 -382 0
-355 -383 0
-355 -384 0
-355 -385 0
-355 -386 0
-355 -387 0
-355 -388 0
-355 -389 0
-355 -390 0
-355 -391 0
-355 -392 0
-355 -393 0
-355 -394 0
-355 -395 0
-355 -396 0
-355 -397 0
-355 -398 0
-355 -399 0
-355 -400 0
-355 -401 0
-355 -402 0
-355 -403 0
-355 -404 0
-355 -405 0
-355 -406 0
-355 -407 0
-355 -408 0
-355 -409 0
-355 -410 0
-355 -411 0
-355 -412 0
-355 -413 0
-355 -414 0
-355 -415 0
-355 -416 0
-355 -417 0
-355 -418 0
-355 -419 0
-355 -420 0
-355 -421 0
-355 -422 0
-355 -423 0
-355 -424 0
-356 -357 0
-356 -358 0
-356 -359 0
-356 -360 0
-356 -361 0
-356 -362 0
-356 -363 0
-356 -364 0
-356 -365 0
-356 -366 0
-356 -367 0
-356 -368 0
-356 -369 0
-356 -370 0
-356 -371 0
-356 -372 0
-356 -373 0
-356 -374 0
-356 -375 0
-356 -376 0
-356 -377 0
-356 -378 0
-356 -379 0
-356 -380 0
-356 -381 0
-356 -382 0
-356 -383 0
-356 -384 0
-356 -385 0
-356 -386 0
-356 -387 0
-356 -388 0
-356 -389 0
-356 -390 0
-356 -391 0
-356 -392 0
-356 -393 0
-356 -394 0
-356 -395 0
-356 -396 0
-356 -397 0
-356 -398 0
-356 -399 0
-356 -400 0
-356 -401 0
-356 -402 0
-356 -403 0
-356 -404 0
-356 -405 0
-356 -406 0
-356 -407 0
-356 -408 0
-356 -409 0
-356 -410 0
-356 -411 0
-356 -412 0
-356 -413 0
-356 -414 0
-356 -415 0
-356 -416 0
-356 -417 0
-356 -418 0
-356 -419 0
-356 -420 0
-356 -421 0
-356 -422 0
-356 -423 0
-356 -424 0
-357 -358 0
-357 -359 0
-357 -360 0
-357 -361 0
-357 -362 0
-357 -363 0
-357 -364 0
-357 -365 0
-357 -366 0
-357 -367 0
-357 -368 0
-357 -369 0
-357 -370 0
-357 -371 0
-357 -372 0
-357 -373 0
-357 -374 0
-357 -375 0
-357 -376 0
-357 -377 0
-357 -378 0
-357 -379 0
-357 -380 0
-357 -381 0
-357 -382 0
-357 -383 0
-357 -384 0
-357 -385 0
-357 -386 0
-357 -387 0
-357 -388 0
-357 -389 0
-357 -390 0
-357 -391 0
-357 -392 0
-357 -393 0
-357 -394 0
-357 -395 0
-357 -396 0
-357 -397 0
-357 -398 0
-357 -399 0
-357 -400 0
-357 -401 0
-357 -402 0
-357 -403 0
-357 -404 0
-357 -405 0
-357 -406 0
-357 -407 0
-357 -408 0
-357 -409 0
-357 -410 0
-357 -411 0
-357 -412 0
-357 -413 0
-357 -414 0
-357 -415 0
-357 -416 0
-357 -417 0
-357 -418 0
-357 -419 0
-357 -420 0
-357 -421 0
-357 -422 0
-357 -423 0
-357 -424 0
-358 -359 0
-358 -360 0
-358 -361 0
-358 -362 0
-358 -363 0
-358 -364 0
-358 -365 0
-358 -366 0
-358 -367 0
-358 -368 0
-358 -369 0
-358 -370 0
-358 -371 0
-358 -372 0
-358 -373 0
-358 -374 0
-358 -375 0
-358 -376 0
-358 -377 0
-358 -378 0
-358 -379 0
-358 -380 0
-358 -381 0
-358 -382 0
-358 -383 0
-358 -384 0
-358 -385 0
-358 -386 0
-358 -387 0
-358 -388 0
-358 -389 0
-358 -390 0
-358 -391 0
-358 -392 0
-358 -393 0
-358 -394 0
-358 -395 0
-358 -396 0
-358 -397 0
-358 -398 0
-358 -399 0
-358 -400 0
-358 -401 0
-358 -402 0
-358 -403 0
-358 -404 0
-358 -405 0
-358 -406 0
-358 -407 0
-358 -408 0
-358 -409 0
-358 -410 0
-358 -411 0
-358 -412 0
-358 -413 0
-358 -414 0
-358 -415 0
-358 -416 0
-358 -417 0
-358 -418 0
-358 -419 0
-358 -420 0
-358 -421 0
-358 -422 0
-358 -423 0
-358 -424 0
-359 -360 0
-359 -361 0
-359 -362 0
-359 -363 0
-359 -364 0
-359 -365 0
-359 -366 0
-359 -367 0
-359 -368 0
-359 -369 0
-359 -370 0
-359 -371 0
-359 -372 0
-359 -373 0
-359 -374 0
-359 -375 0
-359 -376 0
-359 -377 0
-359 -378 0
-359 -379 0
-359 -380 0
-359 -381 0
-359 -382 0
-359 -383 0
-359 -384 0
-359 -385 0
-359 -386 0
-359 -387 0
-359 -388 0
-359 -389 0
-359 -390 0
-359 -391 0
-359 -392 0
-359 -393 0
-359 -394 0
-359 -395 0
-359 -396 0
-359 -397 0
-359 -398 0
-359 -399 0
-359 -400 0
-359 -401 0
-359 -402 0
-359 -403 0
-359 -404 0
-359 -405 0
-359 -406 0
-359 -407 0
-359 -408 0
-359 -409 0
-359 -410 0
-359 -411 0
-359 -412 0
-359 -413 0
-359 -414 0
-359 -415 0
-359 -416 0
-359 -417 0
-359 -418 0
-359 -419 0
-359 -420 0
-359 -421 0
-359 -422 0
-359 -423 0
-359 -424 0
-360 -361 0
-360 -362 0
-360 -363 0
-360 -364 0
-360 -365 0
-360 -366 0
-360 -367 0
-360 -368 0
-360 -369 0
-360 -370 0
-360 -371 0
-360 -372 0
-360 -373 0
-360 -374 0
-360 -375 0
-360 -376 0
-360 -377 0
-360 -378 0
-360 -379 0
-360 -380 0
-360 -381 0
-360 -382 0
-360 -383 0
-360 -384 0
-360 -385 0
-360 -386 0
-360 -387 0
-360 -388 0
-360 -389 0
-360 -390 0
-360 -391 0
-360 -392 0
-360 -393 0
-360 -394 0
-360 -395 0
-360 -396 0
-360 -397 0
-360 -398 0
-360 -399 0
-360 -400 0
-360 -401 0
-360 -402 0
-360 -403 0
-360 -404 0
-360 -405 0
-360 -406 0
-360 -407 0
-360 -408 0
-360 -409 0
-360 -410 0
-360 -411 0
-360 -412 0
-360 -413 0
-360 -414 0
-360 -415 0
-360 -416 0
-360 -417 0
-360 -418 0
-360 -419 0
-360 -420 0
-360 -421 0
-360 -422 0
-360 -423 0
-360 -424 0
-361 -362 0
-361 -363 0
-361 -364 0
-361 -365 0
-361 -366 0
-361 -367 0
-361 -368 0
-361 -369 0
-361 -370 0
-361 -371 0
-361 -372 0
-361 -373 0
-361 -374 0
-361 -375 0
-361 -376 0
-361 -377 0
-361 -378 0
-361 -379 0
-361 -380 0
-361 -381 0
-361 -382 0
-361 -383 0
-361 -384 0
-361 -385 0
-361 -386 0
-361 -387 0
-361 -388 0
-361 -389 0
-361 -390 0
-361 -391 0
-361 -392 0
-361 -393 0
-361 -394 0
-361 -395 0
-361 -396 0
-361 -397 0
-361 -398 0
-361 -399 0
-361 -400 0
-361 -401 0
-361 -402 0
-361 -403 0
-361 -404 0
-361 -405 0
-361 -406 0
-361 -407 0
-361 -408 0
-361 -409 0
-361 -410 0
-361 -411 0
-361 -412 0
-361 -413 0
-361 -414 0
-361 -415 0
-361 -416 0
-361 -417 0
-361 -418 0
-361 -419 0
-361 -420 0
-361 -421 0
-361 -422 0
-361 -423 0
-361 -424 0
-362 -363 0
-362 -364 0
-362 -365 0
-362 -366 0
-362 -367 0
-362 -368 0
-362 -369 0
-362 -370 0
-362 -371 0
-362 -372 0
-362 -373 0
-362 -374 0
-362 -375 0
-362 -376 0
-362 -377 0
-362 -378 0
-362 -379 0
-362 -380 0
-362 -381 0
-362 -382 0
-362 -383 0
-362 -384 0
-362 -385 0
-362 -386 0
-362 -387 0
-362 -388 0
-362 -389 0
-362 -390 0
-362 -391 0
-362 -392 0
-362 -393 0
-362 -394 0
-362 -395 0
-362 -396 0
-362 -397 0
-362 -398 0
-362 -399 0
-362 -400 0
-362 -401 0
-362 -402 0
-362 -403 0
-362 -404 0
-362 -405 0
-362 -406 0
-362 -407 0
-362 -408 0
-362 -409 0
-362 -410 0
-362 -411 0
-362 -412 0
-362 -413 0
-362 -414 0
-362 -415 0
-362 -416 0
-362 -417 0
-362 -418 0
-362 -419 0
-362 -420 0
-362 -421 0
-362 -422 0
-362 -423 0
-362 -424 0
-363 -364 0
-363 -365 0
-363 -366 0
-363 -367 0
-363 -368 0
-363 -369 0
-363 -370 0
-363 -371 0
-363 -372 0
-363 -373 0
-363 -374 0
-363 -375 0
-363 -376 0
-363 -377 0
-363 -378 0
-363 -379 0
-363 -380 0
-363 -381 0
-363 -382 0
-363 -383 0
-363 -384 0
-363 -385 0
-363 -386 0
-363 -387 0
-363 -388 0
-363 -389 0
-363 -390 0
-363 -391 0
-363 -392 0
-363 -393 0
-363 -394 0
-363 -395 0
-363 -396 0
-363 -397 0
-363 -398 0
-363 -399 0
-363 -400 0
-363 -401 0
-363 -402 0
-363 -403 0
-363 -404 0
-363 -405 0
-363 -406 0
-363 -407 0
-363 -408 0
-363 -409 0
-363 -410 0
-363 -411 0
-363 -412 0
-363 -413 0
-363 -414 0
-363 -415 0
-363 -416 0
-363 -417 0
-363 -418 0
-363 -419 0
-363 -420 0
-363 -421 0
-363 -422 0
-363 -423 0
-363 -424 0
-364 -365 0
-364 -366 0
-364 -367 0
-364 -368 0
-364 -369 0
-364 -370 0
-364 -371 0
-364 -372 0
-364 -373 0
-364 -374 0
-364 -375 0
-364 -376 0
-364 -377 0
-364 -378 0
-364 -379 0
-364 -380 0
-364 -381 0
-364 -382 0
-364 -383 0
-364 -384 0
-364 -385 0
-364 -386 0
-364 -387 0
-364 -388 0
-364 -389 0
-364 -390 0
-364 -391 0
-364 -392 0
-364 -393 0
-364 -394 0
-364 -395 0
-364 -396 0
-364 -397 0
-364 -398 0
-364 -399 0
-364 -400 0
-364 -401 0
-364 -402 0
-364 -403 0
-364 -404 0
-364 -405 0
-364 -406 0
-364 -407 0
-364 -408 0
-364 -409 0
-364 -410 0
-364 -411 0
-364 -412 0
-364 -413 0
-364 -414 0
-364 -415 0
-364 -416 0
-364 -417 0
-364 -418 0
-364 -419 0
-364 -420 0
-364 -421 0
-364 -422 0
-364 -423 0
-364 -424 0
-365 -366 0
-365 -367 0
-365 -368 0
-365 -369 0
-365 -370 0
-365 -371 0
-365 -372 0
-365 -373 0
-365 -374 0
-365 -375 0
-365 -376 0
-365 -377 0
-365 -378 0
-365 -379 0
-365 -380 0
-365 -381 0
-365 -382 0
-365 -383 0
-365 -384 0
-365 -385 0
-365 -386 0
-365 -387 0
-365 -388 0
-365 -389 0
-365 -390 0
-365 -391 0
-365 -392 0
-365 -393 0
-365 -394 0
-365 -395 0
-365 -396 0
-365 -397 0
-365 -398 0
-365 -399 0
-365 -400 0
-365 -401 0
-365 -402 0
-365 -403 0
-365 -404 0
-365 -405 0
-365 -406 0
-365 -407 0
-365 -408 0
-365 -409 0
-365 -410 0
-365 -411 0
-365 -412 0
-365 -413 0
-365 -414 0
-365 -415 0
-365 -416 0
-365 -417 0
-365 -418 0
-365 -419 0
-365 -420 0
-365 -421 0
-365 -422 0
-365 -423 0
-365 -424 0
-366 -367 0
-366 -368 0
-366 -369 0
-366 -370 0
-366 -371 0
-366 -372 0
-366 -373 0
-366 -374 0
-366 -375 0
-366 -376 0
-366 -377 0
-366 -378 0
-366 -379 0
-366 -380 0
-366 -381 0
-366 -382 0
-366 -383 0
-366 -384 0
-366 -385 0
-366 -386 0
-366 -387 0
-366 -388 0
-366 -389 0
-366 -390 0
-366 -391 0
-366 -392 0
-366 -393 0
-366 -394 0
-366 -395 0
-366 -396 0
-366 -397 0
-366 -398 0
-366 -399 0
-366 -400 0
-366 -401 0
-366 -402 0
-366 -403 0
-366 -404 0
-366 -405 0
-366 -406 0
-366 -407 0
-366 -408 0
-366 -409 0
-366 -410 0
-366 -411 0
-366 -412 0
-366 -413 0
-366 -414 0
-366 -415 0
-366 -416 0
-366 -417 0
-366 -418 0
-366 -419 0
-366 -420 0
-366 -421 0
-366 -422 0
-366 -423 0
-366 -424 0
-367 -368 0
-367 -369 0
-367 -370 0
-367 -371 0
-367 -372 0
-367 -373 0
-367 -374 0
-367 -375 0
-367 -376 0
-367 -377 0
-367 -378 0
-367 -379 0
-367 -380 0
-367 -381 0
-367 -382 0
-367 -383 0
-367 -384 0
-367 -385 0
-367 -386 0
-367 -387 0
-367 -388 0
-367 -389 0
-367 -390 0
-367 -391 0
-367 -392 0
-367 -393 0
-367 -394 0
-367 -395 0
-367 -396 0
-367 -397 0
-367 -398 0
-367 -399 0
-367 -400 0
-367 -401 0
-367 -402 0
-367 -403 0
-367 -404 0
-367 -405 0
-367 -406 0
-367 -407 0
-367 -408 0
-367 -409 0
-367 -410 0
-367 -411 0
-367 -412 0
-367 -413 0
-367 -414 0
-367 -415 0
-367 -416 0
-367 -417 0
-367 -418 0
-367 -419 0
-367 -420 0
-367 -421 0
-367 -422 0
-367 -423 0
-367 -424 0
-368 -369 0
-368 -370 0
-368 -371 0
-368 -372 0
-368 -373 0
-368 -374 0
-368 -375 0
-368 -376 0
-368 -377 0
-368 -378 0
-368 -379 0
-368 -380 0
-368 -381 0
-368 -382 0
-368 -383 0
-368 -384 0
-368 -385 0
-368 -386 0
-368 -387 0
-368 -388 0
-368 -389 0
-368 -390 0
-368 -391 0
-368 -392 0
-368 -393 0
-368 -394 0
-368 -395 0
-368 -396 0
-368 -397 0
-368 -398 0
-368 -399 0
-368 -400 0
-368 -401 0
-368 -402 0
-368 -403 0
-368 -404 0
-368 -405 0
-368 -406 0
-368 -407 0
-368 -408 0
-368 -409 0
-368 -410 0
-368 -411 0
-368 -412 0
-368 -413 0
-368 -414 0
-368 -415 0
-368 -416 0
-368 -417 0
-368 -418 0
-368 -419 0
-368 -420 0
-368 -421 0
-368 -422 0
-368 -423 0
-368 -424 0
-369 -370 0
-369 -371 0
-369 -372 0
-369 -373 0
-369 -374 0
-369 -375 0
-369 -376 0
-369 -377 0
-369 -378 0
-369 -379 0
-369 -380 0
-369 -381 0
-369 -382 0
-369 -383 0
-369 -384 0
-369 -385 0
-369 -386 0
-369 -387 0
-369 -388 0
-369 -389 0
-369 -390 0
-369 -391 0
-369 -392 0
-369 -393 0
-369 -394 0
-369 -395 0
-369 -396 0
-369 -397 0
-369 -398 0
-369 -399 0
-369 -400 0
-369 -401 0
-369 -402 0
-369 -403 0
-369 -404 0
-369 -405 0
-369 -406 0
-369 -407 0
-369 -408 0
-369 -409 0
-369 -410 0
-369 -411 0
-369 -412 0
-369 -413 0
-369 -414 0
-369 -415 0
-369 -416 0
-369 -417 0
-369 -418 0
-369 -419 0
-369 -420 0
-369 -421 0
-369 -422 0
-369 -423 0
-369 -424 0
-370 -371 0
-370 -372 0
-370 -373 0
-370 -374 0
-370 -375 0
-370 -376 0
-370 -377 0
-370 -378 0
-370 -379 0
-370 -380 0
-370 -381 0
-370 -382 0
-370 -383 0
-370 -384 0
-370 -385 0
-370 -386 0
-370 -387 0
-370 -388 0
-370 -389 0
-370 -390 0
-370 -391 0
-370 -392 0
-370 -393 0
-370 -394 0
-370 -395 0
-370 -396 0
-370 -397 0
-370 -398 0
-370 -399 0
-370 -400 0
-370 -401 0
-370 -402 0
-370 -403 0
-370 -404 0
-370 -405 0
-370 -406 0
-370 -407 0
-370 -408 0
-370 -409 0
-370 -410 0
-370 -411 0
-370 -412 0
-370 -413 0
-370 -414 0
-370 -415 0
-370 -416 0
-370 -417 0
-370 -418 0
-370 -419 0
-370 -420 0
-370 -421 0
-370 -422 0
-370 -423 0
-370 -424 0
-371 -372 0
-371 -373 0
-371 -374 0
-371 -375 0
-371 -376 0
-371 -377 0
-371 -378 0
-371 -379 0
-371 -380 0
-371 -381 0
-371 -382 0
-371 -383 0
-371 -384 0
-371 -385 0
-371 -386 0
-371 -387 0
-371 -388 0
-371 -389 0
-371 -390 0
-371 -391 0
-371 -392 0
-371 -393 0
-371 -394 0
-371 -395 0
-371 -396 0
-371 -397 0
-371 -398 0
-371 -399 0
-371 -400 0
-371 -401 0
-371 -402 0
-371 -403 0
-371 -404 0
-371 -405 0
-371 -406 0
-371 -407 0
-371 -408 0
-371 -409 0
-371 -410 0
-371 -411 0
-371 -412 0
-371 -413 0
-371 -414 0
-371 -415 0
-371 -416 0
-371 -417 0
-371 -418 0
-371 -419 0
-371 -420 0
-371 -421 0
-371 -422 0
-371 -423 0
-371 -424 0
-372 -373 0
-372 -374 0
-372 -375 0
-372 -376 0
-372 -377 0
-372 -378 0
-372 -379 0
-372 -380 0
-372 -381 0
-372 -382 0
-372 -383 0
-372 -384 0
-372 -385 0
-372 -386 0
-372 -387 0
-372 -388 0
-372 -389 0
-372 -390 0
-372 -391 0
-372 -392 0
-372 -393 0
-372 -394 0
-372 -395 0
-372 -396 0
-372 -397 0
-372 -398 0
-372 -399 0
-372 -400 0
-372 -401 0
-372 -402 0
-372 -403 0
-372 -404 0
-372 -405 0
-372 -406 0
-372 -407 0
-372 -408 0
-372 -409 0
-372 -410 0
-372 -411 0
-372 -412 0
-372 -413 0
-372 -414 0
-372 -415 0
-372 -416 0
-372 -417 0
-372 -418 0
-372 -419 0
-372 -420 0
-372 -421 0
-372 -422 0
-372 -423 0
-372 -424 0
-373 -374 0
-373 -375 0
-373 -376 0
-373 -377 0
-373 -378 0
-373 -379 0
-373 -380 0
-373 -381 0
-373 -382 0
-373 -383 0
-373 -384 0
-373 -385 0
-373 -386 0
-373 -387 0
-373 -388 0
-373 -389 0
-373 -390 0
-373 -391 0
-373 -392 0
-373 -393 0
-373 -394 0
-373 -395 0
-373 -396 0
-373 -397 0
-373 -398 0
-373 -399 0
-373 -400 0
-373 -401 0
-373 -402 0
-373 -403 0
-373 -404 0
-373 -405 0
-373 -406 0
-373 -407 0
-373 -408 0
-373 -409 0
-373 -410 0
-373 -411 0
-373 -412 0
-373 -413 0
-373 -414 0
-373 -415 0
-373 -416 0
-373 -417 0
-373 -418 0
-373 -419 0
-373 -420 0
-373 -421 0
-373 -422 0
-373 -423 0
-373 -424 0
-374 -375 0
-374 -376 0
-374 -377 0
-374 -378 0
-374 -379 0
-374 -380 0
-374 -381 0
-374 -382 0
-374 -383 0
-374 -384 0
-374 -385 0
-374 -386 0
-374 -387 0
-374 -388 0
-374 -389 0
-374 -390 0
-374 -391 0
-374 -392 0
-374 -393 0
-374 -394 0
-374 -395 0
-374 -396 0
-374 -397 0
-374 -398 0
-374 -399 0
-374 -400 0
-374 -401 0
-374 -402 0
-374 -403 0
-374 -404 0
-374 -405 0
-374 -406 0
-374 -407 0
-374 -408 0
-374 -409 0
-374 -410 0
-374 -411 0
-374 -412 0
-374 -413 0
-374 -414 0
-374 -415 0
-374 -416 0
-374 -417 0
-374 -418 0
-374 -419 0
-374 -420 0
-374 -421 0
-374 -422 0
-374 -423 0
-374 -424 0
-375 -376 0
-375 -377 0
-375 -378 0
-375 -379 0
-375 -380 0
-375 -381 0
-375 -382 0
-375 -383 0
-375 -384 0
-375 -385 0
-375 -386 0
-375 -387 0
-375 -388 0
-375 -389 0
-375 -390 0
-375 -391 0
-375 -392 0
-375 -393 0
-375 -394 0
-375 -395 0
-375 -396 0
-375 -397 0
-375 -398 0
-375 -399 0
-375 -400 0
-375 -401 0
-375 -402 0
-375 -403 0
-375 -404 0
-375 -405 0
-375 -406 0
-375 -407 0
-375 -408 0
-375 -409 0
-375 -410 0
-375 -411 0
-375 -412 0
-375 -413 0
-375 -414 0
-375 -415 0
-375 -416 0
-375 -417 0
-375 -418 0
-375 -419 0
-375 -420 0
-375 -421 0
-375 -422 0
-375 -423 0
-375 -424 0
-376 -377 0
-376 -378 0
-376 -379 0
-376 -380 0
-376 -381 0
-376 -382 0
-376 -383 0
-376 -384 0
-376 -385 0
-376 -386 0
-376 -387 0
-376 -388 0
-376 -389 0
-376 -390 0
-376 -391 0
-376 -392 0
-376 -393 0
-376 -394 0
-376 -395 0
-376 -396 0
-376 -397 0
-376 -398 0
-376 -399 0
-376 -400 0
-376 -401 0
-376 -402 0
-376 -403 0
-376 -404 0
-376 -405 0
-376 -406 0
-376 -407 0
-376 -408 0
-376 -409 0
-376 -410 0
-376 -411 0
-376 -412 0
-376 -413 0
-376 -414 0
-376 -415 0
-376 -416 0
-376 -417 0
-376 -418 0
-376 -419 0
-376 -420 0
-376 -421 0
-376 -422 0
-376 -423 0
-376 -424 0
-377 -378 0
-377 -379 0
-377 -380 0
-377 -381 0
-377 -382 0
-377 -383 0
-377 -384 0
-377 -385 0
-377 -386 0
-377 -387 0
-377 -388 0
-377 -389 0
-377 -390 0
-377 -391 0
-377 -392 0
-377 -393 0
-377 -394 0
-377 -395 0
-377 -396 0
-377 -397 0
-377 -398 0
-377 -399 0
-377 -400 0
-377 -401 0
-377 -402 0
-377 -403 0
-377 -404 0
-377 -405 0
-377 -406 0
-377 -407 0
-377 -408 0
-377 -409 0
-377 -410 0
-377 -411 0
-377 -412 0
-377 -413 0
-377 -414 0
-377 -415 0
-377 -416 0
-377 -417 0
-377 -418 0
-377 -419 0
-377 -420 0
-377 -421 0
-377 -422 0
-377 -423 0
-377 -424 0
-378 -379 0
-378 -380 0
-378 -381 0
-378 -382 0
-378 -383 0
-378 -384 0
-378 -385 0
-378 -386 0
-378 -387 0
-378 -388 0
-378 -389 0
-378 -390 0
-378 -391 0
-378 -392 0
-378 -393 0
-378 -394 0
-378 -395 0
-378 -396 0
-378 -397 0
-378 -398 0
-378 -399 0
-378 -400 0
-378 -401 0
-378 -402 0
-378 -403 0
-378 -404 0
-378 -405 0
-378 -406 0
-378 -407 0
-378 -408 0
-378 -409 0
-378 -410 0
-378 -411 0
-378 -412 0
-378 -413 0
-378 -414 0
-378 -415 0
-378 -416 0
-378 -417 0
-378 -418 0
-378 -419 0
-378 -420 0
-378 -421 0
-378 -422 0
-378 -423 0
-378 -424 0
-379 -380 0
-379 -381 0
-379 -382 0
-379 -383 0
-379 -384 0
-379 -385 0
-379 -386 0
-379 -387 0
-379 -388 0
-379 -389 0
-379 -390 0
-379 -391 0
-379 -392 0
-379 -393 0
-379 -394 0
-379 -395 0
-379 -396 0
-379 -397 0
-379 -398 0
-379 -399 0
-379 -400 0
-379 -401 0
-379 -402 0
-379 -403 0
-379 -404 0
-379 -405 0
-379 -406 0
-379 -407 0
-379 -408 0
-379 -409 0
-379 -410 0
-379 -411 0
-379 -412 0
-379 -413 0
-379 -414 0
-379 -415 0
-379 -416 0
-379 -417 0
-379 -418 0
-379 -419 0
-379 -420 0
-379 -421 0
-379 -422 0
-379 -423 0
-379 -424 0
-380 -381 0
-380 -382 0
-380 -383 0
-380 -384 0
-380 -385 0
-380 -386 0
-380 -387 0
-380 -388 0
-380 -389 0
-380 -390 0
-380 -391 0
-380 -392 0
-380 -393 0
-380 -394 0
-380 -395 0
-380 -396 0
-380 -397 0
-380 -398 0
-380 -399 0
-380 -400 0
-380 -401 0
-380 -402 0
-380 -403 0
-380 -404 0
-380 -405 0
-380 -406 0
-380 -407 0
-380 -408 0
-380 -409 0
-380 -410 0
-380 -411 0
-380 -412 0
-380 -413 0
-380 -414 0
-380 -415 0
-380 -416 0
-380 -417 0
-380 -418 0
-380 -419 0
-380 -420 0
-380 -421 0
-380 -422 0
-380 -423 0
-380 -424 0
-381 -382 0
-381 -383 0
-381 -384 0
-381 -385 0
-381 -386 0
-381 -387 0
-381 -388 0
-381 -389 0
-381 -390 0
-381 -391 0
-381 -392 0
-381 -393 0
-381 -394 0
-381 -395 0
-381 -396 0
-381 -397 0
-381 -398 0
-381 -399 0
-381 -400 0
-381 -401 0
-381 -402 0
-381 -403 0
-381 -404 0
-381 -405 0
-381 -406 0
-381 -407 0
-381 -408 0
-381 -409 0
-381 -410 0
-381 -411 0
-381 -412 0
-381 -413 0
-381 -414 0
-381 -415 0
-381 -416 0
-381 -417 0
-381 -418 0
-381 -419 0
-381 -420 0
-381 -421 0
-381 -422 0
-381 -423 0
-381 -424 0
-382 -383 0
-382 -384 0
-382 -385 0
-382 -386 0
-382 -387 0
-382 -388 0
-382 -389 0
-382 -390 0
-382 -391 0
-382 -392 0
-382 -393 0
-382 -394 0
-382 -395 0
-382 -396 0
-382 -397 0
-382 -398 0
-382 -399 0
-382 -400 0
-382 -401 0
-382 -402 0
-382 -403 0
-382 -404 0
-382 -405 0
-382 -406 0
-382 -407 0
-382 -408 0
-382 -409 0
-382 -410 0
-382 -411 0
-382 -412 0
-382 -413 0
-382 -414 0
-382 -415 0
-382 -416 0
-382 -417 0
-382 -418 0
-382 -419 0
-382 -420 0
-382 -421 0
-382 -422 0
-382 -423 0
-382 -424 0
-383 -384 0
-383 -385 0
-383 -386 0
-383 -387 0
-383 -388 0
-383 -389 0
-383 -390 0
-383 -391 0
-383 -392 0
-383 -393 0
-383 -394 0
-383 -395 0
-383 -396 0
-383 -397 0
-383 -398 0
-383 -399 0
-383 -400 0
-383 -401 0
-383 -402 0
-383 -403 0
-383 -404 0
-383 -405 0
-383 -406 0
-383 -407 0
-383 -408 0
-383 -409 0
-383 -410 0
-383 -411 0
-383 -412 0
-383 -413 0
-383 -414 0
-383 -415 0
-383 -416 0
-383 -417 0
-383 -418 0
-383 -419 0
-383 -420 0
-383 -421 0
-383 -422 0
-383 -423 0
-383 -424 0
-384 -385 0
-384 -386 0
-384 -387 0
-384 -388 0
-384 -389 0
-384 -390 0
-384 -391 0
-384 -392 0
-384 -393 0
-384 -394 0
-384 -395 0
-384 -396 0
-384 -397 0
-384 -398 0
-384 -399 0
-384 -400 0
-384 -401 0
-384 -402 0
-384 -403 0
-384 -404 0
-384 -405 0
-384 -406 0
-384 -407 0
-384 -408 0
-384 -409 0
-384 -410 0
-384 -411 0
-384 -412 0
-384 -413 0
-384 -414 0
-384 -415 0
-384 -416 0
-384 -417 0
-384 -418 0
-384 -419 0
-384 -420 0
-384 -421 0
-384 -422 0
-384 -423 0
-384 -424 0
-385 -386 0
-385 -387 0
-385 -388 0
-385 -389 0
-385 -390 0
-385 -391 0
-385 -392 0
-385 -393 0
-385 -394 0
-385 -395 0
-385 -396 0
-385 -397 0
-385 -398 0
-385 -399 0
-385 -400 0
-385 -401 0
-385 -402 0
-385 -403 0
-385 -404 0
-385 -405 0
-385 -406 0
-385 -407 0
-385 -408 0
-385 -409 0
-385 -410 0
-385 -411 0
-385 -412 0
-385 -413 0
-385 -414 0
-385 -415 0
-385 -416 0
-385 -417 0
-385 -418 0
-385 -419 0
-385 -420 0
-385 -421 0
-385 -422 0
-385 -423 0
-385 -424 0
-386 -387 0
-386 -388 0
-386 -389 0
-386 -390 0
-386 -391 0
-386 -392 0
-386 -393 0
-386 -394 0
-386 -395 0
-386 -396 0
-386 -397 0
-386 -398 0
-386 -399 0
-386 -400 0
-386 -401 0
-386 -402 0
-386 -403 0
-386 -404 0
-386 -405 0
-386 -406 0
-386 -407 0
-386 -408 0
-386 -409 0
-386 -410 0
-386 -411 0
-386 -412 0
-386 -413 0
-386 -414 0
-386 -415 0
-386 -416 0
-386 -417 0
-386 -418 0
-386 -419 0
-386 -420 0
-386 -421 0
-386 -422 0
-386 -423 0
-386 -424 0
-387 -388 0
-387 -389 0
-387 -390 0
-387 -391 0
-387 -392 0
-387 -393 0
-387 -394 0
-387 -395 0
-387 -396 0
-387 -397 0
-387 -398 0
-387 -399 0
-387 -400 0
-387 -401 0
-387 -402 0
-387 -403 0
-387 -404 0
-387 -405 0
-387 -406 0
-387 -407 0
-387 -408 0
-387 -409 0
-387 -410 0
-387 -411 0
-387 -412 0
-387 -413 0
-387 -414 0
-387 -415 0
-387 -416 0
-387 -417 0
-387 -418 0
-387 -419 0
-387 -420 0
-387 -421 0
-387 -422 0
-387 -423 0
-387 -424 0
-388 -389 0
-388 -390 0
-388 -391 0
-388 -392 0
-388 -393 0
-388 -394 0
-388 -395 0
-388 -396 0
-388 -397 0
-388 -398 0
-388 -399 0
-388 -400 0
-388 -401 0
-388 -402 0
-388 -403 0
-388 -404 0
-388 -405 0
-388 -406 0
-388 -407 0
-388 -408 0
-388 -409 0
-388 -410 0
-388 -411 0
-388 -412 0
-388 -413 0
-388 -414 0
-388 -415 0
-388 -416 0
-388 -417 0
-388 -418 0
-388 -419 0
-388 -420 0
-388 -421 0
-388 -422 0
-388 -423 0
-388 -424 0
-389 -390 0
-389 -391 0
-389 -392 0
-389 -393 0
-389 -394 0
-389 -395 0
-389 -396 0
-389 -397 0
-389 -398 0
-389 -399 0
-389 -400 0
-389 -401 0
-389 -402 0
-389 -403 0
-389 -404 0
-389 -405 0
-389 -406 0
-389 -407 0
-389 -408 0
-389 -409 0
-389 -410 0
-389 -411 0
-389 -412 0
-389 -413 0
-389 -414 0
-389 -415 0
-389 -416 0
-389 -417 0
-389 -418 0
-389 -419 0
-389 -420 0
-389 -421 0
-389 -422 0
-389 -423 0
-389 -424 0
-390 -391 0
-390 -392 0
-390 -393 0
-390 -394 0
-390 -395 0
-390 -396 0
-390 -397 0
-390 -398 0
-390 -399 0
-390 -400 0
-390 -401 0
-390 -402 0
-390 -403 0
-390 -404 0
-390 -405 0
-390 -406 0
-390 -407 0
-390 -408 0
-390 -409 0
-390 -410 0
-390 -411 0
-390 -412 0
-390 -413 0
-390 -414 0
-390 -415 0
-390 -416 0
-390 -417 0
-390 -418 0
-390 -419 0
-390 -420 0
-390 -421 0
-390 -422 0
-390 -423 0
-390 -424 0
-391 -392 0
-391 -393 0
-391 -394 0
-391 -395 0
-391 -396 0
-391 -397 0
-391 -398 0
-391 -399 0
-391 -400 0
-391 -401 0
-391 -402 0
-391 -403 0
-391 -404 0
-391 -405 0
-391 -406 0
-391 -407 0
-391 -408 0
-391 -409 0
-391 -410 0
-391 -411 0
-391 -412 0
-391 -413 0
-391 -414 0
-391 -415 0
-391 -416 0
-391 -417 0
-391 -418 0
-391 -419 0
-391 -420 0
-391 -421 0
-391 -422 0
-391 -423 0
-391 -424 0
-392 -393 0
-392 -394 0
-392 -395 0
-392 -396 0
-392 -397 0
-392 -398 0
-392 -399 0
-392 -400 0
-392 -401 0
-392 -402 0
-392 -403 0
-392 -404 0
-392 -405 0
-392 -406 0
-392 -407 0
-392 -408 0
-392 -409 0
-392 -410 0
-392 -411 0
-392 -412 0
-392 -413 0
-392 -414 0
-392 -415 0
-392 -416 0
-392 -417 0
-392 -418 0
-392 -419 0
-392 -420 0
-392 -421 0
-392 -422 0
-392 -423 0
-392 -424 0
-393 -394 0
-393 -395 0
-393 -396 0
-393 -397 0
-393 -398 0
-393 -399 0
-393 -400 0
-393 -401 0
-393 -402 0
-393 -403 0
-393 -404 0
-393 -405 0
-393 -406 0
-393 -407 0
-393 -408 0
-393 -409 0
-393 -410 0
-393 -411 0
-393 -412 0
-393 -413 0
-393 -414 0
-393 -415 0
-393 -416 0
-393 -417 0
-393 -418 0
-393 -419 0
-393 -420 0
-393 -421 0
-393 -422 0
-393 -423 0
-393 -424 0
-394 -395 0
-394 -396 0
-394 -397 0
-394 -398 0
-394 -399 0
-394 -400 0
-394 -401 0
-394 -402 0
-394 -403 0
-394 -404 0
-394 -405 0
-394 -406 0
-394 -407 0
-394 -408 0
-394 -409 0
-394 -410 0
-394 -411 0
-394 -412 0
-394 -413 0
-394 -414 0
-394 -415 0
-394 -416 0
-394 -417 0
-394 -418 0
-394 -419 0
-394 -420 0
-394 -421 0
-394 -422 0
-394 -423 0
-394 -424 0
-395 -396 0
-395 -397 0
-395 -398 0
-395 -399 0
-395 -400 0
-395 -401 0
-395 -402 0
-395 -403 0
-395 -404 0
-395 -405 0
-395 -406 0
-395 -407 0
-395 -408 0
-395 -409 0
-395 -410 0
-395 -411 0
-395 -412 0
-395 -413 0
-395 -414 0
-395 -415 0
-395 -416 0
-395 -417 0
-395 -418 0
-395 -419 0
-395 -420 0
-395 -421 0
-395 -422 0
-395 -423 0
-395 -424 0
-396 -397 0
-396 -398 0
-396 -399 0
-396 -400 0
-396 -401 0
-396 -402 0
-396 -403 0
-396 -404 0
-396 -405 0
-396 -406 0
-396 -407 0
-396 -408 0
-396 -409 0
-396 -410 0
-396 -411 0
-396 -412 0
-396 -413 0
-396 -414 0
-396 -415 0
-396 -416 0
-396 -417 0
-396 -418 0
-396 -419 0
-396 -420 0
-396 -421 0
-396 -422 0
-396 -423 0
-396 -424 0
-397 -398 0
-397 -399 0
-397 -400 0
-397 -401 0
-397 -402 0
-397 -403 0
-397 -404 0
-397 -405 0
-397 -406 0
-397 -407 0
-397 -408 0
-397 -409 0
-397 -410 0
-397 -411 0
-397 -412 0
-397 -413 0
-397 -414 0
-397 -415 0
-397 -416 0
-397 -417 0
-397 -418 0
-397 -419 0
-397 -420 0
-397 -421 0
-397 -422 0
-397 -423 0
-397 -424 0
-398 -399 0
-398 -400 0
-398 -401 0
-398 -402 0
-398 -403 0
-398 -404 0
-398 -405 0
-398 -406 0
-398 -407 0
-398 -408 0
-398 -409 0
-398 -410 0
-398 -411 0
-398 -412 0
-398 -413 0
-398 -414 0
-398 -415 0
-398 -416 0
-398 -417 0
-398 -418 0
-398 -419 0
-398 -420 0
-398 -421 0
-398 -422 0
-398 -423 0
-398 -424 0
-399 -400 0
-399 -401 0
-399 -402 0
-399 -403 0
-399 -404 0
-399 -405 0
-399 -406 0
-399 -407 0
-399 -408 0
-399 -409 0
-399 -410 0
-399 -411 0
-399 -412 0
-399 -413 0
-399 -414 0
-399 -415 0
-399 -416 0
-399 -417 0
-399 -418 0
-399 -419 0
-399 -420 0
-399 -421 0
-399 -422 0
-399 -423 0
-399 -424 0
-400 -401 0
-400 -402 0
-400 -403 0
-400 -404 0
-400 -405 0
-400 -406 0
-400 -407 0
-400 -408 0
-400 -409 0
-400 -410 0
-400 -411 0
-400 -412 0
-400 -413 0
-400 -414 0
-400 -415 0
-400 -416 0
-400 -417 0
-400 -418 0
-400 -419 0
-400 -420 0
-400 -421 0
-400 -422 0
-400 -423 0
-400 -424 0
-401 -402 0
-401 -403 0
-401 -404 0
-401 -405 0
-401 -406 0
-401 -407 0
-401 -408 0
-401 -409 0
-401 -410 0
-401 -411 0
-401 -412 0
-401 -413 0
-401 -414 0
-401 -415 0
-401 -416 0
-401 -417 0
-401 -418 0
-401 -419 0
-401 -420 0
-401 -421 0
-401 -422 0
-401 -423 0
-401 -424 0
-402 -403 0
-402 -404 0
-402 -405 0
-402 -406 0
-402 -407 0
-402 -408 0
-402 -409 0
-402 -410 0
-402 -411 0
-402 -412 0
-402 -413 0
-402 -414 0
-402 -415 0
-402 -416 0
-402 -417 0
-402 -418 0
-402 -419 0
-402 -420 0
-402 -421 0
-402 -422 0
-402 -423 0
-402 -424 0
-403 -404 0
-403 -405 0
-403 -406 0
-403 -407 0
-403 -408 0
-403 -409 0
-403 -410 0
-403 -411 0
-403 -412 0
-403 -413 0
-403 -414 0
-403 -415 0
-403 -416 0
-403 -417 0
-403 -418 0
-403 -419 0
-403 -420 0
-403 -421 0
-403 -422 0
-403 -423 0
-403 -424 0
-404 -405 0
-404 -406 0
-404 -407 0
-404 -408 0
-404 -409 0
-404 -410 0
-404 -411 0
-404 -412 0
-404 -413 0
-404 -414 0
-404 -415 0
-404 -416 0
-404 -417 0
-404 -418 0
-404 -419 0
-404 -420 0
-404 -421 0
-404 -422 0
-404 -423 0
-404 -424 0
-405 -406 0
-405 -407 0
-405 -408 0
-405 -409 0
-405 -410 0
-405 -411 0
-405 -412 0
-405 -413 0
-405 -414 0
-405 -415 0
-405 -416 0
-405 -417 0
-405 -418 0
-405 -419 0
-405 -420 0
-405 -421 0
-405 -422 0
-405 -423 0
-405 -424 0
-406 -407 0
-406 -408 0
-406 -409 0
-406 -410 0
-406 -411 0
-406 -412 0
-406 -413 0
-406 -414 0
-406 -415 0
-406 -416 0
-406 -417 0
-406 -418 0
-406 -419 0
-406 -420 0
-406 -421 0
-406 -422 0
-406 -423 0
-406 -424 0
-407 -408 0
-407 -409 0
-407 -410 0
-407 -411 0
-407 -412 0
-407 -413 0
-407 -414 0
-407 -415 0
-407 -416 0
-407 -417 0
-407 -418 0
-407 -419 0
-407 -420 0
-407 -421 0
-407 -422 0
-407 -423 0
-407 -424 0
-408 -409 0
-408 -410 0
-408 -411 0
-408 -412 0
-408 -413 0
-408 -414 0
-408 -415 0
-408 -416 0
-408 -417 0
-408 -418 0
-408 -419 0
-408 -420 0
-408 -421 0
-408 -422 0
-408 -423 0
-408 -424 0
-409 -410 0
-409 -411 0
-409 -412 0
-409 -413 0
-409 -414 0
-409 -415 0
-409 -416 0
-409 -417 0
-409 -418 0
-409 -419 0
-409 -420 0
-409 -421 0
-409 -422 0
-409 -423 0
-409 -424 0
-410 -411 0
-410 -412 0
-410 -413 0
-410 -414 0
-410 -415 0
-410 -416 0
-410 -417 0
-410 -418 0
-410 -419 0
-410 -420 0
-410 -421 0
-410 -422 0
-410 -423 0
-410 -424 0
-411 -412 0
-411 -413 0
-411 -414 0
-411 -415 0
-411 -416 0
-411 -417 0
-411 -418 0
-411 -419 0
-411 -420 0
-411 -421 0
-411 -422 0
-411 -423 0
-411 -424 0
-412 -413 0
-412 -414 0
-412 -415 0
-412 -416 0
-412 -417 0
-412 -418 0
-412 -419 0
-412 -420 0
-412 -421 0
-412 -422 0
-412 -423 0
-412 -424 0
-413 -414 0
-413 -415 0
-413 -416 0
-413 -417 0
-413 -418 0
-413 -419 0
-413 -420 0
-413 -421 0
-413 -422 0
-413 -423 0
-413 -424 0
-414 -415 0
-414 -416 0
-414 -417 0
-414 -418 0
-414 -419 0
-414 -420 0
-414 -421 0
-414 -422 0
-414 -423 0
-414 -424 0
-415 -416 0
-415 -417 0
-415 -418 0
-415 -419 0
-415 -420 0
-415 -421 0
-415 -422 0
-415 -423 0
-415 -424 0
-416 -417 0
-416 -418 0
-416 -419 0
-416 -420 0
-416 -421 0
-416 -422 0
-416 -423 0
-416 -424 0
-417 -418 0
-417 -419 0
-417 -420 0
-417 -421 0
-417 -422 0
-417 -423 0
-417 -424 0
-418 -419 0
-418 -420 0
-418 -421 0
-418 -422 0
-418 -423 0
-418 -424 0
-419 -420 0
-419 -421 0
-419 -422 0
-419 -423 0
-419 -424 0
-420 -421 0
-420 -422 0
-420 -423 0
-420 -424 0
-421 -422 0
-421 -423 0
-421 -424 0
-422 -423 0
-422 -424 0
-423 -424 0
-313 -97 0
-313 -98 0
-313 -99 0
-313 100 0
-313 -101 0
-313 -102 0
-313 -103 0
-313 104 0
-313 -105 0
-313 -106 0
-313 -107 0
-313 108 0
-313 -109 0
-313 -110 0
-313 -111 0
-313 112 0
-313 -113 0
-313 -114 0
-313 -115 0
-313 116 0
-313 -117 0
-313 -118 0
-313 -119 0
-313 120 0
-313 -121 0
-313 -122 0
-313 -123 0
-313 124 0
-313 -125 0
-313 -126 0
-313 -127 0
-313 128 0
-314 -97 0
-314 98 0
-314 -99 0
-314 -100 0
-314 -101 0
-314 102 0
-314 -103 0
-314 -104 0
-314 -105 0
-314 106 0
-314 -107 0
-314 -108 0
-314 -109 0
-314 110 0
-314 -111 0
-314 -112 0
-314 -113 0
-314 114 0
-314 -115 0
-314 -116 0
-314 -117 0
-314 118 0
-314 -119 0
-314 -120 0
-314 -121 0
-314 122 0
-314 -123 0
-314 -124 0
-314 -125 0
-314 126 0
-314 -127 0
-314 -128 0
-315 -97 0
-315 -98 0
-315 99 0
-315 -100 0
-315 -101 0
-315 -102 0
-315 103 0
-315 -104 0
-315 -105 0
-315 -106 0
-315 107 0
-315 -108 0
-315 -109 0
-315 -110 0
-315 111 0
-315 -112 0
-315 -113 0
-315 -114 0
-315 115 0
-315 -116 0
-315 -117 0
-315 -118 0
-315 119 0
-315 -120 0
-315 -121 0
-315 -122 0
-315 123 0
-315 -124 0
-315 -125 0
-315 -126 0
-315 127 0
-315 -128 0
-316 97 0
-316 -98 0
-316 -99 0
-316 -100 0
-316 101 0
-316 -102 0
-316 -103 0
-316 -104 0
-316 105 0
-316 -106 0
-316 -107 0
-316 -108 0
-316 109 0
-316 -110 0
-316 -111 0
-316 -112 0
-316 113 0
-316 -114 0
-316 -115 0
-316 -116 0
-316 117 0
-316 -118 0
-316 -119 0
-316 -120 0
-316 121 0
-316 -122 0
-316 -123 0
-316 -124 0
-316 125 0
-316 -126 0
-316 -127 0
-316 -128 0
-317 -97 0
-317 -98 0
-317 -99 0
-317 -100 0
-317 -101 0
-317 102 0
-317 -103 0
-317 104 0
-317 -105 0
-317 -106 0
-317 -107 0
-317 -108 0
-317 -109 0
-317 110 0
-317 -111 0
-317 112 0
-317 -113 0
-317 -114 0
-317 -115 0
-317 -116 0
-317 -117 0
-317 118 0
-317 -119 0
-317 120 0
-317 -121 0
-317 -122 0
-317 -123 0
-317 -124 0
-317 -125 0
-317 126 0
-317 -127 0
-317 128 0
-318 -97 0
-318 98 0
-318 -99 0
-318 100 0
-318 -101 0
-318 -102 0
-318 -103 0
-318 -104 0
-318 -105 0
-318 106 0
-318 -107 0
-318 108 0
-318 -109 0
-318 -110 0
-318 -111 0
-318 -112 0
-318 -113 0
-318 114 0
-318 -115 0
-318 116 0
-318 -117 0
-318 -118 0
-318 -119 0
-318 -120 0
-318 -121 0
-318 122 0
-318 -123 0
-318 124 0
-318 -125 0
-318 -126 0
-318 -127 0
-318 -128 0
-319 -97 0
-319 -98 0
-319 -99 0
-319 -100 0
-319 101 0
-319 -102 0
-319 103 0
-319 -104 0
-319 -105 0
-319 -106 0
-319 -107 0
-319 -108 0
-319 109 0
-319 -110 0
-319 111 0
-319 -112 0
-319 -113 0
-319 -114 0
-319 -115 0
-319 -116 0
-319 117 0
-319 -118 0
-319 119 0
-319 -120 0
-319 -121 0
-319 -122 0
-319 -123 0
-319 -124 0
-319 125 0
-319 -126 0
-319 127 0
-319 -128 0
-320 97 0
-320 -98 0
-320 99 0
-320 -100 0
-320 -101 0
-320 -102 0
-320 -103 0
-320 -104 0
-320 105 0
-320 -106 0
-320 107 0
-320 -108 0
-320 -109 0
-320 -110 0
-320 -111 0
-320 -112 0
-320 113 0
-320 -114 0
-320 115 0
-320 -116 0
-320 -117 0
-320 -118 0
-320 -119 0
-320 -120 0
-320 121 0
-320 -122 0
-320 123 0
-320 -124 0
-320 -125 0
-320 -126 0
-320 -127 0
-320 -128 0
-321 -97 0
-321 -98 0
-321 -99 0
-321 -100 0
-321 -101 0
-321 -102 0
-321 -103 0
-321 -104 0
-321 -105 0
-321 106 0
-321 -107 0
-321 108 0
-321 -109 0
-321 110 0
-321 -111 0
-321 112 0
-321 -113 0
-321 -114 0
-321 -115 0
-321 -116 0
-321 -117 0
-321 -118 0
-321 -119 0
-321 -120 0
-321 -121 0
-321 122 0
-321 -123 0
-321 124 0
-321 -125 0
-321 126 0
-321 -127 0
-321 128 0
-322 -97 0
-322 98 0
-322 -99 0
-322 100 0
-322 -101 0
-322 102 0
-322 -103 0
-322 104 0
-322 -105 0
-322 -106 0
-322 -107 0
-322 -108 0
-322 -109 0
-322 -110 0
-322 -111 0
-322 -112 0
-322 -113 0
-322 114 0
-322 -115 0
-322 116 0
-322 -117 0
-322 118 0
-322 -119 0
-322 120 0
-322 -121 0
-322 -122 0
-322 -123 0
-322 -124 0
-322 -125 0
-322 -126 0
-322 -127 0
-322 -128 0
-323 -97 0
-323 -98 0
-323 -99 0
-323 -100 0
-323 -101 0
-323 -102 0
-323 -103 0
-323 -104 0
-323 105 0
-323 -106 0
-323 107 0
-323 -108 0
-323 109 0
-323 -110 0
-323 111 0
-323 -112 0
-323 -113 0
-323 -114 0
-323 -115 0
-323 -116 0
-323 -117 0
-323 -118 0
-323 -119 0
-323 -120 0
-323 121 0
-323 -122 0
-323 123 0
-323 -124 0
-323 125 0
-323 -126 0
-323 127 0
-323 -128 0
-324 97 0
-324 -98 0
-324 99 0
-324 -100 0
-324 101 0
-324 -102 0
-324 103 0
-324 -104 0
-324 -105 0
-324 -106 0
-324 -107 0
-324 -108 0
-324 -109 0
-324 -110 0
-324 -111 0
-324 -112 0
-324 113 0
-324 -114 0
-324 115 0
-324 -116 0
-324 117 0
-324 -118 0
-324 119 0
-324 -120 0
-324 -121 0
-324 -122 0
-324 -123 0
-324 -124 0
-324 -125 0
-324 -126 0
-324 -127 0
-324 -128 0
-325 -97 0
-325 -98 0
-325 -99 0
-325 -100 0
-325 -101 0
-325 -102 0
-325 -103 0
-325 -104 0
-325 -105 0
-325 -106 0
-325 -107 0
-325 -108 0
-325 -109 0
-325 -110 0
-325 -111 0
-325 -112 0
-325 -113 0
-325 114 0
-325 -115 0
-325 116 0
-325 -117 0
-325 118 0
-325 -119 0
-325 120 0
-325 -121 0
-325 122 0
-325 -123 0
-325 124 0
-325 -125 0
-325 126 0
-325 -127 0
-325 128 0
-326 -97 0
-326 98 0
-326 -99 0
-326 100 0
-326 -101 0
-326 102 0
-326 -103 0
-326 104 0
-326 -105 0
-326 106 0
-326 -107 0
-326 108 0
-326 -109 0
-326 110 0
-326 -111 0
-326 112 0
-326 -113 0
-326 -114 0
-326 -115 0
-326 -116 0
-326 -117 0
-326 -118 0
-326 -119 0
-326 -120 0
-326 -121 0
-326 -122 0
-326 -123 0
-326 -124 0
-326 -125 0
-326 -126 0
-326 -127 0
-326 -128 0
-327 -97 0
-327 -98 0
-327 -99 0
-327 -100 0
-327 -101 0
-327 -102 0
-327 -103 0
-327 -104 0
-327 -105 0
-327 -106 0
-327 -107 0
-327 -108 0
-327 -109 0
-327 -110 0
-327 -111 0
-327 -112 0
-327 113 0
-327 -114 0
-327 115 0
-327 -116 0
-327 117 0
-327 -118 0
-327 119 0
-327 -120 0
-327 121 0
-327 -122 0
-327 123 0
-327 -124 0
-327 125 0
-327 -126 0
-327 127 0
-327 -128 0
-328 97 0
-328 -98 0
-328 99 0
-328 -100 0
-328 101 0
-328 -102 0
-328 103 0
-328 -104 0
-328 105 0
-328 -106 0
-328 107 0
-328 -108 0
-328 109 0
-328 -110 0
-328 111 0
-328 -112 0
-328 -113 0
-328 -114 0
-328 -115 0
-328 -116 0
-328 -117 0
-328 -118 0
-328 -119 0
-328 -120 0
-328 -121 0
-328 -122 0
-328 -123 0
-328 -124 0
-328 -125 0
-328 -126 0
-328 -127 0
-328 -128 0
-329 -97 0
-329 -98 2 0
-329 98 -2 0
-329 -99 0
-329 -100 4 0
-329 100 -4 0
-329 -101 0
-329 -102 6 0
-329 102 -6 0
-329 -103 0
-329 -104 8 0
-329 104 -8 0
-329 -105 0
-329 -106 10 0
-329 106 -10 0
-329 -107 0
-329 -108 12 0
-329 108 -12 0
-329 -109 0
-329 -110 14 0
-329 110 -14 0
-329 -111 0
-329 -112 16 0
-329 112 -16 0
-329 -113 0
-329 -114 18 0
-329 114 -18 0
-329 -115 0
-329 -116 20 0
-329 116 -20 0
-329 -117 0
-329 -118 22 0
-329 118 -22 0
-329 -119 0
-329 -120 24 0
-329 120 -24 0
-329 -121 0
-329 -122 26 0
-329 122 -26 0
-329 -123 0
-329 -124 28 0
-329 124 -28 0
-329 -125 0
-329 -126 30 0
-329 126 -30 0
-329 -127 0
-329 -128 32 0
-329 128 -32 0
-330 -97 0
-330 -98 -2 0
-330 98 2 0
-330 -99 0
-330 -100 -4 0
-330 100 4 0
-330 -101 0
-330 -102 -6 0
-330 102 6 0
-330 -103 0
-330 -104 -8 0
-330 104 8 0
-330 -105 0
-330 -106 -10 0
-330 106 10 0
-330 -107 0
-330 -108 -12 0
-330 108 12 0
-330 -109 0
-330 -110 -14 0
-330 110 14 0
-330 -111 0
-330 -112 -16 0
-330 112 16 0
-330 -113 0
-330 -114 -18 0
-330 114 18 0
-330 -115 0
-330 -116 -20 0
-330 116 20 0
-330 -117 0
-330 -118 -22 0
-330 118 22 0
-330 -119 0
-330 -120 -24 0
-330 120 24 0
-330 -121 0
-330 -122 -26 0
-330 122 26 0
-330 -123 0
-330 -124 -28 0
-330 124 28 0
-330 -125 0
-330 -126 -30 0
-330 126 30 0
-330 -127 0
-330 -128 -32 0
-330 128 32 0
-331 -97 1 0
-331 97 -1 0
-331 -98 0
-331 -99 3 0
-331 99 -3 0
-331 -100 0
-331 -101 5 0
-331 101 -5 0
-331 -102 0
-331 -103 7 0
-331 103 -7 0
-331 -104 0
-331 -105 9 0
-331 105 -9 0
-331 -106 0
-331 -107 11 0
-331 107 -11 0
-331 -108 0
-331 -109 13 0
-331 109 -13 0
-331 -110 0
-331 -111 15 0
-331 111 -15 0
-331 -112 0
-331 -113 17 0
-331 113 -17 0
-331 -114 0
-331 -115 19 0
-331 115 -19 0
-331 -116 0
-331 -117 21 0
-331 117 -21 0
-331 -118 0
-331 -119 23 0
-331 119 -23 0
-331 -120 0
-331 -121 25 0
-331 121 -25 0
-331 -122 0
-331 -123 27 0
-331 123 -27 0
-331 -124 0
-331 -125 29 0
-331 125 -29 0
-331 -126 0
-331 -127 31 0
-331 127 -31 0
-331 -128 0
-332 -97 -1 0
-332 97 1 0
-332 -98 0
-332 -99 -3 0
-332 99 3 0
-332 -100 0
-332 -101 -5 0
-332 101 5 0
-332 -102 0
-332 -103 -7 0
-332 103 7 0
-332 -104 0
-332 -105 -9 0
-332 105 9 0
-332 -106 0
-332 -107 -11 0
-332 107 11 0
-332 -108 0
-332 -109 -13 0
-332 109 13 0
-332 -110 0
-332 -111 -15 0
-332 111 15 0
-332 -112 0
-332 -113 -17 0
-332 113 17 0
-332 -114 0
-332 -115 -19 0
-332 115 19 0
-332 -116 0
-332 -117 -21 0
-332 117 21 0
-332 -118 0
-332 -119 -23 0
-332 119 23 0
-332 -120 0
-332 -121 -25 0
-332 121 25 0
-332 -122 0
-332 -123 -27 0
-332 123 27 0
-332 -124 0
-332 -125 -29 0
-332 125 29 0
-332 -126 0
-332 -127 -31 0
-332 127 31 0
-332 -128 0
-333 -97 0
-333 -98 34 0
-333 98 -34 0
-333 -99 0
-333 -100 36 0
-333 100 -36 0
-333 -101 0
-333 -102 38 0
-333 102 -38 0
-333 -103 0
-333 -104 40 0
-333 104 -40 0
-333 -105 0
-333 -106 42 0
-333 106 -42 0
-333 -107 0
-333 -108 44 0
-333 108 -44 0
-333 -109 0
-333 -110 46 0
-333 110 -46 0
-333 -111 0
-333 -112 48 0
-333 112 -48 0
-333 -113 0
-333 -114 50 0
-333 114 -50 0
-333 -115 0
-333 -116 52 0
-333 116 -52 0
-333 -117 0
-333 -118 54 0
-333 118 -54 0
-333 -119 0
-333 -120 56 0
-333 120 -56 0
-333 -121 0
-333 -122 58 0
-333 122 -58 0
-333 -123 0
-333 -124 60 0
-333 124 -60 0
-333 -125 0
-333 -126 62 0
-333 126 -62 0
-333 -127 0
-333 -128 64 0
-333 128 -64 0
-334 -97 0
-334 -98 -34 0
-334 98 34 0
-334 -99 0
-334 -100 -36 0
-334 100 36 0
-334 -101 0
-334 -102 -38 0
-334 102 38 0
-334 -103 0
-334 -104 -40 0
-334 104 40 0
-334 -105 0
-334 -106 -42 0
-334 106 42 0
-334 -107 0
-334 -108 -44 0
-334 108 44 0
-334 -109 0
-334 -110 -46 0
-334 110 46 0
-334 -111 0
-334 -112 -48 0
-334 112 48 0
-334 -113 0
-334 -114 -50 0
-334 114 50 0
-334 -115 0
-334 -116 -52 0
-334 116 52 0
-334 -117 0
-334 -118 -54 0
-334 118 54 0
-334 -119 0
-334 -120 -56 0
-334 120 56 0
-334 -121 0
-334 -122 -58 0
-334 122 58 0
-334 -123 0
-334 -124 -60 0
-334 124 60 0
-334 -125 0
-334 -126 -62 0
-334 126 62 0
-334 -127 0
-334 -128 -64 0
-334 128 64 0
-335 -97 33 0
-335 97 -33 0
-335 -98 0
-335 -99 35 0
-335 99 -35 0
-335 -100 0
-335 -101 37 0
-335 101 -37 0
-335 -102 0
-335 -103 39 0
-335 103 -39 0
-335 -104 0
-335 -105 41 0
-335 105 -41 0
-335 -106 0
-335 -107 43 0
-335 107 -43 0
-335 -108 0
-335 -109 45 0
-335 109 -45 0
-335 -110 0
-335 -111 47 0
-335 111 -47 0
-335 -112 0
-335 -113 49 0
-335 113 -49 0
-335 -114 0
-335 -115 51 0
-335 115 -51 0
-335 -116 0
-335 -117 53 0
-335 117 -53 0
-335 -118 0
-335 -119 55 0
-335 119 -55 0
-335 -120 0
-335 -121 57 0
-335 121 -57 0
-335 -122 0
-335 -123 59 0
-335 123 -59 0
-335 -124 0
-335 -125 61 0
-335 125 -61 0
-335 -126 0
-335 -127 63 0
-335 127 -63 0
-335 -128 0
-336 -97 -33 0
-336 97 33 0
-336 -98 0
-336 -99 -35 0
-336 99 35 0
-336 -100 0
-336 -101 -37 0
-336 101 37 0
-336 -102 0
-336 -103 -39 0
-336 103 39 0
-336 -104 0
-336 -105 -41 0
-336 105 41 0
-336 -106 0
-336 -107 -43 0
-336 107 43 0
-336 -108 0
-336 -109 -45 0
-336 109 45 0
-336 -110 0
-336 -111 -47 0
-336 111 47 0
-336 -112 0
-336 -113 -49 0
-336 113 49 0
-336 -114 0
-336 -115 -51 0
-336 115 51 0
-336 -116 0
-336 -117 -53 0
-336 117 53 0
-336 -118 0
-336 -119 -55 0
-336 119 55 0
-336 -120 0
-336 -121 -57 0
-336 121 57 0
-336 -122 0
-336 -123 -59 0
-336 123 59 0
-336 -124 0
-336 -125 -61 0
-336 125 61 0
-336 -126 0
-336 -127 -63 0
-336 127 63 0
-336 -128 0
-337 -97 0
-337 -98 66 0
-337 98 -66 0
-337 -99 0
-337 -100 68 0
-337 100 -68 0
-337 -101 0
-337 -102 70 0
-337 102 -70 0
-337 -103 0
-337 -104 72 0
-337 104 -72 0
-337 -105 0
-337 -106 74 0
-337 106 -74 0
-337 -107 0
-337 -108 76 0
-337 108 -76 0
-337 -109 0
-337 -110 78 0
-337 110 -78 0
-337 -111 0
-337 -112 80 0
-337 112 -80 0
-337 -113 0
-337 -114 82 0
-337 114 -82 0
-337 -115 0
-337 -116 84 0
-337 116 -84 0
-337 -117 0
-337 -118 86 0
-337 118 -86 0
-337 -119 0
-337 -120 88 0
-337 120 -88 0
-337 -121 0
-337 -122 90 0
-337 122 -90 0
-337 -123 0
-337 -124 92 0
-337 124 -92 0
-337 -125 0
-337 -126 94 0
-337 126 -94 0
-337 -127 0
-337 -128 96 0
-337 128 -96 0
-338 -97 0
-338 -98 -66 0
-338 98 66 0
-338 -99 0
-338 -100 -68 0
-338 100 68 0
-338 -101 0
-338 -102 -70 0
-338 102 70 0
-338 -103 0
-338 -104 -72 0
-338 104 72 0
-338 -105 0
-338 -106 -74 0
-338 106 74 0
-338 -107 0
-338 -108 -76 0
-338 108 76 0
-338 -109 0
-338 -110 -78 0
-338 110 78 0
-338 -111 0
-338 -112 -80 0
-338 112 80 0
-338 -113 0
-338 -114 -82 0
-338 114 82 0
-338 -115 0
-338 -116 -84 0
-338 116 84 0
-338 -117 0
-338 -118 -86 0
-338 118 86 0
-338 -119 0
-338 -120 -88 0
-338 120 88 0
-338 -121 0
-338 -122 -90 0
-338 122 90 0
-338 -123 0
-338 -124 -92 0
-338 124 92 0
-338 -125 0
-338 -126 -94 0
-338 126 94 0
-338 -127 0
-338 -128 -96 0
-338 128 96 0
-339 -97 65 0
-339 97 -65 0
-339 -98 0
-339 -99 67 0
-339 99 -67 0
-339 -100 0
-339 -101 69 0
-339 101 -69 0
-339 -102 0
-339 -103 71 0
-339 103 -71 0
-339 -104 0
-339 -105 73 0
-339 105 -73 0
-339 -106 0
-339 -107 75 0
-339 107 -75 0
-339 -108 0
-339 -109 77 0
-339 109 -77 0
-339 -110 0
-339 -111 79 0
-339 111 -79 0
-339 -112 0
-339 -113 81 0
-339 113 -81 0
-339 -114 0
-339 -115 83 0
-339 115 -83 0
-339 -116 0
-339 -117 85 0
-339 117 -85 0
-339 -118 0
-339 -119 87 0
-339 119 -87 0
-339 -120 0
-339 -121 89 0
-339 121 -89 0
-339 -122 0
-339 -123 91 0
-339 123 -91 0
-339 -124 0
-339 -125 93 0
-339 125 -93 0
-339 -126 0
-339 -127 95 0
-339 127 -95 0
-339 -128 0
-340 -97 -65 0
-340 97 65 0
-340 -98 0
-340 -99 -67 0
-340 99 67 0
-340 -100 0
-340 -101 -69 0
-340 101 69 0
-340 -102 0
-340 -103 -71 0
-340 103 71 0
-340 -104 0
-340 -105 -73 0
-340 105 73 0
-340 -106 0
-340 -107 -75 0
-340 107 75 0
-340 -108 0
-340 -109 -77 0
-340 109 77 0
-340 -110 0
-340 -111 -79 0
-340 111 79 0
-340 -112 0
-340 -113 -81 0
-340 113 81 0
-340 -114 0
-340 -115 -83 0
-340 115 83 0
-340 -116 0
-340 -117 -85 0
-340 117 85 0
-340 -118 0
-340 -119 -87 0
-340 119 87 0
-340 -120 0
-340 -121 -89 0
-340 121 89 0
-340 -122 0
-340 -123 -91 0
-340 123 91 0
-340 -124 0
-340 -125 -93 0
-340 125 93 0
-340 -126 0
-340 -127 -95 0
-340 127 95 0
-340 -128 0
-341 -97 0
-341 -98 0
-341 -99 0
-341 -100 0
-341 -101 0
-341 -102 0
-341 103 0
-341 104 0
-341 -105 0
-341 -106 0
-341 -107 0
-341 -108 0
-341 -109 0
-341 -110 0
-341 111 0
-341 112 0
-341 -113 0
-341 -114 0
-341 -115 0
-341 -116 0
-341 -117 0
-341 -118 0
-341 119 0
-341 120 0
-341 -121 0
-341 -122 0
-341 -123 0
-341 -124 0
-341 -125 0
-341 -126 0
-341 127 0
-341 128 0
-342 -97 0
-342 -98 0
-342 99 0
-342 100 0
-342 -101 0
-342 -102 0
-342 -103 0
-342 -104 0
-342 -105 0
-342 -106 0
-342 107 0
-342 108 0
-342 -109 0
-342 -110 0
-342 -111 0
-342 -112 0
-342 -113 0
-342 -114 0
-342 115 0
-342 116 0
-342 -117 0
-342 -118 0
-342 -119 0
-342 -120 0
-342 -121 0
-342 -122 0
-342 123 0
-342 124 0
-342 -125 0
-342 -126 0
-342 -127 0
-342 -128 0
-343 -97 0
-343 -98 0
-343 -99 0
-343 -100 0
-343 101 0
-343 102 0
-343 -103 0
-343 -104 0
-343 -105 0
-343 -106 0
-343 -107 0
-343 -108 0
-343 109 0
-343 110 0
-343 -111 0
-343 -112 0
-343 -113 0
-343 -114 0
-343 -115 0
-343 -116 0
-343 117 0
-343 118 0
-343 -119 0
-343 -120 0
-343 -121 0
-343 -122 0
-343 -123 0
-343 -124 0
-343 125 0
-343 126 0
-343 -127 0
-343 -128 0
-344 97 0
-344 98 0
-344 -99 0
-344 -100 0
-344 -101 0
-344 -102 0
-344 -103 0
-344 -104 0
-344 105 0
-344 106 0
-344 -107 0
-344 -108 0
-344 -109 0
-344 -110 0
-344 -111 0
-344 -112 0
-344 113 0
-344 114 0
-344 -115 0
-344 -116 0
-344 -117 0
-344 -118 0
-344 -119 0
-344 -120 0
-344 121 0
-344 122 0
-344 -123 0
-344 -124 0
-344 -125 0
-344 -126 0
-344 -127 0
-344 -128 0
-345 -97 0
-345 -98 0
-345 -99 0
-345 -100 0
-345 -101 0
-345 -102 0
-345 -103 0
-345 -104 0
-345 -105 0
-345 -106 0
-345 107 0
-345 108 0
-345 -109 0
-345 -110 0
-345 111 0
-345 112 0
-345 -113 0
-345 -114 0
-345 -115 0
-345 -116 0
-345 -117 0
-345 -118 0
-345 -119 0
-345 -120 0
-345 -121 0
-345 -122 0
-345 123 0
-345 124 0
-345 -125 0
-345 -126 0
-345 127 0
-345 128 0
-346 -97 0
-346 -98 0
-346 99 0
-346 100 0
-346 -101 0
-346 -102 0
-346 103 0
-346 104 0
-346 -105 0
-346 -106 0
-346 -107 0
-346 -108 0
-346 -109 0
-346 -110 0
-346 -111 0
-346 -112 0
-346 -113 0
-346 -114 0
-346 115 0
-346 116 0
-346 -117 0
-346 -118 0
-346 119 0
-346 120 0
-346 -121 0
-346 -122 0
-346 -123 0
-346 -124 0
-346 -125 0
-346 -126 0
-346 -127 0
-346 -128 0
-347 -97 0
-347 -98 0
-347 -99 0
-347 -100 0
-347 -101 0
-347 -102 0
-347 -103 0
-347 -104 0
-347 105 0
-347 106 0
-347 -107 0
-347 -108 0
-347 109 0
-347 110 0
-347 -111 0
-347 -112 0
-347 -113 0
-347 -114 0
-347 -115 0
-347 -116 0
-347 -117 0
-347 -118 0
-347 -119 0
-347 -120 0
-347 121 0
-347 122 0
-347 -123 0
-347 -124 0
-347 125 0
-347 126 0
-347 -127 0
-347 -128 0
-348 97 0
-348 98 0
-348 -99 0
-348 -100 0
-348 101 0
-348 102 0
-348 -103 0
-348 -104 0
-348 -105 0
-348 -106 0
-348 -107 0
-348 -108 0
-348 -109 0
-348 -110 0
-348 -111 0
-348 -112 0
-348 113 0
-348 114 0
-348 -115 0
-348 -116 0
-348 117 0
-348 118 0
-348 -119 0
-348 -120 0
-348 -121 0
-348 -122 0
-348 -123 0
-348 -124 0
-348 -125 0
-348 -126 0
-348 -127 0
-348 -128 0
-349 -97 0
-349 -98 0
-349 -99 0
-349 -100 0
-349 -101 0
-349 -102 0
-349 -103 0
-349 -104 0
-349 -105 0
-349 -106 0
-349 -107 0
-349 -108 0
-349 -109 0
-349 -110 0
-349 -111 0
-349 -112 0
-349 -113 0
-349 -114 0
-349 115 0
-349 116 0
-349 -117 0
-349 -118 0
-349 119 0
-349 120 0
-349 -121 0
-349 -122 0
-349 123 0
-349 124 0
-349 -125 0
-349 -126 0
-349 127 0
-349 128 0
-350 -97 0
-350 -98 0
-350 99 0
-350 100 0
-350 -101 0
-350 -102 0
-350 103 0
-350 104 0
-350 -105 0
-350 -106 0
-350 107 0
-350 108 0
-350 -109 0
-350 -110 0
-350 111 0
-350 112 0
-350 -113 0
-350 -114 0
-350 -115 0
-350 -116 0
-350 -117 0
-350 -118 0
-350 -119 0
-350 -120 0
-350 -121 0
-350 -122 0
-350 -123 0
-350 -124 0
-350 -125 0
-350 -126 0
-350 -127 0
-350 -128 0
-351 -97 0
-351 -98 0
-351 -99 0
-351 -100 0
-351 -101 0
-351 -102 0
-351 -103 0
-351 -104 0
-351 -105 0
-351 -106 0
-351 -107 0
-351 -108 0
-351 -109 0
-351 -110 0
-351 -111 0
-351 -112 0
-351 113 0
-351 114 0
-351 -115 0
-351 -116 0
-351 117 0
-351 118 0
-351 -119 0
-351 -120 0
-351 121 0
-351 122 0
-351 -123 0
-351 -124 0
-351 125 0
-351 126 0
-351 -127 0
-351 -128 0
-352 97 0
-352 98 0
-352 -99 0
-352 -100 0
-352 101 0
-352 102 0
-352 -103 0
-352 -104 0
-352 105 0
-352 106 0
-352 -107 0
-352 -108 0
-352 109 0
-352 110 0
-352 -111 0
-352 -112 0
-352 -113 0
-352 -114 0
-352 -115 0
-352 -116 0
-352 -117 0
-352 -118 0
-352 -119 0
-352 -120 0
-352 -121 0
-352 -122 0
-352 -123 0
-352 -124 0
-352 -125 0
-352 -126 0
-352 -127 0
-352 -128 0
-353 -97 0
-353 -98 0
-353 -99 3 0
-353 99 -3 0
-353 -100 4 0
-353 100 -4 0
-353 -101 0
-353 -102 0
-353 -103 7 0
-353 103 -7 0
-353 -104 8 0
-353 104 -8 0
-353 -105 0
-353 -106 0
-353 -107 11 0
-353 107 -11 0
-353 -108 12 0
-353 108 -12 0
-353 -109 0
-353 -110 0
-353 -111 15 0
-353 111 -15 0
-353 -112 16 0
-353 112 -16 0
-353 -113 0
-353 -114 0
-353 -115 19 0
-353 115 -19 0
-353 -116 20 0
-353 116 -20 0
-353 -117 0
-353 -118 0
-353 -119 23 0
-353 119 -23 0
-353 -120 24 0
-353 120 -24 0
-353 -121 0
-353 -122 0
-353 -123 27 0
-353 123 -27 0
-353 -124 28 0
-353 124 -28 0
-353 -125 0
-353 -126 0
-353 -127 31 0
-353 127 -31 0
-353 -128 32 0
-353 128 -32 0
-354 -97 0
-354 -98 0
-354 -99 -3 0
-354 99 3 0
-354 -100 -4 0
-354 100 4 0
-354 -101 0
-354 -102 0
-354 -103 -7 0
-354 103 7 0
-354 -104 -8 0
-354 104 8 0
-354 -105 0
-354 -106 0
-354 -107 -11 0
-354 107 11 0
-354 -108 -12 0
-354 108 12 0
-354 -109 0
-354 -110 0
-354 -111 -15 0
-354 111 15 0
-354 -112 -16 0
-354 112 16 0
-354 -113 0
-354 -114 0
-354 -115 -19 0
-354 115 19 0
-354 -116 -20 0
-354 116 20 0
-354 -117 0
-354 -118 0
-354 -119 -23 0
-354 119 23 0
-354 -120 -24 0
-354 120 24 0
-354 -121 0
-354 -122 0
-354 -123 -27 0
-354 123 27 0
-354 -124 -28 0
-354 124 28 0
-354 -125 0
-354 -126 0
-354 -127 -31 0
-354 127 31 0
-354 -128 -32 0
-354 128 32 0
-355 -97 1 0
-355 97 -1 0
-355 -98 2 0
-355 98 -2 0
-355 -99 0
-355 -100 0
-355 -101 5 0
-355 101 -5 0
-355 -102 6 0
-355 102 -6 0
-355 -103 0
-355 -104 0
-355 -105 9 0
-355 105 -9 0
-355 -106 10 0
-355 106 -10 0
-355 -107 0
-355 -108 0
-355 -109 13 0
-355 109 -13 0
-355 -110 14 0
-355 110 -14 0
-355 -111 0
-355 -112 0
-355 -113 17 0
-355 113 -17 0
-355 -114 18 0
-355 114 -18 0
-355 -115 0
-355 -116 0
-355 -117 21 0
-355 117 -21 0
-355 -118 22 0
-355 118 -22 0
-355 -119 0
-355 -120 0
-355 -121 25 0
-355 121 -25 0
-355 -122 26 0
-355 122 -26 0
-355 -123 0
-355 -124 0
-355 -125 29 0
-355 125 -29 0
-355 -126 30 0
-355 126 -30 0
-355 -127 0
-355 -128 0
-356 -97 -1 0
-356 97 1 0
-356 -98 -2 0
-356 98 2 0
-356 -99 0
-356 -100 0
-356 -101 -5 0
-356 101 5 0
-356 -102 -6 0
-356 102 6 0
-356 -103 0
-356 -104 0
-356 -105 -9 0
-356 105 9 0
-356 -106 -10 0
-356 106 10 0
-356 -107 0
-356 -108 0
-356 -109 -13 0
-356 109 13 0
-356 -110 -14 0
-356 110 14 0
-356 -111 0
-356 -112 0
-356 -113 -17 0
-356 113 17 0
-356 -114 -18 0
-356 114 18 0
-356 -115 0
-356 -116 0
-356 -117 -21 0
-356 117 21 0
-356 -118 -22 0
-356 118 22 0
-356 -119 0
-356 -120 0
-356 -121 -25 0
-356 121 25 0
-356 -122 -26 0
-356 122 26 0
-356 -123 0
-356 -124 0
-356 -125 -29 0
-356 125 29 0
-356 -126 -30 0
-356 126 30 0
-356 -127 0
-356 -128 0
-357 -97 0
-357 -98 0
-357 -99 35 0
-357 99 -35 0
-357 -100 36 0
-357 100 -36 0
-357 -101 0
-357 -102 0
-357 -103 39 0
-357 103 -39 0
-357 -104 40 0
-357 104 -40 0
-357 -105 0
-357 -106 0
-357 -107 43 0
-357 107 -43 0
-357 -108 44 0
-357 108 -44 0
-357 -109 0
-357 -110 0
-357 -111 47 0
-357 111 -47 0
-357 -112 48 0
-357 112 -48 0
-357 -113 0
-357 -114 0
-357 -115 51 0
-357 115 -51 0
-357 -116 52 0
-357 116 -52 0
-357 -117 0
-357 -118 0
-357 -119 55 0
-357 119 -55 0
-357 -120 56 0
-357 120 -56 0
-357 -121 0
-357 -122 0
-357 -123 59 0
-357 123 -59 0
-357 -124 60 0
-357 124 -60 0
-357 -125 0
-357 -126 0
-357 -127 63 0
-357 127 -63 0
-357 -128 64 0
-357 128 -64 0
-358 -97 0
-358 -98 0
-358 -99 -35 0
-358 99 35 0
-358 -100 -36 0
-358 100 36 0
-358 -101 0
-358 -102 0
-358 -103 -39 0
-358 103 39 0
-358 -104 -40 0
-358 104 40 0
-358 -105 0
-358 -106 0
-358 -107 -43 0
-358 107 43 0
-358 -108 -44 0
-358 108 44 0
-358 -109 0
-358 -110 0
-358 -111 -47 0
-358 111 47 0
-358 -112 -48 0
-358 112 48 0
-358 -113 0
-358 -114 0
-358 -115 -51 0
-358 115 51 0
-358 -116 -52 0
-358 116 52 0
-358 -117 0
-358 -118 0
-358 -119 -55 0
-358 119 55 0
-358 -120 -56 0
-358 120 56 0
-358 -121 0
-358 -122 0
-358 -123 -59 0
-358 123 59 0
-358 -124 -60 0
-358 124 60 0
-358 -125 0
-358 -126 0
-358 -127 -63 0
-358 127 63 0
-358 -128 -64 0
-358 128 64 0
-359 -97 33 0
-359 97 -33 0
-359 -98 34 0
-359 98 -34 0
-359 -99 0
-359 -100 0
-359 -101 37 0
-359 101 -37 0
-359 -102 38 0
-359 102 -38 0
-359 -103 0
-359 -104 0
-359 -105 41 0
-359 105 -41 0
-359 -106 42 0
-359 106 -42 0
-359 -107 0
-359 -108 0
-359 -109 45 0
-359 109 -45 0
-359 -110 46 0
-359 110 -46 0
-359 -111 0
-359 -112 0
-359 -113 49 0
-359 113 -49 0
-359 -114 50 0
-359 114 -50 0
-359 -115 0
-359 -116 0
-359 -117 53 0
-359 117 -53 0
-359 -118 54 0
-359 118 -54 0
-359 -119 0
-359 -120 0
-359 -121 57 0
-359 121 -57 0
-359 -122 58 0
-359 122 -58 0
-359 -123 0
-359 -124 0
-359 -125 61 0
-359 125 -61 0
-359 -126 62 0
-359 126 -62 0
-359 -127 0
-359 -128 0
-360 -97 -33 0
-360 97 33 0
-360 -98 -34 0
-360 98 34 0
-360 -99 0
-360 -100 0
-360 -101 -37 0
-360 101 37 0
-360 -102 -38 0
-360 102 38 0
-360 -103 0
-360 -104 0
-360 -105 -41 0
-360 105 41 0
-360 -106 -42 0
-360 106 42 0
-360 -107 0
-360 -108 0
-360 -109 -45 0
-360 109 45 0
-360 -110 -46 0
-360 110 46 0
-360 -111 0
-360 -112 0
-360 -113 -49 0
-360 113 49 0
-360 -114 -50 0
-360 114 50 0
-360 -115 0
-360 -116 0
-360 -117 -53 0
-360 117 53 0
-360 -118 -54 0
-360 118 54 0
-360 -119 0
-360 -120 0
-360 -121 -57 0
-360 121 57 0
-360 -122 -58 0
-360 122 58 0
-360 -123 0
-360 -124 0
-360 -125 -61 0
-360 125 61 0
-360 -126 -62 0
-360 126 62 0
-360 -127 0
-360 -128 0
-361 -97 0
-361 -98 0
-361 -99 67 0
-361 99 -67 0
-361 -100 68 0
-361 100 -68 0
-361 -101 0
-361 -102 0
-361 -103 71 0
-361 103 -71 0
-361 -104 72 0
-361 104 -72 0
-361 -105 0
-361 -106 0
-361 -107 75 0
-361 107 -75 0
-361 -108 76 0
-361 108 -76 0
-361 -109 0
-361 -110 0
-361 -111 79 0
-361 111 -79 0
-361 -112 80 0
-361 112 -80 0
-361 -113 0
-361 -114 0
-361 -115 83 0
-361 115 -83 0
-361 -116 84 0
-361 116 -84 0
-361 -117 0
-361 -118 0
-361 -119 87 0
-361 119 -87 0
-361 -120 88 0
-361 120 -88 0
-361 -121 0
-361 -122 0
-361 -123 91 0
-361 123 -91 0
-361 -124 92 0
-361 124 -92 0
-361 -125 0
-361 -126 0
-361 -127 95 0
-361 127 -95 0
-361 -128 96 0
-361 128 -96 0
-362 -97 0
-362 -98 0
-362 -99 -67 0
-362 99 67 0
-362 -100 -68 0
-362 100 68 0
-362 -101 0
-362 -102 0
-362 -103 -71 0
-362 103 71 0
-362 -104 -72 0
-362 104 72 0
-362 -105 0
-362 -106 0
-362 -107 -75 0
-362 107 75 0
-362 -108 -76 0
-362 108 76 0
-362 -109 0
-362 -110 0
-362 -111 -79 0
-362 111 79 0
-362 -112 -80 0
-362 112 80 0
-362 -113 0
-362 -114 0
-362 -115 -83 0
-362 115 83 0
-362 -116 -84 0
-362 116 84 0
-362 -117 0
-362 -118 0
-362 -119 -87 0
-362 119 87 0
-362 -120 -88 0
-362 120 88 0
-362 -121 0
-362 -122 0
-362 -123 -91 0
-362 123 91 0
-362 -124 -92 0
-362 124 92 0
-362 -125 0
-362 -126 0
-362 -127 -95 0
-362 127 95 0
-362 -128 -96 0
-362 128 96 0
-363 -97 65 0
-363 97 -65 0
-363 -98 66 0
-363 98 -66 0
-363 -99 0
-363 -100 0
-363 -101 69 0
-363 101 -69 0
-363 -102 70 0
-363 102 -70 0
-363 -103 0
-363 -104 0
-363 -105 73 0
-363 105 -73 0
-363 -106 74 0
-363 106 -74 0
-363 -107 0
-363 -108 0
-363 -109 77 0
-363 109 -77 0
-363 -110 78 0
-363 110 -78 0
-363 -111 0
-363 -112 0
-363 -113 81 0
-363 113 -81 0
-363 -114 82 0
-363 114 -82 0
-363 -115 0
-363 -116 0
-363 -117 85 0
-363 117 -85 0
-363 -118 86 0
-363 118 -86 0
-363 -119 0
-363 -120 0
-363 -121 89 0
-363 121 -89 0
-363 -122 90 0
-363 122 -90 0
-363 -123 0
-363 -124 0
-363 -125 93 0
-363 125 -93 0
-363 -126 94 0
-363 126 -94 0
-363 -127 0
-363 -128 0
-364 -97 -65 0
-364 97 65 0
-364 -98 -66 0
-364 98 66 0
-364 -99 0
-364 -100 0
-364 -101 -69 0
-364 101 69 0
-364 -102 -70 0
-364 102 70 0
-364 -103 0
-364 -104 0
-364 -105 -73 0
-364 105 73 0
-364 -106 -74 0
-364 106 74 0
-364 -107 0
-364 -108 0
-364 -109 -77 0
-364 109 77 0
-364 -110 -78 0
-364 110 78 0
-364 -111 0
-364 -112 0
-364 -113 -81 0
-364 113 81 0
-364 -114 -82 0
-364 114 82 0
-364 -115 0
-364 -116 0
-364 -117 -85 0
-364 117 85 0
-364 -118 -86 0
-364 118 86 0
-364 -119 0
-364 -120 0
-364 -121 -89 0
-364 121 89 0
-364 -122 -90 0
-364 122 90 0
-364 -123 0
-364 -124 0
-364 -125 -93 0
-364 125 93 0
-364 -126 -94 0
-364 126 94 0
-364 -127 0
-364 -128 0
-365 -97 0
-365 -98 0
-365 -99 0
-365 -100 0
-365 -101 0
-365 -102 0
-365 -103 0
-365 -104 0
-365 -105 0
-365 -106 0
-365 -107 0
-365 -108 0
-365 109 0
-365 110 0
-365 111 0
-365 112 0
-365 -113 0
-365 -114 0
-365 -115 0
-365 -116 0
-365 -117 0
-365 -118 0
-365 -119 0
-365 -120 0
-365 -121 0
-365 -122 0
-365 -123 0
-365 -124 0
-365 125 0
-365 126 0
-365 127 0
-365 128 0
-366 -97 0
-366 -98 0
-366 -99 0
-366 -100 0
-366 101 0
-366 102 0
-366 103 0
-366 104 0
-366 -105 0
-366 -106 0
-366 -107 0
-366 -108 0
-366 -109 0
-366 -110 0
-366 -111 0
-366 -112 0
-366 -113 0
-366 -114 0
-366 -115 0
-366 -116 0
-366 117 0
-366 118 0
-366 119 0
-366 120 0
-366 -121 0
-366 -122 0
-366 -123 0
-366 -124 0
-366 -125 0
-366 -126 0
-366 -127 0
-366 -128 0
-367 -97 0
-367 -98 0
-367 -99 0
-367 -100 0
-367 -101 0
-367 -102 0
-367 -103 0
-367 -104 0
-367 105 0
-367 106 0
-367 107 0
-367 108 0
-367 -109 0
-367 -110 0
-367 -111 0
-367 -112 0
-367 -113 0
-367 -114 0
-367 -115 0
-367 -116 0
-367 -117 0
-367 -118 0
-367 -119 0
-367 -120 0
-367 121 0
-367 122 0
-367 123 0
-367 124 0
-367 -125 0
-367 -126 0
-367 -127 0
-367 -128 0
-368 97 0
-368 98 0
-368 99 0
-368 100 0
-368 -101 0
-368 -102 0
-368 -103 0
-368 -104 0
-368 -105 0
-368 -106 0
-368 -107 0
-368 -108 0
-368 -109 0
-368 -110 0
-368 -111 0
-368 -112 0
-368 113 0
-368 114 0
-368 115 0
-368 116 0
-368 -117 0
-368 -118 0
-368 -119 0
-368 -120 0
-368 -121 0
-368 -122 0
-368 -123 0
-368 -124 0
-368 -125 0
-368 -126 0
-368 -127 0
-368 -128 0
-369 -97 0
-369 -98 0
-369 -99 0
-369 -100 0
-369 -101 0
-369 -102 0
-369 -103 0
-369 -104 0
-369 -105 0
-369 -106 0
-369 -107 0
-369 -108 0
-369 -109 0
-369 -110 0
-369 -111 0
-369 -112 0
-369 -113 0
-369 -114 0
-369 -115 0
-369 -116 0
-369 117 0
-369 118 0
-369 119 0
-369 120 0
-369 -121 0
-369 -122 0
-369 -123 0
-369 -124 0
-369 125 0
-369 126 0
-369 127 0
-369 128 0
-370 -97 0
-370 -98 0
-370 -99 0
-370 -100 0
-370 101 0
-370 102 0
-370 103 0
-370 104 0
-370 -105 0
-370 -106 0
-370 -107 0
-370 -108 0
-370 109 0
-370 110 0
-370 111 0
-370 112 0
-370 -113 0
-370 -114 0
-370 -115 0
-370 -116 0
-370 -117 0
-370 -118 0
-370 -119 0
-370 -120 0
-370 -121 0
-370 -122 0
-370 -123 0
-370 -124 0
-370 -125 0
-370 -126 0
-370 -127 0
-370 -128 0
-371 -97 0
-371 -98 0
-371 -99 0
-371 -100 0
-371 -101 0
-371 -102 0
-371 -103 0
-371 -104 0
-371 -105 0
-371 -106 0
-371 -107 0
-371 -108 0
-371 -109 0
-371 -110 0
-371 -111 0
-371 -112 0
-371 113 0
-371 114 0
-371 115 0
-371 116 0
-371 -117 0
-371 -118 0
-371 -119 0
-371 -120 0
-371 121 0
-371 122 0
-371 123 0
-371 124 0
-371 -125 0
-371 -126 0
-371 -127 0
-371 -128 0
-372 97 0
-372 98 0
-372 99 0
-372 100 0
-372 -101 0
-372 -102 0
-372 -103 0
-372 -104 0
-372 105 0
-372 106 0
-372 107 0
-372 108 0
-372 -109 0
-372 -110 0
-372 -111 0
-372 -112 0
-372 -113 0
-372 -114 0
-372 -115 0
-372 -116 0
-372 -117 0
-372 -118 0
-372 -119 0
-372 -120 0
-372 -121 0
-372 -122 0
-372 -123 0
-372 -124 0
-372 -125 0
-372 -126 0
-372 -127 0
-372 -128 0
-373 -97 0
-373 -98 0
-373 -99 0
-373 -100 0
-373 -101 5 0
-373 101 -5 0
-373 -102 6 0
-373 102 -6 0
-373 -103 7 0
-373 103 -7 0
-373 -104 8 0
-373 104 -8 0
-373 -105 0
-373 -106 0
-373 -107 0
-373 -108 0
-373 -109 13 0
-373 109 -13 0
-373 -110 14 0
-373 110 -14 0
-373 -111 15 0
-373 111 -15 0
-373 -112 16 0
-373 112 -16 0
-373 -113 0
-373 -114 0
-373 -115 0
-373 -116 0
-373 -117 21 0
-373 117 -21 0
-373 -118 22 0
-373 118 -22 0
-373 -119 23 0
-373 119 -23 0
-373 -120 24 0
-373 120 -24 0
-373 -121 0
-373 -122 0
-373 -123 0
-373 -124 0
-373 -125 29 0
-373 125 -29 0
-373 -126 30 0
-373 126 -30 0
-373 -127 31 0
-373 127 -31 0
-373 -128 32 0
-373 128 -32 0
-374 -97 0
-374 -98 0
-374 -99 0
-374 -100 0
-374 -101 -5 0
-374 101 5 0
-374 -102 -6 0
-374 102 6 0
-374 -103 -7 0
-374 103 7 0
-374 -104 -8 0
-374 104 8 0
-374 -105 0
-374 -106 0
-374 -107 0
-374 -108 0
-374 -109 -13 0
-374 109 13 0
-374 -110 -14 0
-374 110 14 0
-374 -111 -15 0
-374 111 15 0
-374 -112 -16 0
-374 112 16 0
-374 -113 0
-374 -114 0
-374 -115 0
-374 -116 0
-374 -117 -21 0
-374 117 21 0
-374 -118 -22 0
-374 118 22 0
-374 -119 -23 0
-374 119 23 0
-374 -120 -24 0
-374 120 24 0
-374 -121 0
-374 -122 0
-374 -123 0
-374 -124 0
-374 -125 -29 0
-374 125 29 0
-374 -126 -30 0
-374 126 30 0
-374 -127 -31 0
-374 127 31 0
-374 -128 -32 0
-374 128 32 0
-375 -97 1 0
-375 97 -1 0
-375 -98 2 0
-375 98 -2 0
-375 -99 3 0
-375 99 -3 0
-375 -100 4 0
-375 100 -4 0
-375 -101 0
-375 -102 0
-375 -103 0
-375 -104 0
-375 -105 9 0
-375 105 -9 0
-375 -106 10 0
-375 106 -10 0
-375 -107 11 0
-375 107 -11 0
-375 -108 12 0
-375 108 -12 0
-375 -109 0
-375 -110 0
-375 -111 0
-375 -112 0
-375 -113 17 0
-375 113 -17 0
-375 -114 18 0
-375 114 -18 0
-375 -115 19 0
-375 115 -19 0
-375 -116 20 0
-375 116 -20 0
-375 -117 0
-375 -118 0
-375 -119 0
-375 -120 0
-375 -121 25 0
-375 121 -25 0
-375 -122 26 0
-375 122 -26 0
-375 -123 27 0
-375 123 -27 0
-375 -124 28 0
-375 124 -28 0
-375 -125 0
-375 -126 0
-375 -127 0
-375 -128 0
-376 -97 -1 0
-376 97 1 0
-376 -98 -2 0
-376 98 2 0
-376 -99 -3 0
-376 99 3 0
-376 -100 -4 0
-376 100 4 0
-376 -101 0
-376 -102 0
-376 -103 0
-376 -104 0
-376 -105 -9 0
-376 105 9 0
-376 -106 -10 0
-376 106 10 0
-376 -107 -11 0
-376 107 11 0
-376 -108 -12 0
-376 108 12 0
-376 -109 0
-376 -110 0
-376 -111 0
-376 -112 0
-376 -113 -17 0
-376 113 17 0
-376 -114 -18 0
-376 114 18 0
-376 -115 -19 0
-376 115 19 0
-376 -116 -20 0
-376 116 20 0
-376 -117 0
-376 -118 0
-376 -119 0
-376 -120 0
-376 -121 -25 0
-376 121 25 0
-376 -122 -26 0
-376 122 26 0
-376 -123 -27 0
-376 123 27 0
-376 -124 -28 0
-376 124 28 0
-376 -125 0
-376 -126 0
-376 -127 0
-376 -128 0
-377 -97 0
-377 -98 0
-377 -99 0
-377 -100 0
-377 -101 37 0
-377 101 -37 0
-377 -102 38 0
-377 102 -38 0
-377 -103 39 0
-377 103 -39 0
-377 -104 40 0
-377 104 -40 0
-377 -105 0
-377 -106 0
-377 -107 0
-377 -108 0
-377 -109 45 0
-377 109 -45 0
-377 -110 46 0
-377 110 -46 0
-377 -111 47 0
-377 111 -47 0
-377 -112 48 0
-377 112 -48 0
-377 -113 0
-377 -114 0
-377 -115 0
-377 -116 0
-377 -117 53 0
-377 117 -53 0
-377 -118 54 0
-377 118 -54 0
-377 -119 55 0
-377 119 -55 0
-377 -120 56 0
-377 120 -56 0
-377 -121 0
-377 -122 0
-377 -123 0
-377 -124 0
-377 -125 61 0
-377 125 -61 0
-377 -126 62 0
-377 126 -62 0
-377 -127 63 0
-377 127 -63 0
-377 -128 64 0
-377 128 -64 0
-378 -97 0
-378 -98 0
-378 -99 0
-378 -100 0
-378 -101 -37 0
-378 101 37 0
-378 -102 -38 0
-378 102 38 0
-378 -103 -39 0
-378 103 39 0
-378 -104 -40 0
-378 104 40 0
-378 -105 0
-378 -106 0
-378 -107 0
-378 -108 0
-378 -109 -45 0
-378 109 45 0
-378 -110 -46 0
-378 110 46 0
-378 -111 -47 0
-378 111 47 0
-378 -112 -48 0
-378 112 48 0
-378 -113 0
-378 -114 0
-378 -115 0
-378 -116 0
-378 -117 -53 0
-378 117 53 0
-378 -118 -54 0
-378 118 54 0
-378 -119 -55 0
-378 119 55 0
-378 -120 -56 0
-378 120 56 0
-378 -121 0
-378 -122 0
-378 -123 0
-378 -124 0
-378 -125 -61 0
-378 125 61 0
-378 -126 -62 0
-378 126 62 0
-378 -127 -63 0
-378 127 63 0
-378 -128 -64 0
-378 128 64 0
-379 -97 33 0
-379 97 -33 0
-379 -98 34 0
-379 98 -34 0
-379 -99 35 0
-379 99 -35 0
-379 -100 36 0
-379 100 -36 0
-379 -101 0
-379 -102 0
-379 -103 0
-379 -104 0
-379 -105 41 0
-379 105 -41 0
-379 -106 42 0
-379 106 -42 0
-379 -107 43 0
-379 107 -43 0
-379 -108 44 0
-379 108 -44 0
-379 -109 0
-379 -110 0
-379 -111 0
-379 -112 0
-379 -113 49 0
-379 113 -49 0
-379 -114 50 0
-379 114 -50 0
-379 -115 51 0
-379 115 -51 0
-379 -116 52 0
-379 116 -52 0
-379 -117 0
-379 -118 0
-379 -119 0
-379 -120 0
-379 -121 57 0
-379 121 -57 0
-379 -122 58 0
-379 122 -58 0
-379 -123 59 0
-379 123 -59 0
-379 -124 60 0
-379 124 -60 0
-379 -125 0
-379 -126 0
-379 -127 0
-379 -128 0
-380 -97 -33 0
-380 97 33 0
-380 -98 -34 0
-380 98 34 0
-380 -99 -35 0
-380 99 35 0
-380 -100 -36 0
-380 100 36 0
-380 -101 0
-380 -102 0
-380 -103 0
-380 -104 0
-380 -105 -41 0
-380 105 41 0
-380 -106 -42 0
-380 106 42 0
-380 -107 -43 0
-380 107 43 0
-380 -108 -44 0
-380 108 44 0
-380 -109 0
-380 -110 0
-380 -111 0
-380 -112 0
-380 -113 -49 0
-380 113 49 0
-380 -114 -50 0
-380 114 50 0
-380 -115 -51 0
-380 115 51 0
-380 -116 -52 0
-380 116 52 0
-380 -117 0
-380 -118 0
-380 -119 0
-380 -120 0
-380 -121 -57 0
-380 121 57 0
-380 -122 -58 0
-380 122 58 0
-380 -123 -59 0
-380 123 59 0
-380 -124 -60 0
-380 124 60 0
-380 -125 0
-380 -126 0
-380 -127 0
-380 -128 0
-381 -97 0
-381 -98 0
-381 -99 0
-381 -100 0
-381 -101 69 0
-381 101 -69 0
-381 -102 70 0
-381 102 -70 0
-381 -103 71 0
-381 103 -71 0
-381 -104 72 0
-381 104 -72 0
-381 -105 0
-381 -106 0
-381 -107 0
-381 -108 0
-381 -109 77 0
-381 109 -77 0
-381 -110 78 0
-381 110 -78 0
-381 -111 79 0
-381 111 -79 0
-381 -112 80 0
-381 112 -80 0
-381 -113 0
-381 -114 0
-381 -115 0
-381 -116 0
-381 -117 85 0
-381 117 -85 0
-381 -118 86 0
-381 118 -86 0
-381 -119 87 0
-381 119 -87 0
-381 -120 88 0
-381 120 -88 0
-381 -121 0
-381 -122 0
-381 -123 0
-381 -124 0
-381 -125 93 0
-381 125 -93 0
-381 -126 94 0
-381 126 -94 0
-381 -127 95 0
-381 127 -95 0
-381 -128 96 0
-381 128 -96 0
-382 -97 0
-382 -98 0
-382 -99 0
-382 -100 0
-382 -101 -69 0
-382 101 69 0
-382 -102 -70 0
-382 102 70 0
-382 -103 -71 0
-382 103 71 0
-382 -104 -72 0
-382 104 72 0
-382 -105 0
-382 -106 0
-382 -107 0
-382 -108 0
-382 -109 -77 0
-382 109 77 0
-382 -110 -78 0
-382 110 78 0
-382 -111 -79 0
-382 111 79 0
-382 -112 -80 0
-382 112 80 0
-382 -113 0
-382 -114 0
-382 -115 0
-382 -116 0
-382 -117 -85 0
-382 117 85 0
-382 -118 -86 0
-382 118 86 0
-382 -119 -87 0
-382 119 87 0
-382 -120 -88 0
-382 120 88 0
-382 -121 0
-382 -122 0
-382 -123 0
-382 -124 0
-382 -125 -93 0
-382 125 93 0
-382 -126 -94 0
-382 126 94 0
-382 -127 -95 0
-382 127 95 0
-382 -128 -96 0
-382 128 96 0
-383 -97 65 0
-383 97 -65 0
-383 -98 66 0
-383 98 -66 0
-383 -99 67 0
-383 99 -67 0
-383 -100 68 0
-383 100 -68 0
-383 -101 0
-383 -102 0
-383 -103 0
-383 -104 0
-383 -105 73 0
-383 105 -73 0
-383 -106 74 0
-383 106 -74 0
-383 -107 75 0
-383 107 -75 0
-383 -108 76 0
-383 108 -76 0
-383 -109 0
-383 -110 0
-383 -111 0
-383 -112 0
-383 -113 81 0
-383 113 -81 0
-383 -114 82 0
-383 114 -82 0
-383 -115 83 0
-383 115 -83 0
-383 -116 84 0
-383 116 -84 0
-383 -117 0
-383 -118 0
-383 -119 0
-383 -120 0
-383 -121 89 0
-383 121 -89 0
-383 -122 90 0
-383 122 -90 0
-383 -123 91 0
-383 123 -91 0
-383 -124 92 0
-383 124 -92 0
-383 -125 0
-383 -126 0
-383 -127 0
-383 -128 0
-384 -97 -65 0
-384 97 65 0
-384 -98 -66 0
-384 98 66 0
-384 -99 -67 0
-384 99 67 0
-384 -100 -68 0
-384 100 68 0
-384 -101 0
-384 -102 0
-384 -103 0
-384 -104 0
-384 -105 -73 0
-384 105 73 0
-384 -106 -74 0
-384 106 74 0
-384 -107 -75 0
-384 107 75 0
-384 -108 -76 0
-384 108 76 0
-384 -109 0
-384 -110 0
-384 -111 0
-384 -112 0
-384 -113 -81 0
-384 113 81 0
-384 -114 -82 0
-384 114 82 0
-384 -115 -83 0
-384 115 83 0
-384 -116 -84 0
-384 116 84 0
-384 -117 0
-384 -118 0
-384 -119 0
-384 -120 0
-384 -121 -89 0
-384 121 89 0
-384 -122 -90 0
-384 122 90 0
-384 -123 -91 0
-384 123 91 0
-384 -124 -92 0
-384 124 92 0
-384 -125 0
-384 -126 0
-384 -127 0
-384 -128 0
-385 -97 0
-385 -98 0
-385 -99 0
-385 -100 0
-385 -101 0
-385 -102 0
-385 -103 0
-385 -104 0
-385 -105 0
-385 -106 0
-385 -107 0
-385 -108 0
-385 -109 0
-385 -110 0
-385 -111 0
-385 -112 0
-385 -113 0
-385 -114 0
-385 -115 0
-385 -116 0
-385 -117 0
-385 -118 0
-385 -119 0
-385 -120 0
-385 121 0
-385 122 0
-385 123 0
-385 124 0
-385 125 0
-385 126 0
-385 127 0
-385 128 0
-386 -97 0
-386 -98 0
-386 -99 0
-386 -100 0
-386 -101 0
-386 -102 0
-386 -103 0
-386 -104 0
-386 105 0
-386 106 0
-386 107 0
-386 108 0
-386 109 0
-386 110 0
-386 111 0
-386 112 0
-386 -113 0
-386 -114 0
-386 -115 0
-386 -116 0
-386 -117 0
-386 -118 0
-386 -119 0
-386 -120 0
-386 -121 0
-386 -122 0
-386 -123 0
-386 -124 0
-386 -125 0
-386 -126 0
-386 -127 0
-386 -128 0
-387 -97 0
-387 -98 0
-387 -99 0
-387 -100 0
-387 -101 0
-387 -102 0
-387 -103 0
-387 -104 0
-387 -105 0
-387 -106 0
-387 -107 0
-387 -108 0
-387 -109 0
-387 -110 0
-387 -111 0
-387 -112 0
-387 113 0
-387 114 0
-387 115 0
-387 116 0
-387 117 0
-387 118 0
-387 119 0
-387 120 0
-387 -121 0
-387 -122 0
-387 -123 0
-387 -124 0
-387 -125 0
-387 -126 0
-387 -127 0
-387 -128 0
-388 97 0
-388 98 0
-388 99 0
-388 100 0
-388 101 0
-388 102 0
-388 103 0
-388 104 0
-388 -105 0
-388 -106 0
-388 -107 0
-388 -108 0
-388 -109 0
-388 -110 0
-388 -111 0
-388 -112 0
-388 -113 0
-388 -114 0
-388 -115 0
-388 -116 0
-388 -117 0
-388 -118 0
-388 -119 0
-388 -120 0
-388 -121 0
-388 -122 0
-388 -123 0
-388 -124 0
-388 -125 0
-388 -126 0
-388 -127 0
-388 -128 0
-389 -97 0
-389 -98 0
-389 -99 0
-389 -100 0
-389 -101 0
-389 -102 0
-389 -103 0
-389 -104 0
-389 -105 9 0
-389 105 -9 0
-389 -106 10 0
-389 106 -10 0
-389 -107 11 0
-389 107 -11 0
-389 -108 12 0
-389 108 -12 0
-389 -109 13 0
-389 109 -13 0
-389 -110 14 0
-389 110 -14 0
-389 -111 15 0
-389 111 -15 0
-389 -112 16 0
-389 112 -16 0
-389 -113 0
-389 -114 0
-389 -115 0
-389 -116 0
-389 -117 0
-389 -118 0
-389 -119 0
-389 -120 0
-389 -121 25 0
-389 121 -25 0
-389 -122 26 0
-389 122 -26 0
-389 -123 27 0
-389 123 -27 0
-389 -124 28 0
-389 124 -28 0
-389 -125 29 0
-389 125 -29 0
-389 -126 30 0
-389 126 -30 0
-389 -127 31 0
-389 127 -31 0
-389 -128 32 0
-389 128 -32 0
-390 -97 0
-390 -98 0
-390 -99 0
-390 -100 0
-390 -101 0
-390 -102 0
-390 -103 0
-390 -104 0
-390 -105 -9 0
-390 105 9 0
-390 -106 -10 0
-390 106 10 0
-390 -107 -11 0
-390 107 11 0
-390 -108 -12 0
-390 108 12 0
-390 -109 -13 0
-390 109 13 0
-390 -110 -14 0
-390 110 14 0
-390 -111 -15 0
-390 111 15 0
-390 -112 -16 0
-390 112 16 0
-390 -113 0
-390 -114 0
-390 -115 0
-390 -116 0
-390 -117 0
-390 -118 0
-390 -119 0
-390 -120 0
-390 -121 -25 0
-390 121 25 0
-390 -122 -26 0
-390 122 26 0
-390 -123 -27 0
-390 123 27 0
-390 -124 -28 0
-390 124 28 0
-390 -125 -29 0
-390 125 29 0
-390 -126 -30 0
-390 126 30 0
-390 -127 -31 0
-390 127 31 0
-390 -128 -32 0
-390 128 32 0
-391 -97 1 0
-391 97 -1 0
-391 -98 2 0
-391 98 -2 0
-391 -99 3 0
-391 99 -3 0
-391 -100 4 0
-391 100 -4 0
-391 -101 5 0
-391 101 -5 0
-391 -102 6 0
-391 102 -6 0
-391 -103 7 0
-391 103 -7 0
-391 -104 8 0
-391 104 -8 0
-391 -105 0
-391 -106 0
-391 -107 0
-391 -108 0
-391 -109 0
-391 -110 0
-391 -111 0
-391 -112 0
-391 -113 17 0
-391 113 -17 0
-391 -114 18 0
-391 114 -18 0
-391 -115 19 0
-391 115 -19 0
-391 -116 20 0
-391 116 -20 0
-391 -117 21 0
-391 117 -21 0
-391 -118 22 0
-391 118 -22 0
-391 -119 23 0
-391 119 -23 0
-391 -120 24 0
-391 120 -24 0
-391 -121 0
-391 -122 0
-391 -123 0
-391 -124 0
-391 -125 0
-391 -126 0
-391 -127 0
-391 -128 0
-392 -97 -1 0
-392 97 1 0
-392 -98 -2 0
-392 98 2 0
-392 -99 -3 0
-392 99 3 0
-392 -100 -4 0
-392 100 4 0
-392 -101 -5 0
-392 101 5 0
-392 -102 -6 0
-392 102 6 0
-392 -103 -7 0
-392 103 7 0
-392 -104 -8 0
-392 104 8 0
-392 -105 0
-392 -106 0
-392 -107 0
-392 -108 0
-392 -109 0
-392 -110 0
-392 -111 0
-392 -112 0
-392 -113 -17 0
-392 113 17 0
-392 -114 -18 0
-392 114 18 0
-392 -115 -19 0
-392 115 19 0
-392 -116 -20 0
-392 116 20 0
-392 -117 -21 0
-392 117 21 0
-392 -118 -22 0
-392 118 22 0
-392 -119 -23 0
-392 119 23 0
-392 -120 -24 0
-392 120 24 0
-392 -121 0
-392 -122 0
-392 -123 0
-392 -124 0
-392 -125 0
-392 -126 0
-392 -127 0
-392 -128 0
-393 -97 0
-393 -98 0
-393 -99 0
-393 -100 0
-393 -101 0
-393 -102 0
-393 -103 0
-393 -104 0
-393 -105 41 0
-393 105 -41 0
-393 -106 42 0
-393 106 -42 0
-393 -107 43 0
-393 107 -43 0
-393 -108 44 0
-393 108 -44 0
-393 -109 45 0
-393 109 -45 0
-393 -110 46 0
-393 110 -46 0
-393 -111 47 0
-393 111 -47 0
-393 -112 48 0
-393 112 -48 0
-393 -113 0
-393 -114 0
-393 -115 0
-393 -116 0
-393 -117 0
-393 -118 0
-393 -119 0
-393 -120 0
-393 -121 57 0
-393 121 -57 0
-393 -122 58 0
-393 122 -58 0
-393 -123 59 0
-393 123 -59 0
-393 -124 60 0
-393 124 -60 0
-393 -125 61 0
-393 125 -61 0
-393 -126 62 0
-393 126 -62 0
-393 -127 63 0
-393 127 -63 0
-393 -128 64 0
-393 128 -64 0
-394 -97 0
-394 -98 0
-394 -99 0
-394 -100 0
-394 -101 0
-394 -102 0
-394 -103 0
-394 -104 0
-394 -105 -41 0
-394 105 41 0
-394 -106 -42 0
-394 106 42 0
-394 -107 -43 0
-394 107 43 0
-394 -108 -44 0
-394 108 44 0
-394 -109 -45 0
-394 109 45 0
-394 -110 -46 0
-394 110 46 0
-394 -111 -47 0
-394 111 47 0
-394 -112 -48 0
-394 112 48 0
-394 -113 0
-394 -114 0
-394 -115 0
-394 -116 0
-394 -117 0
-394 -118 0
-394 -119 0
-394 -120 0
-394 -121 -57 0
-394 121 57 0
-394 -122 -58 0
-394 122 58 0
-394 -123 -59 0
-394 123 59 0
-394 -124 -60 0
-394 124 60 0
-394 -125 -61 0
-394 125 61 0
-394 -126 -62 0
-394 126 62 0
-394 -127 -63 0
-394 127 63 0
-394 -128 -64 0
-394 128 64 0
-395 -97 33 0
-395 97 -33 0
-395 -98 34 0
-395 98 -34 0
-395 -99 35 0
-395 99 -35 0
-395 -100 36 0
-395 100 -36 0
-395 -101 37 0
-395 101 -37 0
-395 -102 38 0
-395 102 -38 0
-395 -103 39 0
-395 103 -39 0
-395 -104 40 0
-395 104 -40 0
-395 -105 0
-395 -106 0
-395 -107 0
-395 -108 0
-395 -109 0
-395 -110 0
-395 -111 0
-395 -112 0
-395 -113 49 0
-395 113 -49 0
-395 -114 50 0
-395 114 -50 0
-395 -115 51 0
-395 115 -51 0
-395 -116 52 0
-395 116 -52 0
-395 -117 53 0
-395 117 -53 0
-395 -118 54 0
-395 118 -54 0
-395 -119 55 0
-395 119 -55 0
-395 -120 56 0
-395 120 -56 0
-395 -121 0
-395 -122 0
-395 -123 0
-395 -124 0
-395 -125 0
-395 -126 0
-395 -127 0
-395 -128 0
-396 -97 -33 0
-396 97 33 0
-396 -98 -34 0
-396 98 34 0
-396 -99 -35 0
-396 99 35 0
-396 -100 -36 0
-396 100 36 0
-396 -101 -37 0
-396 101 37 0
-396 -102 -38 0
-396 102 38 0
-396 -103 -39 0
-396 103 39 0
-396 -104 -40 0
-396 104 40 0
-396 -105 0
-396 -106 0
-396 -107 0
-396 -108 0
-396 -109 0
-396 -110 0
-396 -111 0
-396 -112 0
-396 -113 -49 0
-396 113 49 0
-396 -114 -50 0
-396 114 50 0
-396 -115 -51 0
-396 115 51 0
-396 -116 -52 0
-396 116 52 0
-396 -117 -53 0
-396 117 53 0
-396 -118 -54 0
-396 118 54 0
-396 -119 -55 0
-396 119 55 0
-396 -120 -56 0
-396 120 56 0
-396 -121 0
-396 -122 0
-396 -123 0
-396 -124 0
-396 -125 0
-396 -126 0
-396 -127 0
-396 -128 0
-397 -97 0
-397 -98 0
-397 -99 0
-397 -100 0
-397 -101 0
-397 -102 0
-397 -103 0
-397 -104 0
-397 -105 73 0
-397 105 -73 0
-397 -106 74 0
-397 106 -74 0
-397 -107 75 0
-397 107 -75 0
-397 -108 76 0
-397 108 -76 0
-397 -109 77 0
-397 109 -77 0
-397 -110 78 0
-397 110 -78 0
-397 -111 79 0
-397 111 -79 0
-397 -112 80 0
-397 112 -80 0
-397 -113 0
-397 -114 0
-397 -115 0
-397 -116 0
-397 -117 0
-397 -118 0
-397 -119 0
-397 -120 0
-397 -121 89 0
-397 121 -89 0
-397 -122 90 0
-397 122 -90 0
-397 -123 91 0
-397 123 -91 0
-397 -124 92 0
-397 124 -92 0
-397 -125 93 0
-397 125 -93 0
-397 -126 94 0
-397 126 -94 0
-397 -127 95 0
-397 127 -95 0
-397 -128 96 0
-397 128 -96 0
-398 -97 0
-398 -98 0
-398 -99 0
-398 -100 0
-398 -101 0
-398 -102 0
-398 -103 0
-398 -104 0
-398 -105 -73 0
-398 105 73 0
-398 -106 -74 0
-398 106 74 0
-398 -107 -75 0
-398 107 75 0
-398 -108 -76 0
-398 108 76 0
-398 -109 -77 0
-398 109 77 0
-398 -110 -78 0
-398 110 78 0
-398 -111 -79 0
-398 111 79 0
-398 -112 -80 0
-398 112 80 0
-398 -113 0
-398 -114 0
-398 -115 0
-398 -116 0
-398 -117 0
-398 -118 0
-398 -119 0
-398 -120 0
-398 -121 -89 0
-398 121 89 0
-398 -122 -90 0
-398 122 90 0
-398 -123 -91 0
-398 123 91 0
-398 -124 -92 0
-398 124 92 0
-398 -125 -93 0
-398 125 93 0
-398 -126 -94 0
-398 126 94 0
-398 -127 -95 0
-398 127 95 0
-398 -128 -96 0
-398 128 96 0
-399 -97 65 0
-399 97 -65 0
-399 -98 66 0
-399 98 -66 0
-399 -99 67 0
-399 99 -67 0
-399 -100 68 0
-399 100 -68 0
-399 -101 69 0
-399 101 -69 0
-399 -102 70 0
-399 102 -70 0
-399 -103 71 0
-399 103 -71 0
-399 -104 72 0
-399 104 -72 0
-399 -105 0
-399 -106 0
-399 -107 0
-399 -108 0
-399 -109 0
-399 -110 0
-399 -111 0
-399 -112 0
-399 -113 81 0
-399 113 -81 0
-399 -114 82 0
-399 114 -82 0
-399 -115 83 0
-399 115 -83 0
-399 -116 84 0
-399 116 -84 0
-399 -117 85 0
-399 117 -85 0
-399 -118 86 0
-399 118 -86 0
-399 -119 87 0
-399 119 -87 0
-399 -120 88 0
-399 120 -88 0
-399 -121 0
-399 -122 0
-399 -123 0
-399 -124 0
-399 -125 0
-399 -126 0
-399 -127 0
-399 -128 0
-400 -97 -65 0
-400 97 65 0
-400 -98 -66 0
-400 98 66 0
-400 -99 -67 0
-400 99 67 0
-400 -100 -68 0
-400 100 68 0
-400 -101 -69 0
-400 101 69 0
-400 -102 -70 0
-400 102 70 0
-400 -103 -71 0
-400 103 71 0
-400 -104 -72 0
-400 104 72 0
-400 -105 0
-400 -106 0
-400 -107 0
-400 -108 0
-400 -109 0
-400 -110 0
-400 -111 0
-400 -112 0
-400 -113 -81 0
-400 113 81 0
-400 -114 -82 0
-400 114 82 0
-400 -115 -83 0
-400 115 83 0
-400 -116 -84 0
-400 116 84 0
-400 -117 -85 0
-400 117 85 0
-400 -118 -86 0
-400 118 86 0
-400 -119 -87 0
-400 119 87 0
-400 -120 -88 0
-400 120 88 0
-400 -121 0
-400 -122 0
-400 -123 0
-400 -124 0
-400 -125 0
-400 -126 0
-400 -127 0
-400 -128 0
-401 -97 0
-401 -98 0
-401 -99 0
-401 -100 0
-401 -101 0
-401 -102 0
-401 -103 0
-401 -104 0
-401 -105 0
-401 -106 0
-401 -107 0
-401 -108 0
-401 -109 0
-401 -110 0
-401 -111 0
-401 -112 0
-401 -113 17 0
-401 113 -17 0
-401 -114 18 0
-401 114 -18 0
-401 -115 19 0
-401 115 -19 0
-401 -116 20 0
-401 116 -20 0
-401 -117 21 0
-401 117 -21 0
-401 -118 22 0
-401 118 -22 0
-401 -119 23 0
-401 119 -23 0
-401 -120 24 0
-401 120 -24 0
-401 -121 25 0
-401 121 -25 0
-401 -122 26 0
-401 122 -26 0
-401 -123 27 0
-401 123 -27 0
-401 -124 28 0
-401 124 -28 0
-401 -125 29 0
-401 125 -29 0
-401 -126 30 0
-401 126 -30 0
-401 -127 31 0
-401 127 -31 0
-401 -128 32 0
-401 128 -32 0
-402 -97 0
-402 -98 0
-402 -99 0
-402 -100 0
-402 -101 0
-402 -102 0
-402 -103 0
-402 -104 0
-402 -105 0
-402 -106 0
-402 -107 0
-402 -108 0
-402 -109 0
-402 -110 0
-402 -111 0
-402 -112 0
-402 -113 -17 0
-402 113 17 0
-402 -114 -18 0
-402 114 18 0
-402 -115 -19 0
-402 115 19 0
-402 -116 -20 0
-402 116 20 0
-402 -117 -21 0
-402 117 21 0
-402 -118 -22 0
-402 118 22 0
-402 -119 -23 0
-402 119 23 0
-402 -120 -24 0
-402 120 24 0
-402 -121 -25 0
-402 121 25 0
-402 -122 -26 0
-402 122 26 0
-402 -123 -27 0
-402 123 27 0
-402 -124 -28 0
-402 124 28 0
-402 -125 -29 0
-402 125 29 0
-402 -126 -30 0
-402 126 30 0
-402 -127 -31 0
-402 127 31 0
-402 -128 -32 0
-402 128 32 0
-403 -97 1 0
-403 97 -1 0
-403 -98 2 0
-403 98 -2 0
-403 -99 3 0
-403 99 -3 0
-403 -100 4 0
-403 100 -4 0
-403 -101 5 0
-403 101 -5 0
-403 -102 6 0
-403 102 -6 0
-403 -103 7 0
-403 103 -7 0
-403 -104 8 0
-403 104 -8 0
-403 -105 9 0
-403 105 -9 0
-403 -106 10 0
-403 106 -10 0
-403 -107 11 0
-403 107 -11 0
-403 -108 12 0
-403 108 -12 0
-403 -109 13 0
-403 109 -13 0
-403 -110 14 0
-403 110 -14 0
-403 -111 15 0
-403 111 -15 0
-403 -112 16 0
-403 112 -16 0
-403 -113 0
-403 -114 0
-403 -115 0
-403 -116 0
-403 -117 0
-403 -118 0
-403 -119 0
-403 -120 0
-403 -121 0
-403 -122 0
-403 -123 0
-403 -124 0
-403 -125 0
-403 -126 0
-403 -127 0
-403 -128 0
-404 -97 -1 0
-404 97 1 0
-404 -98 -2 0
-404 98 2 0
-404 -99 -3 0
-404 99 3 0
-404 -100 -4 0
-404 100 4 0
-404 -101 -5 0
-404 101 5 0
-404 -102 -6 0
-404 102 6 0
-404 -103 -7 0
-404 103 7 0
-404 -104 -8 0
-404 104 8 0
-404 -105 -9 0
-404 105 9 0
-404 -106 -10 0
-404 106 10 0
-404 -107 -11 0
-404 107 11 0
-404 -108 -12 0
-404 108 12 0
-404 -109 -13 0
-404 109 13 0
-404 -110 -14 0
-404 110 14 0
-404 -111 -15 0
-404 111 15 0
-404 -112 -16 0
-404 112 16 0
-404 -113 0
-404 -114 0
-404 -115 0
-404 -116 0
-404 -117 0
-404 -118 0
-404 -119 0
-404 -120 0
-404 -121 0
-404 -122 0
-404 -123 0
-404 -124 0
-404 -125 0
-404 -126 0
-404 -127 0
-404 -128 0
-405 -97 0
-405 -98 0
-405 -99 0
-405 -100 0
-405 -101 0
-405 -102 0
-405 -103 0
-405 -104 0
-405 -105 0
-405 -106 0
-405 -107 0
-405 -108 0
-405 -109 0
-405 -110 0
-405 -111 0
-405 -112 0
-405 -113 49 0
-405 113 -49 0
-405 -114 50 0
-405 114 -50 0
-405 -115 51 0
-405 115 -51 0
-405 -116 52 0
-405 116 -52 0
-405 -117 53 0
-405 117 -53 0
-405 -118 54 0
-405 118 -54 0
-405 -119 55 0
-405 119 -55 0
-405 -120 56 0
-405 120 -56 0
-405 -121 57 0
-405 121 -57 0
-405 -122 58 0
-405 122 -58 0
-405 -123 59 0
-405 123 -59 0
-405 -124 60 0
-405 124 -60 0
-405 -125 61 0
-405 125 -61 0
-405 -126 62 0
-405 126 -62 0
-405 -127 63 0
-405 127 -63 0
-405 -128 64 0
-405 128 -64 0
-406 -97 0
-406 -98 0
-406 -99 0
-406 -100 0
-406 -101 0
-406 -102 0
-406 -103 0
-406 -104 0
-406 -105 0
-406 -106 0
-406 -107 0
-406 -108 0
-406 -109 0
-406 -110 0
-406 -111 0
-406 -112 0
-406 -113 -49 0
-406 113 49 0
-406 -114 -50 0
-406 114 50 0
-406 -115 -51 0
-406 115 51 0
-406 -116 -52 0
-406 116 52 0
-406 -117 -53 0
-406 117 53 0
-406 -118 -54 0
-406 118 54 0
-406 -119 -55 0
-406 119 55 0
-406 -120 -56 0
-406 120 56 0
-406 -121 -57 0
-406 121 57 0
-406 -122 -58 0
-406 122 58 0
-406 -123 -59 0
-406 123 59 0
-406 -124 -60 0
-406 124 60 0
-406 -125 -61 0
-406 125 61 0
-406 -126 -62 0
-406 126 62 0
-406 -127 -63 0
-406 127 63 0
-406 -128 -64 0
-406 128 64 0
-407 -97 33 0
-407 97 -33 0
-407 -98 34 0
-407 98 -34 0
-407 -99 35 0
-407 99 -35 0
-407 -100 36 0
-407 100 -36 0
-407 -101 37 0
-407 101 -37 0
-407 -102 38 0
-407 102 -38 0
-407 -103 39 0
-407 103 -39 0
-407 -104 40 0
-407 104 -40 0
-407 -105 41 0
-407 105 -41 0
-407 -106 42 0
-407 106 -42 0
-407 -107 43 0
-407 107 -43 0
-407 -108 44 0
-407 108 -44 0
-407 -109 45 0
-407 109 -45 0
-407 -110 46 0
-407 110 -46 0
-407 -111 47 0
-407 111 -47 0
-407 -112 48 0
-407 112 -48 0
-407 -113 0
-407 -114 0
-407 -115 0
-407 -116 0
-407 -117 0
-407 -118 0
-407 -119 0
-407 -120 0
-407 -121 0
-407 -122 0
-407 -123 0
-407 -124 0
-407 -125 0
-407 -126 0
-407 -127 0
-407 -128 0
-408 -97 -33 0
-408 97 33 0
-408 -98 -34 0
-408 98 34 0
-408 -99 -35 0
-408 99 35 0
-408 -100 -36 0
-408 100 36 0
-408 -101 -37 0
-408 101 37 0
-408 -102 -38 0
-408 102 38 0
-408 -103 -39 0
-408 103 39 0
-408 -104 -40 0
-408 104 40 0
-408 -105 -41 0
-408 105 41 0
-408 -106 -42 0
-408 106 42 0
-408 -107 -43 0
-408 107 43 0
-408 -108 -44 0
-408 108 44 0
-408 -109 -45 0
-408 109 45 0
-408 -110 -46 0
-408 110 46 0
-408 -111 -47 0
-408 111 47 0
-408 -112 -48 0
-408 112 48 0
-408 -113 0
-408 -114 0
-408 -115 0
-408 -116 0
-408 -117 0
-408 -118 0
-408 -119 0
-408 -120 0
-408 -121 0
-408 -122 0
-408 -123 0
-408 -124 0
-408 -125 0
-408 -126 0
-408 -127 0
-408 -128 0
-409 -97 0
-409 -98 0
-409 -99 0
-409 -100 0
-409 -101 0
-409 -102 0
-409 -103 0
-409 -104 0
-409 -105 0
-409 -106 0
-409 -107 0
-409 -108 0
-409 -109 0
-409 -110 0
-409 -111 0
-409 -112 0
-409 -113 81 0
-409 113 -81 0
-409 -114 82 0
-409 114 -82 0
-409 -115 83 0
-409 115 -83 0
-409 -116 84 0
-409 116 -84 0
-409 -117 85 0
-409 117 -85 0
-409 -118 86 0
-409 118 -86 0
-409 -119 87 0
-409 119 -87 0
-409 -120 88 0
-409 120 -88 0
-409 -121 89 0
-409 121 -89 0
-409 -122 90 0
-409 122 -90 0
-409 -123 91 0
-409 123 -91 0
-409 -124 92 0
-409 124 -92 0
-409 -125 93 0
-409 125 -93 0
-409 -126 94 0
-409 126 -94 0
-409 -127 95 0
-409 127 -95 0
-409 -128 96 0
-409 128 -96 0
-410 -97 0
-410 -98 0
-410 -99 0
-410 -100 0
-410 -101 0
-410 -102 0
-410 -103 0
-410 -104 0
-410 -105 0
-410 -106 0
-410 -107 0
-410 -108 0
-410 -109 0
-410 -110 0
-410 -111 0
-410 -112 0
-410 -113 -81 0
-410 113 81 0
-410 -114 -82 0
-410 114 82 0
-410 -115 -83 0
-410 115 83 0
-410 -116 -84 0
-410 116 84 0
-410 -117 -85 0
-410 117 85 0
-410 -118 -86 0
-410 118 86 0
-410 -119 -87 0
-410 119 87 0
-410 -120 -88 0
-410 120 88 0
-410 -121 -89 0
-410 121 89 0
-410 -122 -90 0
-410 122 90 0
-410 -123 -91 0
-410 123 91 0
-410 -124 -92 0
-410 124 92 0
-410 -125 -93 0
-410 125 93 0
-410 -126 -94 0
-410 126 94 0
-410 -127 -95 0
-410 127 95 0
-410 -128 -96 0
-410 128 96 0
-411 -97 65 0
-411 97 -65 0
-411 -98 66 0
-411 98 -66 0
-411 -99 67 0
-411 99 -67 0
-411 -100 68 0
-411 100 -68 0
-411 -101 69 0
-411 101 -69 0
-411 -102 70 0
-411 102 -70 0
-411 -103 71 0
-411 103 -71 0
-411 -104 72 0
-411 104 -72 0
-411 -105 73 0
-411 105 -73 0
-411 -106 74 0
-411 106 -74 0
-411 -107 75 0
-411 107 -75 0
-411 -108 76 0
-411 108 -76 0
-411 -109 77 0
-411 109 -77 0
-411 -110 78 0
-411 110 -78 0
-411 -111 79 0
-411 111 -79 0
-411 -112 80 0
-411 112 -80 0
-411 -113 0
-411 -114 0
-411 -115 0
-411 -116 0
-411 -117 0
-411 -118 0
-411 -119 0
-411 -120 0
-411 -121 0
-411 -122 0
-411 -123 0
-411 -124 0
-411 -125 0
-411 -126 0
-411 -127 0
-411 -128 0
-412 -97 -65 0
-412 97 65 0
-412 -98 -66 0
-412 98 66 0
-412 -99 -67 0
-412 99 67 0
-412 -100 -68 0
-412 100 68 0
-412 -101 -69 0
-412 101 69 0
-412 -102 -70 0
-412 102 70 0
-412 -103 -71 0
-412 103 71 0
-412 -104 -72 0
-412 104 72 0
-412 -105 -73 0
-412 105 73 0
-412 -106 -74 0
-412 106 74 0
-412 -107 -75 0
-412 107 75 0
-412 -108 -76 0
-412 108 76 0
-412 -109 -77 0
-412 109 77 0
-412 -110 -78 0
-412 110 78 0
-412 -111 -79 0
-412 111 79 0
-412 -112 -80 0
-412 112 80 0
-412 -113 0
-412 -114 0
-412 -115 0
-412 -116 0
-412 -117 0
-412 -118 0
-412 -119 0
-412 -120 0
-412 -121 0
-412 -122 0
-412 -123 0
-412 -124 0
-412 -125 0
-412 -126 0
-412 -127 0
-412 -128 0
-413 -97 1 0
-413 -97 33 0
-413 97 -1 -33 0
-413 -98 2 0
-413 -98 34 0
-413 98 -2 -34 0
-413 -99 3 0
-413 -99 35 0
-413 99 -3 -35 0
-413 -100 4 0
-413 -100 36 0
-413 100 -4 -36 0
-413 -101 5 0
-413 -101 37 0
-413 101 -5 -37 0
-413 -102 6 0
-413 -102 38 0
-413 102 -6 -38 0
-413 -103 7 0
-413 -103 39 0
-413 103 -7 -39 0
-413 -104 8 0
-413 -104 40 0
-413 104 -8 -40 0
-413 -105 9 0
-413 -105 41 0
-413 105 -9 -41 0
-413 -106 10 0
-413 -106 42 0
-413 106 -10 -42 0
-413 -107 11 0
-413 -107 43 0
-413 107 -11 -43 0
-413 -108 12 0
-413 -108 44 0
-413 108 -12 -44 0
-413 -109 13 0
-413 -109 45 0
-413 109 -13 -45 0
-413 -110 14 0
-413 -110 46 0
-413 110 -14 -46 0
-413 -111 15 0
-413 -111 47 0
-413 111 -15 -47 0
-413 -112 16 0
-413 -112 48 0
-413 112 -16 -48 0
-413 -113 17 0
-413 -113 49 0
-413 113 -17 -49 0
-413 -114 18 0
-413 -114 50 0
-413 114 -18 -50 0
-413 -115 19 0
-413 -115 51 0
-413 115 -19 -51 0
-413 -116 20 0
-413 -116 52 0
-413 116 -20 -52 0
-413 -117 21 0
-413 -117 53 0
-413 117 -21 -53 0
-413 -118 22 0
-413 -118 54 0
-413 118 -22 -54 0
-413 -119 23 0
-413 -119 55 0
-413 119 -23 -55 0
-413 -120 24 0
-413 -120 56 0
-413 120 -24 -56 0
-413 -121 25 0
-413 -121 57 0
-413 121 -25 -57 0
-413 -122 26 0
-413 -122 58 0
-413 122 -26 -58 0
-413 -123 27 0
-413 -123 59 0
-413 123 -27 -59 0
-413 -124 28 0
-413 -124 60 0
-413 124 -28 -60 0
-413 -125 29 0
-413 -125 61 0
-413 125 -29 -61 0
-413 -126 30 0
-413 -126 62 0
-413 126 -30 -62 0
-413 -127 31 0
-413 -127 63 0
-413 127 -31 -63 0
-413 -128 32 0
-413 -128 64 0
-413 128 -32 -64 0
-414 -97 1 0
-414 -97 -33 0
-414 97 -1 33 0
-414 -98 2 0
-414 -98 -34 0
-414 98 -2 34 0
-414 -99 3 0
-414 -99 -35 0
-414 99 -3 35 0
-414 -100 4 0
-414 -100 -36 0
-414 100 -4 36 0
-414 -101 5 0
-414 -101 -37 0
-414 101 -5 37 0
-414 -102 6 0
-414 -102 -38 0
-414 102 -6 38 0
-414 -103 7 0
-414 -103 -39 0
-414 103 -7 39 0
-414 -104 8 0
-414 -104 -40 0
-414 104 -8 40 0
-414 -105 9 0
-414 -105 -41 0
-414 105 -9 41 0
-414 -106 10 0
-414 -106 -42 0
-414 106 -10 42 0
-414 -107 11 0
-414 -107 -43 0
-414 107 -11 43 0
-414 -108 12 0
-414 -108 -44 0
-414 108 -12 44 0
-414 -109 13 0
-414 -109 -45 0
-414 109 -13 45 0
-414 -110 14 0
-414 -110 -46 0
-414 110 -14 46 0
-414 -111 15 0
-414 -111 -47 0
-414 111 -15 47 0
-414 -112 16 0
-414 -112 -48 0
-414 112 -16 48 0
-414 -113 17 0
-414 -113 -49 0
-414 113 -17 49 0
-414 -114 18 0
-414 -114 -50 0
-414 114 -18 50 0
-414 -115 19 0
-414 -115 -51 0
-414 115 -19 51 0
-414 -116 20 0
-414 -116 -52 0
-414 116 -20 52 0
-414 -117 21 0
-414 -117 -53 0
-414 117 -21 53 0
-414 -118 22 0
-414 -118 -54 0
-414 118 -22 54 0
-414 -119 23 0
-414 -119 -55 0
-414 119 -23 55 0
-414 -120 24 0
-414 -120 -56 0
-414 120 -24 56 0
-414 -121 25 0
-414 -121 -57 0
-414 121 -25 57 0
-414 -122 26 0
-414 -122 -58 0
-414 122 -26 58 0
-414 -123 27 0
-414 -123 -59 0
-414 123 -27 59 0
-414 -124 28 0
-414 -124 -60 0
-414 124 -28 60 0
-414 -125 29 0
-414 -125 -61 0
-414 125 -29 61 0
-414 -126 30 0
-414 -126 -62 0
-414 126 -30 62 0
-414 -127 31 0
-414 -127 -63 0
-414 127 -31 63 0
-414 -128 32 0
-414 -128 -64 0
-414 128 -32 64 0
-415 -97 -1 0
-415 -97 33 0
-415 97 1 -33 0
-415 -98 -2 0
-415 -98 34 0
-415 98 2 -34 0
-415 -99 -3 0
-415 -99 35 0
-415 99 3 -35 0
-415 -100 -4 0
-415 -100 36 0
-415 100 4 -36 0
-415 -101 -5 0
-415 -101 37 0
-415 101 5 -37 0
-415 -102 -6 0
-415 -102 38 0
-415 102 6 -38 0
-415 -103 -7 0
-415 -103 39 0
-415 103 7 -39 0
-415 -104 -8 0
-415 -104 40 0
-415 104 8 -40 0
-415 -105 -9 0
-415 -105 41 0
-415 105 9 -41 0
-415 -106 -10 0
-415 -106 42 0
-415 106 10 -42 0
-415 -107 -11 0
-415 -107 43 0
-415 107 11 -43 0
-415 -108 -12 0
-415 -108 44 0
-415 108 12 -44 0
-415 -109 -13 0
-415 -109 45 0
-415 109 13 -45 0
-415 -110 -14 0
-415 -110 46 0
-415 110 14 -46 0
-415 -111 -15 0
-415 -111 47 0
-415 111 15 -47 0
-415 -112 -16 0
-415 -112 48 0
-415 112 16 -48 0
-415 -113 -17 0
-415 -113 49 0
-415 113 17 -49 0
-415 -114 -18 0
-415 -114 50 0
-415 114 18 -50 0
-415 -115 -19 0
-415 -115 51 0
-415 115 19 -51 0
-415 -116 -20 0
-415 -116 52 0
-415 116 20 -52 0
-415 -117 -21 0
-415 -117 53 0
-415 117 21 -53 0
-415 -118 -22 0
-415 -118 54 0
-415 118 22 -54 0
-415 -119 -23 0
-415 -119 55 0
-415 119 23 -55 0
-415 -120 -24 0
-415 -120 56 0
-415 120 24 -56 0
-415 -121 -25 0
-415 -121 57 0
-415 121 25 -57 0
-415 -122 -26 0
-415 -122 58 0
-415 122 26 -58 0
-415 -123 -27 0
-415 -123 59 0
-415 123 27 -59 0
-415 -124 -28 0
-415 -124 60 0
-415 124 28 -60 0
-415 -125 -29 0
-415 -125 61 0
-415 125 29 -61 0
-415 -126 -30 0
-415 -126 62 0
-415 126 30 -62 0
-415 -127 -31 0
-415 -127 63 0
-415 127 31 -63 0
-415 -128 -32 0
-415 -128 64 0
-415 128 32 -64 0
-416 -97 -1 0
-416 -97 -33 0
-416 97 1 33 0
-416 -98 -2 0
-416 -98 -34 0
-416 98 2 34 0
-416 -99 -3 0
-416 -99 -35 0
-416 99 3 35 0
-416 -100 -4 0
-416 -100 -36 0
-416 100 4 36 0
-416 -101 -5 0
-416 -101 -37 0
-416 101 5 37 0
-416 -102 -6 0
-416 -102 -38 0
-416 102 6 38 0
-416 -103 -7 0
-416 -103 -39 0
-416 103 7 39 0
-416 -104 -8 0
-416 -104 -40 0
-416 104 8 40 0
-416 -105 -9 0
-416 -105 -41 0
-416 105 9 41 0
-416 -106 -10 0
-416 -106 -42 0
-416 106 10 42 0
-416 -107 -11 0
-416 -107 -43 0
-416 107 11 43 0
-416 -108 -12 0
-416 -108 -44 0
-416 108 12 44 0
-416 -109 -13 0
-416 -109 -45 0
-416 109 13 45 0
-416 -110 -14 0
-416 -110 -46 0
-416 110 14 46 0
-416 -111 -15 0
-416 -111 -47 0
-416 111 15 47 0
-416 -112 -16 0
-416 -112 -48 0
-416 112 16 48 0
-416 -113 -17 0
-416 -113 -49 0
-416 113 17 49 0
-416 -114 -18 0
-416 -114 -50 0
-416 114 18 50 0
-416 -115 -19 0
-416 -115 -51 0
-416 115 19 51 0
-416 -116 -20 0
-416 -116 -52 0
-416 116 20 52 0
-416 -117 -21 0
-416 -117 -53 0
-416 117 21 53 0
-416 -118 -22 0
-416 -118 -54 0
-416 118 22 54 0
-416 -119 -23 0
-416 -119 -55 0
-416 119 23 55 0
-416 -120 -24 0
-416 -120 -56 0
-416 120 24 56 0
-416 -121 -25 0
-416 -121 -57 0
-416 121 25 57 0
-416 -122 -26 0
-416 -122 -58 0
-416 122 26 58 0
-416 -123 -27 0
-416 -123 -59 0
-416 123 27 59 0
-416 -124 -28 0
-416 -124 -60 0
-416 124 28 60 0
-416 -125 -29 0
-416 -125 -61 0
-416 125 29 61 0
-416 -126 -30 0
-416 -126 -62 0
-416 126 30 62 0
-416 -127 -31 0
-416 -127 -63 0
-416 127 31 63 0
-416 -128 -32 0
-416 -128 -64 0
-416 128 32 64 0
-417 -97 1 0
-417 -97 65 0
-417 97 -1 -65 0
-417 -98 2 0
-417 -98 66 0
-417 98 -2 -66 0
-417 -99 3 0
-417 -99 67 0
-417 99 -3 -67 0
-417 -100 4 0
-417 -100 68 0
-417 100 -4 -68 0
-417 -101 5 0
-417 -101 69 0
-417 101 -5 -69 0
-417 -102 6 0
-417 -102 70 0
-417 102 -6 -70 0
-417 -103 7 0
-417 -103 71 0
-417 103 -7 -71 0
-417 -104 8 0
-417 -104 72 0
-417 104 -8 -72 0
-417 -105 9 0
-417 -105 73 0
-417 105 -9 -73 0
-417 -106 10 0
-417 -106 74 0
-417 106 -10 -74 0
-417 -107 11 0
-417 -107 75 0
-417 107 -11 -75 0
-417 -108 12 0
-417 -108 76 0
-417 108 -12 -76 0
-417 -109 13 0
-417 -109 77 0
-417 109 -13 -77 0
-417 -110 14 0
-417 -110 78 0
-417 110 -14 -78 0
-417 -111 15 0
-417 -111 79 0
-417 111 -15 -79 0
-417 -112 16 0
-417 -112 80 0
-417 112 -16 -80 0
-417 -113 17 0
-417 -113 81 0
-417 113 -17 -81 0
-417 -114 18 0
-417 -114 82 0
-417 114 -18 -82 0
-417 -115 19 0
-417 -115 83 0
-417 115 -19 -83 0
-417 -116 20 0
-417 -116 84 0
-417 116 -20 -84 0
-417 -117 21 0
-417 -117 85 0
-417 117 -21 -85 0
-417 -118 22 0
-417 -118 86 0
-417 118 -22 -86 0
-417 -119 23 0
-417 -119 87 0
-417 119 -23 -87 0
-417 -120 24 0
-417 -120 88 0
-417 120 -24 -88 0
-417 -121 25 0
-417 -121 89 0
-417 121 -25 -89 0
-417 -122 26 0
-417 -122 90 0
-417 122 -26 -90 0
-417 -123 27 0
-417 -123 91 0
-417 123 -27 -91 0
-417 -124 28 0
-417 -124 92 0
-417 124 -28 -92 0
-417 -125 29 0
-417 -125 93 0
-417 125 -29 -93 0
-417 -126 30 0
-417 -126 94 0
-417 126 -30 -94 0
-417 -127 31 0
-417 -127 95 0
-417 127 -31 -95 0
-417 -128 32 0
-417 -128 96 0
-417 128 -32 -96 0
-418 -97 1 0
-418 -97 -65 0
-418 97 -1 65 0
-418 -98 2 0
-418 -98 -66 0
-418 98 -2 66 0
-418 -99 3 0
-418 -99 -67 0
-418 99 -3 67 0
-418 -100 4 0
-418 -100 -68 0
-418 100 -4 68 0
-418 -101 5 0
-418 -101 -69 0
-418 101 -5 69 0
-418 -102 6 0
-418 -102 -70 0
-418 102 -6 70 0
-418 -103 7 0
-418 -103 -71 0
-418 103 -7 71 0
-418 -104 8 0
-418 -104 -72 0
-418 104 -8 72 0
-418 -105 9 0
-418 -105 -73 0
-418 105 -9 73 0
-418 -106 10 0
-418 -106 -74 0
-418 106 -10 74 0
-418 -107 11 0
-418 -107 -75 0
-418 107 -11 75 0
-418 -108 12 0
-418 -108 -76 0
-418 108 -12 76 0
-418 -109 13 0
-418 -109 -77 0
-418 109 -13 77 0
-418 -110 14 0
-418 -110 -78 0
-418 110 -14 78 0
-418 -111 15 0
-418 -111 -79 0
-418 111 -15 79 0
-418 -112 16 0
-418 -112 -80 0
-418 112 -16 80 0
-418 -113 17 0
-418 -113 -81 0
-418 113 -17 81 0
-418 -114 18 0
-418 -114 -82 0
-418 114 -18 82 0
-418 -115 19 0
-418 -115 -83 0
-418 115 -19 83 0
-418 -116 20 0
-418 -116 -84 0
-418 116 -20 84 0
-418 -117 21 0
-418 -117 -85 0
-418 117 -21 85 0
-418 -118 22 0
-418 -118 -86 0
-418 118 -22 86 0
-418 -119 23 0
-418 -119 -87 0
-418 119 -23 87 0
-418 -120 24 0
-418 -120 -88 0
-418 120 -24 88 0
-418 -121 25 0
-418 -121 -89 0
-418 121 -25 89 0
-418 -122 26 0
-418 -122 -90 0
-418 122 -26 90 0
-418 -123 27 0
-418 -123 -91 0
-418 123 -27 91 0
-418 -124 28 0
-418 -124 -92 0
-418 124 -28 92 0
-418 -125 29 0
-418 -125 -93 0
-418 125 -29 93 0
-418 -126 30 0
-418 -126 -94 0
-418 126 -30 94 0
-418 -127 31 0
-418 -127 -95 0
-418 127 -31 95 0
-418 -128 32 0
-418 -128 -96 0
-418 128 -32 96 0
-419 -97 -1 0
-419 -97 65 0
-419 97 1 -65 0
-419 -98 -2 0
-419 -98 66 0
-419 98 2 -66 0
-419 -99 -3 0
-419 -99 67 0
-419 99 3 -67 0
-419 -100 -4 0
-419 -100 68 0
-419 100 4 -68 0
-419 -101 -5 0
-419 -101 69 0
-419 101 5 -69 0
-419 -102 -6 0
-419 -102 70 0
-419 102 6 -70 0
-419 -103 -7 0
-419 -103 71 0
-419 103 7 -71 0
-419 -104 -8 0
-419 -104 72 0
-419 104 8 -72 0
-419 -105 -9 0
-419 -105 73 0
-419 105 9 -73 0
-419 -106 -10 0
-419 -106 74 0
-419 106 10 -74 0
-419 -107 -11 0
-419 -107 75 0
-419 107 11 -75 0
-419 -108 -12 0
-419 -108 76 0
-419 108 12 -76 0
-419 -109 -13 0
-419 -109 77 0
-419 109 13 -77 0
-419 -110 -14 0
-419 -110 78 0
-419 110 14 -78 0
-419 -111 -15 0
-419 -111 79 0
-419 111 15 -79 0
-419 -112 -16 0
-419 -112 80 0
-419 112 16 -80 0
-419 -113 -17 0
-419 -113 81 0
-419 113 17 -81 0
-419 -114 -18 0
-419 -114 82 0
-419 114 18 -82 0
-419 -115 -19 0
-419 -115 83 0
-419 115 19 -83 0
-419 -116 -20 0
-419 -116 84 0
-419 116 20 -84 0
-419 -117 -21 0
-419 -117 85 0
-419 117 21 -85 0
-419 -118 -22 0
-419 -118 86 0
-419 118 22 -86 0
-419 -119 -23 0
-419 -119 87 0
-419 119 23 -87 0
-419 -120 -24 0
-419 -120 88 0
-419 120 24 -88 0
-419 -121 -25 0
-419 -121 89 0
-419 121 25 -89 0
-419 -122 -26 0
-419 -122 90 0
-419 122 26 -90 0
-419 -123 -27 0
-419 -123 91 0
-419 123 27 -91 0
-419 -124 -28 0
-419 -124 92 0
-419 124 28 -92 0
-419 -125 -29 0
-419 -125 93 0
-419 125 29 -93 0
-419 -126 -30 0
-419 -126 94 0
-419 126 30 -94 0
-419 -127 -31 0
-419 -127 95 0
-419 127 31 -95 0
-419 -128 -32 0
-419 -128 96 0
-419 128 32 -96 0
-420 -97 -1 0
-420 -97 -65 0
-420 97 1 65 0
-420 -98 -2 0
-420 -98 -66 0
-420 98 2 66 0
-420 -99 -3 0
-420 -99 -67 0
-420 99 3 67 0
-420 -100 -4 0
-420 -100 -68 0
-420 100 4 68 0
-420 -101 -5 0
-420 -101 -69 0
-420 101 5 69 0
-420 -102 -6 0
-420 -102 -70 0
-420 102 6 70 0
-420 -103 -7 0
-420 -103 -71 0
-420 103 7 71 0
-420 -104 -8 0
-420 -104 -72 0
-420 104 8 72 0
-420 -105 -9 0
-420 -105 -73 0
-420 105 9 73 0
-420 -106 -10 0
-420 -106 -74 0
-420 106 10 74 0
-420 -107 -11 0
-420 -107 -75 0
-420 107 11 75 0
-420 -108 -12 0
-420 -108 -76 0
-420 108 12 76 0
-420 -109 -13 0
-420 -109 -77 0
-420 109 13 77 0
-420 -110 -14 0
-420 -110 -78 0
-420 110 14 78 0
-420 -111 -15 0
-420 -111 -79 0
-420 111 15 79 0
-420 -112 -16 0
-420 -112 -80 0
-420 112 16 80 0
-420 -113 -17 0
-420 -113 -81 0
-420 113 17 81 0
-420 -114 -18 0
-420 -114 -82 0
-420 114 18 82 0
-420 -115 -19 0
-420 -115 -83 0
-420 115 19 83 0
-420 -116 -20 0
-420 -116 -84 0
-420 116 20 84 0
-420 -117 -21 0
-420 -117 -85 0
-420 117 21 85 0
-420 -118 -22 0
-420 -118 -86 0
-420 118 22 86 0
-420 -119 -23 0
-420 -119 -87 0
-420 119 23 87 0
-420 -120 -24 0
-420 -120 -88 0
-420 120 24 88 0
-420 -121 -25 0
-420 -121 -89 0
-420 121 25 89 0
-420 -122 -26 0
-420 -122 -90 0
-420 122 26 90 0
-420 -123 -27 0
-420 -123 -91 0
-420 123 27 91 0
-420 -124 -28 0
-420 -124 -92 0
-420 124 28 92 0
-420 -125 -29 0
-420 -125 -93 0
-420 125 29 93 0
-420 -126 -30 0
-420 -126 -94 0
-420 126 30 94 0
-420 -127 -31 0
-420 -127 -95 0
-420 127 31 95 0
-420 -128 -32 0
-420 -128 -96 0
-420 128 32 96 0
-421 -97 33 0
-421 -97 65 0
-421 97 -33 -65 0
-421 -98 34 0
-421 -98 66 0
-421 98 -34 -66 0
-421 -99 35 0
-421 -99 67 0
-421 99 -35 -67 0
-421 -100 36 0
-421 -100 68 0
-421 100 -36 -68 0
-421 -101 37 0
-421 -101 69 0
-421 101 -37 -69 0
-421 -102 38 0
-421 -102 70 0
-421 102 -38 -70 0
-421 -103 39 0
-421 -103 71 0
-421 103 -39 -71 0
-421 -104 40 0
-421 -104 72 0
-421 104 -40 -72 0
-421 -105 41 0
-421 -105 73 0
-421 105 -41 -73 0
-421 -106 42 0
-421 -106 74 0
-421 106 -42 -74 0
-421 -107 43 0
-421 -107 75 0
-421 107 -43 -75 0
-421 -108 44 0
-421 -108 76 0
-421 108 -44 -76 0
-421 -109 45 0
-421 -109 77 0
-421 109 -45 -77 0
-421 -110 46 0
-421 -110 78 0
-421 110 -46 -78 0
-421 -111 47 0
-421 -111 79 0
-421 111 -47 -79 0
-421 -112 48 0
-421 -112 80 0
-421 112 -48 -80 0
-421 -113 49 0
-421 -113 81 0
-421 113 -49 -81 0
-421 -114 50 0
-421 -114 82 0
-421 114 -50 -82 0
-421 -115 51 0
-421 -115 83 0
-421 115 -51 -83 0
-421 -116 52 0
-421 -116 84 0
-421 116 -52 -84 0
-421 -117 53 0
-421 -117 85 0
-421 117 -53 -85 0
-421 -118 54 0
-421 -118 86 0
-421 118 -54 -86 0
-421 -119 55 0
-421 -119 87 0
-421 119 -55 -87 0
-421 -120 56 0
-421 -120 88 0
-421 120 -56 -88 0
-421 -121 57 0
-421 -121 89 0
-421 121 -57 -89 0
-421 -122 58 0
-421 -122 90 0
-421 122 -58 -90 0
-421 -123 59 0
-421 -123 91 0
-421 123 -59 -91 0
-421 -124 60 0
-421 -124 92 0
-421 124 -60 -92 0
-421 -125 61 0
-421 -125 93 0
-421 125 -61 -93 0
-421 -126 62 0
-421 -126 94 0
-421 126 -62 -94 0
-421 -127 63 0
-421 -127 95 0
-421 127 -63 -95 0
-421 -128 64 0
-421 -128 96 0
-421 128 -64 -96 0
-422 -97 33 0
-422 -97 -65 0
-422 97 -33 65 0
-422 -98 34 0
-422 -98 -66 0
-422 98 -34 66 0
-422 -99 35 0
-422 -99 -67 0
-422 99 -35 67 0
-422 -100 36 0
-422 -100 -68 0
-422 100 -36 68 0
-422 -101 37 0
-422 -101 -69 0
-422 101 -37 69 0
-422 -102 38 0
-422 -102 -70 0
-422 102 -38 70 0
-422 -103 39 0
-422 -103 -71 0
-422 103 -39 71 0
-422 -104 40 0
-422 -104 -72 0
-422 104 -40 72 0
-422 -105 41 0
-422 -105 -73 0
-422 105 -41 73 0
-422 -106 42 0
-422 -106 -74 0
-422 106 -42 74 0
-422 -107 43 0
-422 -107 -75 0
-422 107 -43 75 0
-422 -108 44 0
-422 -108 -76 0
-422 108 -44 76 0
-422 -109 45 0
-422 -109 -77 0
-422 109 -45 77 0
-422 -110 46 0
-422 -110 -78 0
-422 110 -46 78 0
-422 -111 47 0
-422 -111 -79 0
-422 111 -47 79 0
-422 -112 48 0
-422 -112 -80 0
-422 112 -48 80 0
-422 -113 49 0
-422 -113 -81 0
-422 113 -49 81 0
-422 -114 50 0
-422 -114 -82 0
-422 114 -50 82 0
-422 -115 51 0
-422 -115 -83 0
-422 115 -51 83 0
-422 -116 52 0
-422 -116 -84 0
-422 116 -52 84 0
-422 -117 53 0
-422 -117 -85 0
-422 117 -53 85 0
-422 -118 54 0
-422 -118 -86 0
-422 118 -54 86 0
-422 -119 55 0
-422 -119 -87 0
-422 119 -55 87 0
-422 -120 56 0
-422 -120 -88 0
-422 120 -56 88 0
-422 -121 57 0
-422 -121 -89 0
-422 121 -57 89 0
-422 -122 58 0
-422 -122 -90 0
-422 122 -58 90 0
-422 -123 59 0
-422 -123 -91 0
-422 123 -59 91 0
-422 -124 60 0
-422 -124 -92 0
-422 124 -60 92 0
-422 -125 61 0
-422 -125 -93 0
-422 125 -61 93 0
-422 -126 62 0
-422 -126 -94 0
-422 126 -62 94 0
-422 -127 63 0
-422 -127 -95 0
-422 127 -63 95 0
-422 -128 64 0
-422 -128 -96 0
-422 128 -64 96 0
-423 -97 -33 0
-423 -97 65 0
-423 97 33 -65 0
-423 -98 -34 0
-423 -98 66 0
-423 98 34 -66 0
-423 -99 -35 0
-423 -99 67 0
-423 99 35 -67 0
-423 -100 -36 0
-423 -100 68 0
-423 100 36 -68 0
-423 -101 -37 0
-423 -101 69 0
-423 101 37 -69 0
-423 -102 -38 0
-423 -102 70 0
-423 102 38 -70 0
-423 -103 -39 0
-423 -103 71 0
-423 103 39 -71 0
-423 -104 -40 0
-423 -104 72 0
-423 104 40 -72 0
-423 -105 -41 0
-423 -105 73 0
-423 105 41 -73 0
-423 -106 -42 0
-423 -106 74 0
-423 106 42 -74 0
-423 -107 -43 0
-423 -107 75 0
-423 107 43 -75 0
-423 -108 -44 0
-423 -108 76 0
-423 108 44 -76 0
-423 -109 -45 0
-423 -109 77 0
-423 109 45 -77 0
-423 -110 -46 0
-423 -110 78 0
-423 110 46 -78 0
-423 -111 -47 0
-423 -111 79 0
-423 111 47 -79 0
-423 -112 -48 0
-423 -112 80 0
-423 112 48 -80 0
-423 -113 -49 0
-423 -113 81 0
-423 113 49 -81 0
-423 -114 -50 0
-423 -114 82 0
-423 114 50 -82 0
-423 -115 -51 0
-423 -115 83 0
-423 115 51 -83 0
-423 -116 -52 0
-423 -116 84 0
-423 116 52 -84 0
-423 -117 -53 0
-423 -117 85 0
-423 117 53 -85 0
-423 -118 -54 0
-423 -118 86 0
-423 118 54 -86 0
-423 -119 -55 0
-423 -119 87 0
-423 119 55 -87 0
-423 -120 -56 0
-423 -120 88 0
-423 120 56 -88 0
-423 -121 -57 0
-423 -121 89 0
-423 121 57 -89 0
-423 -122 -58 0
-423 -122 90 0
-423 122 58 -90 0
-423 -123 -59 0
-423 -123 91 0
-423 123 59 -91 0
-423 -124 -60 0
-423 -124 92 0
-423 124 60 -92 0
-423 -125 -61 0
-423 -125 93 0
-423 125 61 -93 0
-423 -126 -62 0
-423 -126 94 0
-423 126 62 -94 0
-423 -127 -63 0
-423 -127 95 0
-423 127 63 -95 0
-423 -128 -64 0
-423 -128 96 0
-423 128 64 -96 0
-424 -97 -33 0
-424 -97 -65 0
-424 97 33 65 0
-424 -98 -34 0
-424 -98 -66 0
-424 98 34 66 0
-424 -99 -35 0
-424 -99 -67 0
-424 99 35 67 0
-424 -100 -36 0
-424 -100 -68 0
-424 100 36 68 0
-424 -101 -37 0
-424 -101 -69 0
-424 101 37 69 0
-424 -102 -38 0
-424 -102 -70 0
-424 102 38 70 0
-424 -103 -39 0
-424 -103 -71 0
-424 103 39 71 0
-424 -104 -40 0
-424 -104 -72 0
-424 104 40 72 0
-424 -105 -41 0
-424 -105 -73 0
-424 105 41 73 0
-424 -106 -42 0
-424 -106 -74 0
-424 106 42 74 0
-424 -107 -43 0
-424 -107 -75 0
-424 107 43 75 0
-424 -108 -44 0
-424 -108 -76 0
-424 108 44 76 0
-424 -109 -45 0
-424 -109 -77 0
-424 109 45 77 0
-424 -110 -46 0
-424 -110 -78 0
-424 110 46 78 0
-424 -111 -47 0
-424 -111 -79 0
-424 111 47 79 0
-424 -112 -48 0
-424 -112 -80 0
-424 112 48 80 0
-424 -113 -49 0
-424 -113 -81 0
-424 113 49 81 0
-424 -114 -50 0
-424 -114 -82 0
-424 114 50 82 0
-424 -115 -51 0
-424 -115 -83 0
-424 115 51 83 0
-424 -116 -52 0
-424 -116 -84 0
-424 116 52 84 0
-424 -117 -53 0
-424 -117 -85 0
-424 117 53 85 0
-424 -118 -54 0
-424 -118 -86 0
-424 118 54 86 0
-424 -119 -55 0
-424 -119 -87 0
-424 119 55 87 0
-424 -120 -56 0
-424 -120 -88 0
-424 120 56 88 0
-424 -121 -57 0
-424 -121 -89 0
-424 121 57 89 0
-424 -122 -58 0
-424 -122 -90 0
-424 122 58 90 0
-424 -123 -59 0
-424 -123 -91 0
-424 123 59 91 0
-424 -124 -60 0
-424 -124 -92 0
-424 124 60 92 0
-424 -125 -61 0
-424 -125 -93 0
-424 125 61 93 0
-424 -126 -62 0
-424 -126 -94 0
-424 126 62 94 0
-424 -127 -63 0
-424 -127 -95 0
-424 127 63 95 0
-424 -128 -64 0
-424 -128 -96 0
-424 128 64 96 0
-129 -169 0
-129 -229 0
-129 -313 0
-169 -229 0
-169 -313 0
-229 -313 0
-130 -170 0
-130 -230 0
-130 -314 0
-170 -230 0
-170 -314 0
-230 -314 0
-131 -171 0
-131 -231 0
-131 -315 0
-171 -231 0
-171 -315 0
-231 -315 0
-132 -172 0
-132 -232 0
-132 -316 0
-172 -232 0
-172 -316 0
-232 -316 0
-133 -173 0
-133 -233 0
-133 -317 0
-173 -233 0
-173 -317 0
-233 -317 0
-134 -174 0
-134 -234 0
-134 -318 0
-174 -234 0
-174 -318 0
-234 -318 0
-135 -175 0
-135 -235 0
-135 -319 0
-175 -235 0
-175 -319 0
-235 -319 0
-136 -176 0
-136 -236 0
-136 -320 0
-176 -236 0
-176 -320 0
-236 -320 0
-137 -177 0
-137 -237 0
-137 -321 0
-177 -237 0
-177 -321 0
-237 -321 0
-138 -178 0
-138 -238 0
-138 -322 0
-178 -238 0
-178 -322 0
-238 -322 0
-139 -179 0
-139 -239 0
-139 -323 0
-179 -239 0
-179 -323 0
-239 -323 0
-140 -180 0
-140 -240 0
-140 -324 0
-180 -240 0
-180 -324 0
-240 -324 0
-141 -181 0
-141 -241 0
-141 -325 0
-181 -241 0
-181 -325 0
-241 -325 0
-142 -182 0
-142 -242 0
-142 -326 0
-182 -242 0
-182 -326 0
-242 -326 0
-143 -183 0
-143 -243 0
-143 -327 0
-183 -243 0
-183 -327 0
-243 -327 0
-144 -184 0
-144 -244 0
-144 -328 0
-184 -244 0
-184 -328 0
-244 -328 0
-145 -189 0
-145 -253 0
-145 -341 0
-189 -253 0
-189 -341 0
-253 -341 0
-146 -190 0
-146 -254 0
-146 -342 0
-190 -254 0
-190 -342 0
-254 -342 0
-147 -191 0
-147 -255 0
-147 -343 0
-191 -255 0
-191 -343 0
-255 -343 0
-148 -192 0
-148 -256 0
-148 -344 0
-192 -256 0
-192 -344 0
-256 -344 0
-149 -193 0
-149 -257 0
-149 -345 0
-193 -257 0
-193 -345 0
-257 -345 0
-150 -194 0
-150 -258 0
-150 -346 0
-194 -258 0
-194 -346 0
-258 -346 0
-151 -195 0
-151 -259 0
-151 -347 0
-195 -259 0
-195 -347 0
-259 -347 0
-152 -196 0
-152 -260 0
-152 -348 0
-196 -260 0
-196 -348 0
-260 -348 0
-153 -197 0
-153 -261 0
-153 -349 0
-197 -261 0
-197 -349 0
-261 -349 0
-154 -198 0
-154 -262 0
-154 -350 0
-198 -262 0
-198 -350 0
-262 -350 0
-155 -199 0
-155 -263 0
-155 -351 0
-199 -263 0
-199 -351 0
-263 -351 0
-156 -200 0
-156 -264 0
-156 -352 0
-200 -264 0
-200 -352 0
-264 -352 0
-157 -205 0
-157 -273 0
-157 -365 0
-205 -273 0
-205 -365 0
-273 -365 0
-158 -206 0
-158 -274 0
-158 -366 0
-206 -274 0
-206 -366 0
-274 -366 0
-159 -207 0
-159 -275 0
-159 -367 0
-207 -275 0
-207 -367 0
-275 -367 0
-160 -208 0
-160 -276 0
-160 -368 0
-208 -276 0
-208 -368 0
-276 -368 0
-161 -209 0
-161 -277 0
-161 -369 0
-209 -277 0
-209 -369 0
-277 -369 0
-162 -210 0
-162 -278 0
-162 -370 0
-210 -278 0
-210 -370 0
-278 -370 0
-163 -211 0
-163 -279 0
-163 -371 0
-211 -279 0
-211 -371 0
-279 -371 0
-164 -212 0
-164 -280 0
-164 -372 0
-212 -280 0
-212 -372 0
-280 -372 0
-165 -217 0
-165 -289 0
-165 -385 0
-217 -289 0
-217 -385 0
-289 -385 0
-166 -218 0
-166 -290 0
-166 -386 0
-218 -290 0
-218 -386 0
-290 -386 0
-167 -219 0
-167 -291 0
-167 -387 0
-219 -291 0
-219 -387 0
-291 -387 0
-168 -220 0
-168 -292 0
-168 -388 0
-220 -292 0
-220 -388 0
-292 -388 0
-185 -245 0
-185 -329 0
-245 -329 0
-186 -246 0
-186 -330 0
-246 -330 0
-187 -247 0
-187 -331 0
-247 -331 0
-188 -248 0
-188 -332 0
-248 -332 0
-201 -265 0
-201 -353 0
-265 -353 0
-202 -266 0
-202 -354 0
-266 -354 0
-203 -267 0
-203 -355 0
-267 -355 0
-204 -268 0
-204 -356 0
-268 -356 0
-213 -281 0
-213 -373 0
-281 -373 0
-214 -282 0
-214 -374 0
-282 -374 0
-215 -283 0
-215 -375 0
-283 -375 0
-216 -284 0
-216 -376 0
-284 -376 0
-221 -293 0
-221 -389 0
-293 -389 0
-222 -294 0
-222 -390 0
-294 -390 0
-223 -295 0
-223 -391 0
-295 -391 0
-224 -296 0
-224 -392 0
-296 -392 0
-225 -301 0
-225 -401 0
-301 -401 0
-226 -302 0
-226 -402 0
-302 -402 0
-227 -303 0
-227 -403 0
-303 -403 0
-228 -304 0
-228 -404 0
-304 -404 0
-249 -333 0
-250 -334 0
-251 -335 0
-252 -336 0
-269 -357 0
-270 -358 0
-271 -359 0
-272 -360 0
-285 -377 0
-286 -378 0
-287 -379 0
-288 -380 0
-297 -393 0
-298 -394 0
-299 -395 0
-300 -396 0
-305 -405 0
-306 -406 0
-307 -407 0
-308 -408 0
-309 -413 0
-310 -414 0
-311 -415 0
-312 -416 0
185 186 187 188 201 202 203 204 213 214 215 216 221 222 223 224 225 226 227 228 245 246 247 248 265 266 267 268 281 282 283 284 293 294 295 296 301 302 303 304 309 310 311 312 329 330 331 332 353 354 355 356 373 374 375 376 389 390 391 392 401 402 403 404 413 414 415 416 417 418 419 420 0
249 250 251 252 269 270 271 272 285 286 287 288 297 298 299 300 305 306 307 308 309 310 311 312 333 334 335 336 357 358 359 360 377 378 379 380 393 394 395 396 405 406 407 408 413 414 415 416 421 422 423 424 0
337 338 339 340 361 362 363 364 381 382 383 384 397 398 399 400 409 410 411 412 417 418 419 420 421 422 423 424 0
425 -97 0
-425 97 0
425 98 0
-425 -98 0
425 99 0
-425 -99 0
425 100 0
-425 -100 0
425 101 0
-425 -101 0
425 -102 0
-425 102 0
425 103 0
-425 -103 0
425 104 0
-425 -104 0
425 105 0
-425 -105 0
425 106 0
-425 -106 0
425 -107 0
-425 107 0
425 -108 0
-425 108 0
425 -109 0
-425 109 0
425 -110 0
-425 110 0
425 -111 0
-425 111 0
425 -112 0
-425 112 0
425 -113 0
-425 113 0
425 114 0
-425 -114 0
425 115 0
-425 -115 0
425 116 0
-425 -116 0
425 117 0
-425 -117 0
425 -118 0
-425 118 0
425 119 0
-425 -119 0
425 120 0
-425 -120 0
425 121 0
-425 -121 0
425 122 0
-425 -122 0
425 -123 0
-425 123 0
425 -124 0
-425 124 0
425 -125 0
-425 125 0
425 -126 0
-425 126 0
425 -127 0
-425 127 0
425 -128 0
-425 128 0
