p cnf 281 13349
97 98 99 100 101 102 103 104 105 106 107 108 109 110 111 112 113 114 115 116 117 118 119 120 121 122 123 124 125 126 127 128 129 130 131 132 133 134 135 136 0
-97 -98 0
-97 -99 0
-97 -100 0
-97 -101 0
-97 -102 0
-97 -103 0
-97 -104 0
-97 -105 0
-97 -106 0
-97 -107 0
-97 -108 0
-97 -109 0
-97 -110 0
-97 -111 0
-97 -112 0
-97 -113 0
-97 -114 0
-97 -115 0
-97 -116 0
-97 -117 0
-97 -118 0
-97 -119 0
-97 -120 0
-97 -121 0
-97 -122 0
-97 -123 0
-97 -124 0
-97 -125 0
-97 -126 0
-97 -127 0
-97 -128 0
-97 -129 0
-97 -130 0
-97 -131 0
-97 -132 0
-97 -133 0
-97 -134 0
-97 -135 0
-97 -136 0
-98 -99 0
-98 -100 0
-98 -101 0
-98 -102 0
-98 -103 0
-98 -104 0
-98 -105 0
-98 -106 0
-98 -107 0
-98 -108 0
-98 -109 0
-98 -110 0
-98 -111 0
-98 -112 0
-98 -113 0
-98 -114 0
-98 -115 0
-98 -116 0
-98 -117 0
-98 -118 0
-98 -119 0
-98 -120 0
-98 -121 0
-98 -122 0
-98 -123 0
-98 -124 0
-98 -125 0
-98 -126 0
-98 -127 0
-98 -128 0
-98 -129 0
-98 -130 0
-98 -131 0
-98 -132 0
-98 -133 0
-98 -134 0
-98 -135 0
-98 -136 0
-99 -100 0
-99 -101 0
-99 -102 0
-99 -103 0
-99 -104 0
-99 -105 0
-99 -106 0
-99 -107 0
-99 -108 0
-99 -109 0
-99 -110 0
-99 -111 0
-99 -112 0
-99 -113 0
-99 -114 0
-99 -115 0
-99 -116 0
-99 -117 0
-99 -118 0
-99 -119 0
-99 -120 0
-99 -121 0
-99 -122 0
-99 -123 0
-99 -124 0
-99 -125 0
-99 -126 0
-99 -127 0
-99 -128 0
-99 -129 0
-99 -130 0
-99 -131 0
-99 -132 0
-99 -133 0
-99 -134 0
-99 -135 0
-99 -136 0
-100 -101 0
-100 -102 0
-100 -103 0
-100 -104 0
-100 -105 0
-100 -106 0
-100 -107 0
-100 -108 0
-100 -109 0
-100 -110 0
-100 -111 0
-100 -112 0
-100 -113 0
-100 -114 0
-100 -115 0
-100 -116 0
-100 -117 0
-100 -118 0
-100 -119 0
-100 -120 0
-100 -121 0
-100 -122 0
-100 -123 0
-100 -124 0
-100 -125 0
-100 -126 0
-100 -127 0
-100 -128 0
-100 -129 0
-100 -130 0
-100 -131 0
-100 -132 0
-100 -133 0
-100 -134 0
-100 -135 0
-100 -136 0
-101 -102 0
-101 -103 0
-101 -104 0
-101 -105 0
-101 -106 0
-101 -107 0
-101 -108 0
-101 -109 0
-101 -110 0
-101 -111 0
-101 -112 0
-101 -113 0
-101 -114 0
-101 -115 0
-101 -116 0
-101 -117 0
-101 -118 0
-101 -119 0
-101 -120 0
-101 -121 0
-101 -122 0
-101 -123 0
-101 -124 0
-101 -125 0
-101 -126 0
-101 -127 0
-101 -128 0
-101 -129 0
-101 -130 0
-101 -131 0
-101 -132 0
-101 -133 0
-101 -134 0
-101 -135 0
-101 -136 0
-102 -103 0
-102 -104 0
-102 -105 0
-102 -106 0
-102 -107 0
-102 -108 0
-102 -109 0
-102 -110 0
-102 -111 0
-102 -112 0
-102 -113 0
-102 -114 0
-102 -115 0
-102 -116 0
-102 -117 0
-102 -118 0
-102 -119 0
-102 -120 0
-102 -121 0
-102 -122 0
-102 -123 0
-102 -124 0
-102 -125 0
-102 -126 0
-102 -127 0
-102 -128 0
-102 -129 0
-102 -130 0
-102 -131 0
-102 -132 0
-102 -133 0
-102 -134 0
-102 -135 0
-102 -136 0
-103 -104 0
-103 -105 0
-103 -106 0
-103 -107 0
-103 -108 0
-103 -109 0
-103 -110 0
-103 -111 0
-103 -112 0
-103 -113 0
-103 -114 0
-103 -115 0
-103 -116 0
-103 -117 0
-103 -118 0
-103 -119 0
-103 -120 0
-103 -121 0
-103 -122 0
-103 -123 0
-103 -124 0
-103 -125 0
-103 -126 0
-103 -127 0
-103 -128 0
-103 -129 0
-103 -130 0
-103 -131 0
-103 -132 0
-103 -133 0
-103 -134 0
-103 -135 0
-103 -136 0
-104 -105 0
-104 -106 0
-104 -107 0
-104 -108 0
-104 -109 0
-104 -110 0
-104 -111 0
-104 -112 0
-104 -113 0
-104 -114 0
-104 -115 0
-104 -116 0
-104 -117 0
-104 -118 0
-104 -119 0
-104 -120 0
-104 -121 0
-104 -122 0
-104 -123 0
-104 -124 0
-104 -125 0
-104 -126 0
-104 -127 0
-104 -128 0
-104 -129 0
-104 -130 0
-104 -131 0
-104 -132 0
-104 -133 0
-104 -134 0
-104 -135 0
-104 -136 0
-105 -106 0
-105 -107 0
-105 -108 0
-105 -109 0
-105 -110 0
-105 -111 0
-105 -112 0
-105 -113 0
-105 -114 0
-105 -115 0
-105 -116 0
-105 -117 0
-105 -118 0
-105 -119 0
-105 -120 0
-105 -121 0
-105 -122 0
-105 -123 0
-105 -124 0
-105 -125 0
-105 -126 0
-105 -127 0
-105 -128 0
-105 -129 0
-105 -130 0
-105 -131 0
-105 -132 0
-105 -133 0
-105 -134 0
-105 -135 0
-105 -136 0
-106 -107 0
-106 -108 0
-106 -109 0
-106 -110 0
-106 -111 0
-106 -112 0
-106 -113 0
-106 -114 0
-106 -115 0
-106 -116 0
-106 -117 0
-106 -118 0
-106 -119 0
-106 -120 0
-106 -121 0
-106 -122 0
-106 -123 0
-106 -124 0
-106 -125 0
-106 -126 0
-106 -127 0
-106 -128 0
-106 -129 0
-106 -130 0
-106 -131 0
-106 -132 0
-106 -133 0
-106 -134 0
-106 -135 0
-106 -136 0
-107 -108 0
-107 -109 0
-107 -110 0
-107 -111 0
-107 -112 0
-107 -113 0
-107 -114 0
-107 -115 0
-107 -116 0
-107 -117 0
-107 -118 0
-107 -119 0
-107 -120 0
-107 -121 0
-107 -122 0
-107 -123 0
-107 -124 0
-107 -125 0
-107 -126 0
-107 -127 0
-107 -128 0
-107 -129 0
-107 -130 0
-107 -131 0
-107 -132 0
-107 -133 0
-107 -134 0
-107 -135 0
-107 -136 0
-108 -109 0
-108 -110 0
-108 -111 0
-108 -112 0
-108 -113 0
-108 -114 0
-108 -115 0
-108 -116 0
-108 -117 0
-108 -118 0
-108 -119 0
-108 -120 0
-108 -121 0
-108 -122 0
-108 -123 0
-108 -124 0
-108 -125 0
-108 -126 0
-108 -127 0
-108 -128 0
-108 -129 0
-108 -130 0
-108 -131 0
-108 -132 0
-108 -133 0
-108 -134 0
-108 -135 0
-108 -136 0
-109 -110 0
-109 -111 0
-109 -112 0
-109 -113 0
-109 -114 0
-109 -115 0
-109 -116 0
-109 -117 0
-109 -118 0
-109 -119 0
-109 -120 0
-109 -121 0
-109 -122 0
-109 -123 0
-109 -124 0
-109 -125 0
-109 -126 0
-109 -127 0
-109 -128 0
-109 -129 0
-109 -130 0
-109 -131 0
-109 -132 0
-109 -133 0
-109 -134 0
-109 -135 0
-109 -136 0
-110 -111 0
-110 -112 0
-110 -113 0
-110 -114 0
-110 -115 0
-110 -116 0
-110 -117 0
-110 -118 0
-110 -119 0
-110 -120 0
-110 -121 0
-110 -122 0
-110 -123 0
-110 -124 0
-110 -125 0
-110 -126 0
-110 -127 0
-110 -128 0
-110 -129 0
-110 -130 0
-110 -131 0
-110 -132 0
-110 -133 0
-110 -134 0
-110 -135 0
-110 -136 0
-111 -112 0
-111 -113 0
-111 -114 0
-111 -115 0
-111 -116 0
-111 -117 0
-111 -118 0
-111 -119 0
-111 -120 0
-111 -121 0
-111 -122 0
-111 -123 0
-111 -124 0
-111 -125 0
-111 -126 0
-111 -127 0
-111 -128 0
-111 -129 0
-111 -130 0
-111 -131 0
-111 -132 0
-111 -133 0
-111 -134 0
-111 -135 0
-111 -136 0
-112 -113 0
-112 -114 0
-112 -115 0
-112 -116 0
-112 -117 0
-112 -118 0
-112 -119 0
-112 -120 0
-112 -121 0
-112 -122 0
-112 -123 0
-112 -124 0
-112 -125 0
-112 -126 0
-112 -127 0
-112 -128 0
-112 -129 0
-112 -130 0
-112 -131 0
-112 -132 0
-112 -133 0
-112 -134 0
-112 -135 0
-112 -136 0
-113 -114 0
-113 -115 0
-113 -116 0
-113 -117 0
-113 -118 0
-113 -119 0
-113 -120 0
-113 -121 0
-113 -122 0
-113 -123 0
-113 -124 0
-113 -125 0
-113 -126 0
-113 -127 0
-113 -128 0
-113 -129 0
-113 -130 0
-113 -131 0
-113 -132 0
-113 -133 0
-113 -134 0
-113 -135 0
-113 -136 0
-114 -115 0
-114 -116 0
-114 -117 0
-114 -118 0
-114 -119 0
-114 -120 0
-114 -121 0
-114 -122 0
-114 -123 0
-114 -124 0
-114 -125 0
-114 -126 0
-114 -127 0
-114 -128 0
-114 -129 0
-114 -130 0
-114 -131 0
-114 -132 0
-114 -133 0
-114 -134 0
-114 -135 0
-114 -136 0
-115 -116 0
-115 -117 0
-115 -118 0
-115 -119 0
-115 -120 0
-115 -121 0
-115 -122 0
-115 -123 0
-115 -124 0
-115 -125 0
-115 -126 0
-115 -127 0
-115 -128 0
-115 -129 0
-115 -130 0
-115 -131 0
-115 -132 0
-115 -133 0
-115 -134 0
-115 -135 0
-115 -136 0
-116 -117 0
-116 -118 0
-116 -119 0
-116 -120 0
-116 -121 0
-116 -122 0
-116 -123 0
-116 -124 0
-116 -125 0
-116 -126 0
-116 -127 0
-116 -128 0
-116 -129 0
-116 -130 0
-116 -131 0
-116 -132 0
-116 -133 0
-116 -134 0
-116 -135 0
-116 -136 0
-117 -118 0
-117 -119 0
-117 -120 0
-117 -121 0
-117 -122 0
-117 -123 0
-117 -124 0
-117 -125 0
-117 -126 0
-117 -127 0
-117 -128 0
-117 -129 0
-117 -130 0
-117 -131 0
-117 -132 0
-117 -133 0
-117 -134 0
-117 -135 0
-117 -136 0
-118 -119 0
-118 -120 0
-118 -121 0
-118 -122 0
-118 -123 0
-118 -124 0
-118 -125 0
-118 -126 0
-118 -127 0
-118 -128 0
-118 -129 0
-118 -130 0
-118 -131 0
-118 -132 0
-118 -133 0
-118 -134 0
-118 -135 0
-118 -136 0
-119 -120 0
-119 -121 0
-119 -122 0
-119 -123 0
-119 -124 0
-119 -125 0
-119 -126 0
-119 -127 0
-119 -128 0
-119 -129 0
-119 -130 0
-119 -131 0
-119 -132 0
-119 -133 0
-119 -134 0
-119 -135 0
-119 -136 0
-120 -121 0
-120 -122 0
-120 -123 0
-120 -124 0
-120 -125 0
-120 -126 0
-120 -127 0
-120 -128 0
-120 -129 0
-120 -130 0
-120 -131 0
-120 -132 0
-120 -133 0
-120 -134 0
-120 -135 0
-120 -136 0
-121 -122 0
-121 -123 0
-121 -124 0
-121 -125 0
-121 -126 0
-121 -127 0
-121 -128 0
-121 -129 0
-121 -130 0
-121 -131 0
-121 -132 0
-121 -133 0
-121 -134 0
-121 -135 0
-121 -136 0
-122 -123 0
-122 -124 0
-122 -125 0
-122 -126 0
-122 -127 0
-122 -128 0
-122 -129 0
-122 -130 0
-122 -131 0
-122 -132 0
-122 -133 0
-122 -134 0
-122 -135 0
-122 -136 0
-123 -124 0
-123 -125 0
-123 -126 0
-123 -127 0
-123 -128 0
-123 -129 0
-123 -130 0
-123 -131 0
-123 -132 0
-123 -133 0
-123 -134 0
-123 -135 0
-123 -136 0
-124 -125 0
-124 -126 0
-124 -127 0
-124 -128 0
-124 -129 0
-124 -130 0
-124 -131 0
-124 -132 0
-124 -133 0
-124 -134 0
-124 -135 0
-124 -136 0
-125 -126 0
-125 -127 0
-125 -128 0
-125 -129 0
-125 -130 0
-125 -131 0
-125 -132 0
-125 -133 0
-125 -134 0
-125 -135 0
-125 -136 0
-126 -127 0
-126 -128 0
-126 -129 0
-126 -130 0
-126 -131 0
-126 -132 0
-126 -133 0
-126 -134 0
-126 -135 0
-126 -136 0
-127 -128 0
-127 -129 0
-127 -130 0
-127 -131 0
-127 -132 0
-127 -133 0
-127 -134 0
-127 -135 0
-127 -136 0
-128 -129 0
-128 -130 0
-128 -131 0
-128 -132 0
-128 -133 0
-128 -134 0
-128 -135 0
-128 -136 0
-129 -130 0
-129 -131 0
-129 -132 0
-129 -133 0
-129 -134 0
-129 -135 0
-129 -136 0
-130 -131 0
-130 -132 0
-130 -133 0
-130 -134 0
-130 -135 0
-130 -136 0
-131 -132 0
-131 -133 0
-131 -134 0
-131 -135 0
-131 -136 0
-132 -133 0
-132 -134 0
-132 -135 0
-132 -136 0
-133 -134 0
-133 -135 0
-133 -136 0
-134 -135 0
-134 -136 0
-135 -136 0
-97 -1 0
-97 -2 0
-97 -3 0
-97 4 0
-97 -5 0
-97 -6 0
-97 -7 0
-97 8 0
-97 -9 0
-97 -10 0
-97 -11 0
-97 12 0
-97 -13 0
-97 -14 0
-97 -15 0
-97 16 0
-97 -17 0
-97 -18 0
-97 -19 0
-97 20 0
-97 -21 0
-97 -22 0
-97 -23 0
-97 24 0
-97 -25 0
-97 -26 0
-97 -27 0
-97 28 0
-97 -29 0
-97 -30 0
-97 -31 0
-97 32 0
-98 -1 0
-98 2 0
-98 -3 0
-98 -4 0
-98 -5 0
-98 6 0
-98 -7 0
-98 -8 0
-98 -9 0
-98 10 0
-98 -11 0
-98 -12 0
-98 -13 0
-98 14 0
-98 -15 0
-98 -16 0
-98 -17 0
-98 18 0
-98 -19 0
-98 -20 0
-98 -21 0
-98 22 0
-98 -23 0
-98 -24 0
-98 -25 0
-98 26 0
-98 -27 0
-98 -28 0
-98 -29 0
-98 30 0
-98 -31 0
-98 -32 0
-99 -1 0
-99 -2 0
-99 3 0
-99 -4 0
-99 -5 0
-99 -6 0
-99 7 0
-99 -8 0
-99 -9 0
-99 -10 0
-99 11 0
-99 -12 0
-99 -13 0
-99 -14 0
-99 15 0
-99 -16 0
-99 -17 0
-99 -18 0
-99 19 0
-99 -20 0
-99 -21 0
-99 -22 0
-99 23 0
-99 -24 0
-99 -25 0
-99 -26 0
-99 27 0
-99 -28 0
-99 -29 0
-99 -30 0
-99 31 0
-99 -32 0
-100 1 0
-100 -2 0
-100 -3 0
-100 -4 0
-100 5 0
-100 -6 0
-100 -7 0
-100 -8 0
-100 9 0
-100 -10 0
-100 -11 0
-100 -12 0
-100 13 0
-100 -14 0
-100 -15 0
-100 -16 0
-100 17 0
-100 -18 0
-100 -19 0
-100 -20 0
-100 21 0
-100 -22 0
-100 -23 0
-100 -24 0
-100 25 0
-100 -26 0
-100 -27 0
-100 -28 0
-100 29 0
-100 -30 0
-100 -31 0
-100 -32 0
-101 -1 0
-101 -2 0
-101 -3 0
-101 -4 0
-101 -5 0
-101 6 0
-101 -7 0
-101 8 0
-101 -9 0
-101 -10 0
-101 -11 0
-101 -12 0
-101 -13 0
-101 14 0
-101 -15 0
-101 16 0
-101 -17 0
-101 -18 0
-101 -19 0
-101 -20 0
-101 -21 0
-101 22 0
-101 -23 0
-101 24 0
-101 -25 0
-101 -26 0
-101 -27 0
-101 -28 0
-101 -29 0
-101 30 0
-101 -31 0
-101 32 0
-102 -1 0
-102 2 0
-102 -3 0
-102 4 0
-102 -5 0
-102 -6 0
-102 -7 0
-102 -8 0
-102 -9 0
-102 10 0
-102 -11 0
-102 12 0
-102 -13 0
-102 -14 0
-102 -15 0
-102 -16 0
-102 -17 0
-102 18 0
-102 -19 0
-102 20 0
-102 -21 0
-102 -22 0
-102 -23 0
-102 -24 0
-102 -25 0
-102 26 0
-102 -27 0
-102 28 0
-102 -29 0
-102 -30 0
-102 -31 0
-102 -32 0
-103 -1 0
-103 -2 0
-103 -3 0
-103 -4 0
-103 5 0
-103 -6 0
-103 7 0
-103 -8 0
-103 -9 0
-103 -10 0
-103 -11 0
-103 -12 0
-103 13 0
-103 -14 0
-103 15 0
-103 -16 0
-103 -17 0
-103 -18 0
-103 -19 0
-103 -20 0
-103 21 0
-103 -22 0
-103 23 0
-103 -24 0
-103 -25 0
-103 -26 0
-103 -27 0
-103 -28 0
-103 29 0
-103 -30 0
-103 31 0
-103 -32 0
-104 1 0
-104 -2 0
-104 3 0
-104 -4 0
-104 -5 0
-104 -6 0
-104 -7 0
-104 -8 0
-104 9 0
-104 -10 0
-104 11 0
-104 -12 0
-104 -13 0
-104 -14 0
-104 -15 0
-104 -16 0
-104 17 0
-104 -18 0
-104 19 0
-104 -20 0
-104 -21 0
-104 -22 0
-104 -23 0
-104 -24 0
-104 25 0
-104 -26 0
-104 27 0
-104 -28 0
-104 -29 0
-104 -30 0
-104 -31 0
-104 -32 0
-105 -1 0
-105 -2 0
-105 -3 0
-105 -4 0
-105 -5 0
-105 -6 0
-105 -7 0
-105 -8 0
-105 -9 0
-105 10 0
-105 -11 0
-105 12 0
-105 -13 0
-105 14 0
-105 -15 0
-105 16 0
-105 -17 0
-105 -18 0
-105 -19 0
-105 -20 0
-105 -21 0
-105 -22 0
-105 -23 0
-105 -24 0
-105 -25 0
-105 26 0
-105 -27 0
-105 28 0
-105 -29 0
-105 30 0
-105 -31 0
-105 32 0
-106 -1 0
-106 2 0
-106 -3 0
-106 4 0
-106 -5 0
-106 6 0
-106 -7 0
-106 8 0
-106 -9 0
-106 -10 0
-106 -11 0
-106 -12 0
-106 -13 0
-106 -14 0
-106 -15 0
-106 -16 0
-106 -17 0
-106 18 0
-106 -19 0
-106 20 0
-106 -21 0
-106 22 0
-106 -23 0
-106 24 0
-106 -25 0
-106 -26 0
-106 -27 0
-106 -28 0
-106 -29 0
-106 -30 0
-106 -31 0
-106 -32 0
-107 -1 0
-107 -2 0
-107 -3 0
-107 -4 0
-107 -5 0
-107 -6 0
-107 -7 0
-107 -8 0
-107 9 0
-107 -10 0
-107 11 0
-107 -12 0
-107 13 0
-107 -14 0
-107 15 0
-107 -16 0
-107 -17 0
-107 -18 0
-107 -19 0
-107 -20 0
-107 -21 0
-107 -22 0
-107 -23 0
-107 -24 0
-107 25 0
-107 -26 0
-107 27 0
-107 -28 0
-107 29 0
-107 -30 0
-107 31 0
-107 -32 0
-108 1 0
-108 -2 0
-108 3 0
-108 -4 0
-108 5 0
-108 -6 0
-108 7 0
-108 -8 0
-108 -9 0
-108 -10 0
-108 -11 0
-108 -12 0
-108 -13 0
-108 -14 0
-108 -15 0
-108 -16 0
-108 17 0
-108 -18 0
-108 19 0
-108 -20 0
-108 21 0
-108 -22 0
-108 23 0
-108 -24 0
-108 -25 0
-108 -26 0
-108 -27 0
-108 -28 0
-108 -29 0
-108 -30 0
-108 -31 0
-108 -32 0
-109 -1 0
-109 -2 0
-109 -3 0
-109 -4 0
-109 -5 0
-109 -6 0
-109 -7 0
-109 -8 0
-109 -9 0
-109 -10 0
-109 -11 0
-109 -12 0
-109 -13 0
-109 -14 0
-109 -15 0
-109 -16 0
-109 -17 0
-109 18 0
-109 -19 0
-109 20 0
-109 -21 0
-109 22 0
-109 -23 0
-109 24 0
-109 -25 0
-109 26 0
-109 -27 0
-109 28 0
-109 -29 0
-109 30 0
-109 -31 0
-109 32 0
-110 -1 0
-110 2 0
-110 -3 0
-110 4 0
-110 -5 0
-110 6 0
-110 -7 0
-110 8 0
-110 -9 0
-110 10 0
-110 -11 0
-110 12 0
-110 -13 0
-110 14 0
-110 -15 0
-110 16 0
-110 -17 0
-110 -18 0
-110 -19 0
-110 -20 0
-110 -21 0
-110 -22 0
-110 -23 0
-110 -24 0
-110 -25 0
-110 -26 0
-110 -27 0
-110 -28 0
-110 -29 0
-110 -30 0
-110 -31 0
-110 -32 0
-111 -1 0
-111 -2 0
-111 -3 0
-111 -4 0
-111 -5 0
-111 -6 0
-111 -7 0
-111 -8 0
-111 -9 0
-111 -10 0
-111 -11 0
-111 -12 0
-111 -13 0
-111 -14 0
-111 -15 0
-111 -16 0
-111 17 0
-111 -18 0
-111 19 0
-111 -20 0
-111 21 0
-111 -22 0
-111 23 0
-111 -24 0
-111 25 0
-111 -26 0
-111 27 0
-111 -28 0
-111 29 0
-111 -30 0
-111 31 0
-111 -32 0
-112 1 0
-112 -2 0
-112 3 0
-112 -4 0
-112 5 0
-112 -6 0
-112 7 0
-112 -8 0
-112 9 0
-112 -10 0
-112 11 0
-112 -12 0
-112 13 0
-112 -14 0
-112 15 0
-112 -16 0
-112 -17 0
-112 -18 0
-112 -19 0
-112 -20 0
-112 -21 0
-112 -22 0
-112 -23 0
-112 -24 0
-112 -25 0
-112 -26 0
-112 -27 0
-112 -28 0
-112 -29 0
-112 -30 0
-112 -31 0
-112 -32 0
-113 -1 0
-113 -2 0
-113 -3 0
-113 -4 0
-113 -5 0
-113 -6 0
-113 7 0
-113 8 0
-113 -9 0
-113 -10 0
-113 -11 0
-113 -12 0
-113 -13 0
-113 -14 0
-113 15 0
-113 16 0
-113 -17 0
-113 -18 0
-113 -19 0
-113 -20 0
-113 -21 0
-113 -22 0
-113 23 0
-113 24 0
-113 -25 0
-113 -26 0
-113 -27 0
-113 -28 0
-113 -29 0
-113 -30 0
-113 31 0
-113 32 0
-114 -1 0
-114 -2 0
-114 3 0
-114 4 0
-114 -5 0
-114 -6 0
-114 -7 0
-114 -8 0
-114 -9 0
-114 -10 0
-114 11 0
-114 12 0
-114 -13 0
-114 -14 0
-114 -15 0
-114 -16 0
-114 -17 0
-114 -18 0
-114 19 0
-114 20 0
-114 -21 0
-114 -22 0
-114 -23 0
-114 -24 0
-114 -25 0
-114 -26 0
-114 27 0
-114 28 0
-114 -29 0
-114 -30 0
-114 -31 0
-114 -32 0
-115 -1 0
-115 -2 0
-115 -3 0
-115 -4 0
-115 5 0
-115 6 0
-115 -7 0
-115 -8 0
-115 -9 0
-115 -10 0
-115 -11 0
-115 -12 0
-115 13 0
-115 14 0
-115 -15 0
-115 -16 0
-115 -17 0
-115 -18 0
-115 -19 0
-115 -20 0
-115 21 0
-115 22 0
-115 -23 0
-115 -24 0
-115 -25 0
-115 -26 0
-115 -27 0
-115 -28 0
-115 29 0
-115 30 0
-115 -31 0
-115 -32 0
-116 1 0
-116 2 0
-116 -3 0
-116 -4 0
-116 -5 0
-116 -6 0
-116 -7 0
-116 -8 0
-116 9 0
-116 10 0
-116 -11 0
-116 -12 0
-116 -13 0
-116 -14 0
-116 -15 0
-116 -16 0
-116 17 0
-116 18 0
-116 -19 0
-116 -20 0
-116 -21 0
-116 -22 0
-116 -23 0
-116 -24 0
-116 25 0
-116 26 0
-116 -27 0
-116 -28 0
-116 -29 0
-116 -30 0
-116 -31 0
-116 -32 0
-117 -1 0
-117 -2 0
-117 -3 0
-117 -4 0
-117 -5 0
-117 -6 0
-117 -7 0
-117 -8 0
-117 -9 0
-117 -10 0
-117 11 0
-117 12 0
-117 -13 0
-117 -14 0
-117 15 0
-117 16 0
-117 -17 0
-117 -18 0
-117 -19 0
-117 -20 0
-117 -21 0
-117 -22 0
-117 -23 0
-117 -24 0
-117 -25 0
-117 -26 0
-117 27 0
-117 28 0
-117 -29 0
-117 -30 0
-117 31 0
-117 32 0
-118 -1 0
-118 -2 0
-118 3 0
-118 4 0
-118 -5 0
-118 -6 0
-118 7 0
-118 8 0
-118 -9 0
-118 -10 0
-118 -11 0
-118 -12 0
-118 -13 0
-118 -14 0
-118 -15 0
-118 -16 0
-118 -17 0
-118 -18 0
-118 19 0
-118 20 0
-118 -21 0
-118 -22 0
-118 23 0
-118 24 0
-118 -25 0
-118 -26 0
-118 -27 0
-118 -28 0
-118 -29 0
-118 -30 0
-118 -31 0
-118 -32 0
-119 -1 0
-119 -2 0
-119 -3 0
-119 -4 0
-119 -5 0
-119 -6 0
-119 -7 0
-119 -8 0
-119 9 0
-119 10 0
-119 -11 0
-119 -12 0
-119 13 0
-119 14 0
-119 -15 0
-119 -16 0
-119 -17 0
-119 -18 0
-119 -19 0
-119 -20 0
-119 -21 0
-119 -22 0
-119 -23 0
-119 -24 0
-119 25 0
-119 26 0
-119 -27 0
-119 -28 0
-119 29 0
-119 30 0
-119 -31 0
-119 -32 0
-120 1 0
-120 2 0
-120 -3 0
-120 -4 0
-120 5 0
-120 6 0
-120 -7 0
-120 -8 0
-120 -9 0
-120 -10 0
-120 -11 0
-120 -12 0
-120 -13 0
-120 -14 0
-120 -15 0
-120 -16 0
-120 17 0
-120 18 0
-120 -19 0
-120 -20 0
-120 21 0
-120 22 0
-120 -23 0
-120 -24 0
-120 -25 0
-120 -26 0
-120 -27 0
-120 -28 0
-120 -29 0
-120 -30 0
-120 -31 0
-120 -32 0
-121 -1 0
-121 -2 0
-121 -3 0
-121 -4 0
-121 -5 0
-121 -6 0
-121 -7 0
-121 -8 0
-121 -9 0
-121 -10 0
-121 -11 0
-121 -12 0
-121 -13 0
-121 -14 0
-121 -15 0
-121 -16 0
-121 -17 0
-121 -18 0
-121 19 0
-121 20 0
-121 -21 0
-121 -22 0
-121 23 0
-121 24 0
-121 -25 0
-121 -26 0
-121 27 0
-121 28 0
-121 -29 0
-121 -30 0
-121 31 0
-121 32 0
-122 -1 0
-122 -2 0
-122 3 0
-122 4 0
-122 -5 0
-122 -6 0
-122 7 0
-122 8 0
-122 -9 0
-122 -10 0
-122 11 0
-122 12 0
-122 -13 0
-122 -14 0
-122 15 0
-122 16 0
-122 -17 0
-122 -18 0
-122 -19 0
-122 -20 0
-122 -21 0
-122 -22 0
-122 -23 0
-122 -24 0
-122 -25 0
-122 -26 0
-122 -27 0
-122 -28 0
-122 -29 0
-122 -30 0
-122 -31 0
-122 -32 0
-123 -1 0
-123 -2 0
-123 -3 0
-123 -4 0
-123 -5 0
-123 -6 0
-123 -7 0
-123 -8 0
-123 -9 0
-123 -10 0
-123 -11 0
-123 -12 0
-123 -13 0
-123 -14 0
-123 -15 0
-123 -16 0
-123 17 0
-123 18 0
-123 -19 0
-123 -20 0
-123 21 0
-123 22 0
-123 -23 0
-123 -24 0
-123 25 0
-123 26 0
-123 -27 0
-123 -28 0
-123 29 0
-123 30 0
-123 -31 0
-123 -32 0
-124 1 0
-124 2 0
-124 -3 0
-124 -4 0
-124 5 0
-124 6 0
-124 -7 0
-124 -8 0
-124 9 0
-124 10 0
-124 -11 0
-124 -12 0
-124 13 0
-124 14 0
-124 -15 0
-124 -16 0
-124 -17 0
-124 -18 0
-124 -19 0
-124 -20 0
-124 -21 0
-124 -22 0
-124 -23 0
-124 -24 0
-124 -25 0
-124 -26 0
-124 -27 0
-124 -28 0
-124 -29 0
-124 -30 0
-124 -31 0
-124 -32 0
-125 -1 0
-125 -2 0
-125 -3 0
-125 -4 0
-125 -5 0
-125 -6 0
-125 -7 0
-125 -8 0
-125 -9 0
-125 -10 0
-125 -11 0
-125 -12 0
-125 13 0
-125 14 0
-125 15 0
-125 16 0
-125 -17 0
-125 -18 0
-125 -19 0
-125 -20 0
-125 -21 0
-125 -22 0
-125 -23 0
-125 -24 0
-125 -25 0
-125 -26 0
-125 -27 0
-125 -28 0
-125 29 0
-125 30 0
-125 31 0
-125 32 0
-126 -1 0
-126 -2 0
-126 -3 0
-126 -4 0
-126 5 0
-126 6 0
-126 7 0
-126 8 0
-126 -9 0
-126 -10 0
-126 -11 0
-126 -12 0
-126 -13 0
-126 -14 0
-126 -15 0
-126 -16 0
-126 -17 0
-126 -18 0
-126 -19 0
-126 -20 0
-126 21 0
-126 22 0
-126 23 0
-126 24 0
-126 -25 0
-126 -26 0
-126 -27 0
-126 -28 0
-126 -29 0
-126 -30 0
-126 -31 0
-126 -32 0
-127 -1 0
-127 -2 0
-127 -3 0
-127 -4 0
-127 -5 0
-127 -6 0
-127 -7 0
-127 -8 0
-127 9 0
-127 10 0
-127 11 0
-127 12 0
-127 -13 0
-127 -14 0
-127 -15 0
-127 -16 0
-127 -17 0
-127 -18 0
-127 -19 0
-127 -20 0
-127 -21 0
-127 -22 0
-127 -23 0
-127 -24 0
-127 25 0
-127 26 0
-127 27 0
-127 28 0
-127 -29 0
-127 -30 0
-127 -31 0
-127 -32 0
-128 1 0
-128 2 0
-128 3 0
-128 4 0
-128 -5 0
-128 -6 0
-128 -7 0
-128 -8 0
-128 -9 0
-128 -10 0
-128 -11 0
-128 -12 0
-128 -13 0
-128 -14 0
-128 -15 0
-128 -16 0
-128 17 0
-128 18 0
-128 19 0
-128 20 0
-128 -21 0
-128 -22 0
-128 -23 0
-128 -24 0
-128 -25 0
-128 -26 0
-128 -27 0
-128 -28 0
-128 -29 0
-128 -30 0
-128 -31 0
-128 -32 0
-129 -1 0
-129 -2 0
-129 -3 0
-129 -4 0
-129 -5 0
-129 -6 0
-129 -7 0
-129 -8 0
-129 -9 0
-129 -10 0
-129 -11 0
-129 -12 0
-129 -13 0
-129 -14 0
-129 -15 0
-129 -16 0
-129 -17 0
-129 -18 0
-129 -19 0
-129 -20 0
-129 21 0
-129 22 0
-129 23 0
-129 24 0
-129 -25 0
-129 -26 0
-129 -27 0
-129 -28 0
-129 29 0
-129 30 0
-129 31 0
-129 32 0
-130 -1 0
-130 -2 0
-130 -3 0
-130 -4 0
-130 5 0
-130 6 0
-130 7 0
-130 8 0
-130 -9 0
-130 -10 0
-130 -11 0
-130 -12 0
-130 13 0
-130 14 0
-130 15 0
-130 16 0
-130 -17 0
-130 -18 0
-130 -19 0
-130 -20 0
-130 -21 0
-130 -22 0
-130 -23 0
-130 -24 0
-130 -25 0
-130 -26 0
-130 -27 0
-130 -28 0
-130 -29 0
-130 -30 0
-130 -31 0
-130 -32 0
-131 -1 0
-131 -2 0
-131 -3 0
-131 -4 0
-131 -5 0
-131 -6 0
-131 -7 0
-131 -8 0
-131 -9 0
-131 -10 0
-131 -11 0
-131 -12 0
-131 -13 0
-131 -14 0
-131 -15 0
-131 -16 0
-131 17 0
-131 18 0
-131 19 0
-131 20 0
-131 -21 0
-131 -22 0
-131 -23 0
-131 -24 0
-131 25 0
-131 26 0
-131 27 0
-131 28 0
-131 -29 0
-131 -30 0
-131 -31 0
-131 -32 0
-132 1 0
-132 2 0
-132 3 0
-132 4 0
-132 -5 0
-132 -6 0
-132 -7 0
-132 -8 0
-132 9 0
-132 10 0
-132 11 0
-132 12 0
-132 -13 0
-132 -14 0
-132 -15 0
-132 -16 0
-132 -17 0
-132 -18 0
-132 -19 0
-132 -20 0
-132 -21 0
-132 -22 0
-132 -23 0
-132 -24 0
-132 -25 0
-132 -26 0
-132 -27 0
-132 -28 0
-132 -29 0
-132 -30 0
-132 -31 0
-132 -32 0
-133 -1 0
-133 -2 0
-133 -3 0
-133 -4 0
-133 -5 0
-133 -6 0
-133 -7 0
-133 -8 0
-133 -9 0
-133 -10 0
-133 -11 0
-133 -12 0
-133 -13 0
-133 -14 0
-133 -15 0
-133 -16 0
-133 -17 0
-133 -18 0
-133 -19 0
-133 -20 0
-133 -21 0
-133 -22 0
-133 -23 0
-133 -24 0
-133 25 0
-133 26 0
-133 27 0
-133 28 0
-133 29 0
-133 30 0
-133 31 0
-133 32 0
-134 -1 0
-134 -2 0
-134 -3 0
-134 -4 0
-134 -5 0
-134 -6 0
-134 -7 0
-134 -8 0
-134 9 0
-134 10 0
-134 11 0
-134 12 0
-134 13 0
-134 14 0
-134 15 0
-134 16 0
-134 -17 0
-134 -18 0
-134 -19 0
-134 -20 0
-134 -21 0
-134 -22 0
-134 -23 0
-134 -24 0
-134 -25 0
-134 -26 0
-134 -27 0
-134 -28 0
-134 -29 0
-134 -30 0
-134 -31 0
-134 -32 0
-135 -1 0
-135 -2 0
-135 -3 0
-135 -4 0
-135 -5 0
-135 -6 0
-135 -7 0
-135 -8 0
-135 -9 0
-135 -10 0
-135 -11 0
-135 -12 0
-135 -13 0
-135 -14 0
-135 -15 0
-135 -16 0
-135 17 0
-135 18 0
-135 19 0
-135 20 0
-135 21 0
-135 22 0
-135 23 0
-135 24 0
-135 -25 0
-135 -26 0
-135 -27 0
-135 -28 0
-135 -29 0
-135 -30 0
-135 -31 0
-135 -32 0
-136 1 0
-136 2 0
-136 3 0
-136 4 0
-136 5 0
-136 6 0
-136 7 0
-136 8 0
-136 -9 0
-136 -10 0
-136 -11 0
-136 -12 0
-136 -13 0
-136 -14 0
-136 -15 0
-136 -16 0
-136 -17 0
-136 -18 0
-136 -19 0
-136 -20 0
-136 -21 0
-136 -22 0
-136 -23 0
-136 -24 0
-136 -25 0
-136 -26 0
-136 -27 0
-136 -28 0
-136 -29 0
-136 -30 0
-136 -31 0
-136 -32 0
137 138 139 140 141 142 143 144 145 146 147 148 149 150 151 152 153 154 155 156 157 158 159 160 161 162 163 164 165 166 167 168 169 170 171 172 173 174 175 176 177 178 179 180 181 182 183 184 185 186 187 188 189 190 191 192 193 194 195 196 0
-137 -138 0
-137 -139 0
-137 -140 0
-137 -141 0
-137 -142 0
-137 -143 0
-137 -144 0
-137 -145 0
-137 -146 0
-137 -147 0
-137 -148 0
-137 -149 0
-137 -150 0
-137 -151 0
-137 -152 0
-137 -153 0
-137 -154 0
-137 -155 0
-137 -156 0
-137 -157 0
-137 -158 0
-137 -159 0
-137 -160 0
-137 -161 0
-137 -162 0
-137 -163 0
-137 -164 0
-137 -165 0
-137 -166 0
-137 -167 0
-137 -168 0
-137 -169 0
-137 -170 0
-137 -171 0
-137 -172 0
-137 -173 0
-137 -174 0
-137 -175 0
-137 -176 0
-137 -177 0
-137 -178 0
-137 -179 0
-137 -180 0
-137 -181 0
-137 -182 0
-137 -183 0
-137 -184 0
-137 -185 0
-137 -186 0
-137 -187 0
-137 -188 0
-137 -189 0
-137 -190 0
-137 -191 0
-137 -192 0
-137 -193 0
-137 -194 0
-137 -195 0
-137 -196 0
-138 -139 0
-138 -140 0
-138 -141 0
-138 -142 0
-138 -143 0
-138 -144 0
-138 -145 0
-138 -146 0
-138 -147 0
-138 -148 0
-138 -149 0
-138 -150 0
-138 -151 0
-138 -152 0
-138 -153 0
-138 -154 0
-138 -155 0
-138 -156 0
-138 -157 0
-138 -158 0
-138 -159 0
-138 -160 0
-138 -161 0
-138 -162 0
-138 -163 0
-138 -164 0
-138 -165 0
-138 -166 0
-138 -167 0
-138 -168 0
-138 -169 0
-138 -170 0
-138 -171 0
-138 -172 0
-138 -173 0
-138 -174 0
-138 -175 0
-138 -176 0
-138 -177 0
-138 -178 0
-138 -179 0
-138 -180 0
-138 -181 0
-138 -182 0
-138 -183 0
-138 -184 0
-138 -185 0
-138 -186 0
-138 -187 0
-138 -188 0
-138 -189 0
-138 -190 0
-138 -191 0
-138 -192 0
-138 -193 0
-138 -194 0
-138 -195 0
-138 -196 0
-139 -140 0
-139 -141 0
-139 -142 0
-139 -143 0
-139 -144 0
-139 -145 0
-139 -146 0
-139 -147 0
-139 -148 0
-139 -149 0
-139 -150 0
-139 -151 0
-139 -152 0
-139 -153 0
-139 -154 0
-139 -155 0
-139 -156 0
-139 -157 0
-139 -158 0
-139 -159 0
-139 -160 0
-139 -161 0
-139 -162 0
-139 -163 0
-139 -164 0
-139 -165 0
-139 -166 0
-139 -167 0
-139 -168 0
-139 -169 0
-139 -170 0
-139 -171 0
-139 -172 0
-139 -173 0
-139 -174 0
-139 -175 0
-139 -176 0
-139 -177 0
-139 -178 0
-139 -179 0
-139 -180 0
-139 -181 0
-139 -182 0
-139 -183 0
-139 -184 0
-139 -185 0
-139 -186 0
-139 -187 0
-139 -188 0
-139 -189 0
-139 -190 0
-139 -191 0
-139 -192 0
-139 -193 0
-139 -194 0
-139 -195 0
-139 -196 0
-140 -141 0
-140 -142 0
-140 -143 0
-140 -144 0
-140 -145 0
-140 -146 0
-140 -147 0
-140 -148 0
-140 -149 0
-140 -150 0
-140 -151 0
-140 -152 0
-140 -153 0
-140 -154 0
-140 -155 0
-140 -156 0
-140 -157 0
-140 -158 0
-140 -159 0
-140 -160 0
-140 -161 0
-140 -162 0
-140 -163 0
-140 -164 0
-140 -165 0
-140 -166 0
-140 -167 0
-140 -168 0
-140 -169 0
-140 -170 0
-140 -171 0
-140 -172 0
-140 -173 0
-140 -174 0
-140 -175 0
-140 -176 0
-140 -177 0
-140 -178 0
-140 -179 0
-140 -180 0
-140 -181 0
-140 -182 0
-140 -183 0
-140 -184 0
-140 -185 0
-140 -186 0
-140 -187 0
-140 -188 0
-140 -189 0
-140 -190 0
-140 -191 0
-140 -192 0
-140 -193 0
-140 -194 0
-140 -195 0
-140 -196 0
-141 -142 0
-141 -143 0
-141 -144 0
-141 -145 0
-141 -146 0
-141 -147 0
-141 -148 0
-141 -149 0
-141 -150 0
-141 -151 0
-141 -152 0
-141 -153 0
-141 -154 0
-141 -155 0
-141 -156 0
-141 -157 0
-141 -158 0
-141 -159 0
-141 -160 0
-141 -161 0
-141 -162 0
-141 -163 0
-141 -164 0
-141 -165 0
-141 -166 0
-141 -167 0
-141 -168 0
-141 -169 0
-141 -170 0
-141 -171 0
-141 -172 0
-141 -173 0
-141 -174 0
-141 -175 0
-141 -176 0
-141 -177 0
-141 -178 0
-141 -179 0
-141 -180 0
-141 -181 0
-141 -182 0
-141 -183 0
-141 -184 0
-141 -185 0
-141 -186 0
-141 -187 0
-141 -188 0
-141 -189 0
-141 -190 0
-141 -191 0
-141 -192 0
-141 -193 0
-141 -194 0
-141 -195 0
-141 -196 0
-142 -143 0
-142 -144 0
-142 -145 0
-142 -146 0
-142 -147 0
-142 -148 0
-142 -149 0
-142 -150 0
-142 -151 0
-142 -152 0
-142 -153 0
-142 -154 0
-142 -155 0
-142 -156 0
-142 -157 0
-142 -158 0
-142 -159 0
-142 -160 0
-142 -161 0
-142 -162 0
-142 -163 0
-142 -164 0
-142 -165 0
-142 -166 0
-142 -167 0
-142 -168 0
-142 -169 0
-142 -170 0
-142 -171 0
-142 -172 0
-142 -173 0
-142 -174 0
-142 -175 0
-142 -176 0
-142 -177 0
-142 -178 0
-142 -179 0
-142 -180 0
-142 -181 0
-142 -182 0
-142 -183 0
-142 -184 0
-142 -185 0
-142 -186 0
-142 -187 0
-142 -188 0
-142 -189 0
-142 -190 0
-142 -191 0
-142 -192 0
-142 -193 0
-142 -194 0
-142 -195 0
-142 -196 0
-143 -144 0
-143 -145 0
-143 -146 0
-143 -147 0
-143 -148 0
-143 -149 0
-143 -150 0
-143 -151 0
-143 -152 0
-143 -153 0
-143 -154 0
-143 -155 0
-143 -156 0
-143 -157 0
-143 -158 0
-143 -159 0
-143 -160 0
-143 -161 0
-143 -162 0
-143 -163 0
-143 -164 0
-143 -165 0
-143 -166 0
-143 -167 0
-143 -168 0
-143 -169 0
-143 -170 0
-143 -171 0
-143 -172 0
-143 -173 0
-143 -174 0
-143 -175 0
-143 -176 0
-143 -177 0
-143 -178 0
-143 -179 0
-143 -180 0
-143 -181 0
-143 -182 0
-143 -183 0
-143 -184 0
-143 -185 0
-143 -186 0
-143 -187 0
-143 -188 0
-143 -189 0
-143 -190 0
-143 -191 0
-143 -192 0
-143 -193 0
-143 -194 0
-143 -195 0
-143 -196 0
-144 -145 0
-144 -146 0
-144 -147 0
-144 -148 0
-144 -149 0
-144 -150 0
-144 -151 0
-144 -152 0
-144 -153 0
-144 -154 0
-144 -155 0
-144 -156 0
-144 -157 0
-144 -158 0
-144 -159 0
-144 -160 0
-144 -161 0
-144 -162 0
-144 -163 0
-144 -164 0
-144 -165 0
-144 -166 0
-144 -167 0
-144 -168 0
-144 -169 0
-144 -170 0
-144 -171 0
-144 -172 0
-144 -173 0
-144 -174 0
-144 -175 0
-144 -176 0
-144 -177 0
-144 -178 0
-144 -179 0
-144 -180 0
-144 -181 0
-144 -182 0
-144 -183 0
-144 -184 0
-144 -185 0
-144 -186 0
-144 -187 0
-144 -188 0
-144 -189 0
-144 -190 0
-144 -191 0
-144 -192 0
-144 -193 0
-144 -194 0
-144 -195 0
-144 -196 0
-145 -146 0
-145 -147 0
-145 -148 0
-145 -149 0
-145 -150 0
-145 -151 0
-145 -152 0
-145 -153 0
-145 -154 0
-145 -155 0
-145 -156 0
-145 -157 0
-145 -158 0
-145 -159 0
-145 -160 0
-145 -161 0
-145 -162 0
-145 -163 0
-145 -164 0
-145 -165 0
-145 -166 0
-145 -167 0
-145 -168 0
-145 -169 0
-145 -170 0
-145 -171 0
-145 -172 0
-145 -173 0
-145 -174 0
-145 -175 0
-145 -176 0
-145 -177 0
-145 -178 0
-145 -179 0
-145 -180 0
-145 -181 0
-145 -182 0
-145 -183 0
-145 -184 0
-145 -185 0
-145 -186 0
-145 -187 0
-145 -188 0
-145 -189 0
-145 -190 0
-145 -191 0
-145 -192 0
-145 -193 0
-145 -194 0
-145 -195 0
-145 -196 0
-146 -147 0
-146 -148 0
-146 -149 0
-146 -150 0
-146 -151 0
-146 -152 0
-146 -153 0
-146 -154 0
-146 -155 0
-146 -156 0
-146 -157 0
-146 -158 0
-146 -159 0
-146 -160 0
-146 -161 0
-146 -162 0
-146 -163 0
-146 -164 0
-146 -165 0
-146 -166 0
-146 -167 0
-146 -168 0
-146 -169 0
-146 -170 0
-146 -171 0
-146 -172 0
-146 -173 0
-146 -174 0
-146 -175 0
-146 -176 0
-146 -177 0
-146 -178 0
-146 -179 0
-146 -180 0
-146 -181 0
-146 -182 0
-146 -183 0
-146 -184 0
-146 -185 0
-146 -186 0
-146 -187 0
-146 -188 0
-146 -189 0
-146 -190 0
-146 -191 0
-146 -192 0
-146 -193 0
-146 -194 0
-146 -195 0
-146 -196 0
-147 -148 0
-147 -149 0
-147 -150 0
-147 -151 0
-147 -152 0
-147 -153 0
-147 -154 0
-147 -155 0
-147 -156 0
-147 -157 0
-147 -158 0
-147 -159 0
-147 -160 0
-147 -161 0
-147 -162 0
-147 -163 0
-147 -164 0
-147 -165 0
-147 -166 0
-147 -167 0
-147 -168 0
-147 -169 0
-147 -170 0
-147 -171 0
-147 -172 0
-147 -173 0
-147 -174 0
-147 -175 0
-147 -176 0
-147 -177 0
-147 -178 0
-147 -179 0
-147 -180 0
-147 -181 0
-147 -182 0
-147 -183 0
-147 -184 0
-147 -185 0
-147 -186 0
-147 -187 0
-147 -188 0
-147 -189 0
-147 -190 0
-147 -191 0
-147 -192 0
-147 -193 0
-147 -194 0
-147 -195 0
-147 -196 0
-148 -149 0
-148 -150 0
-148 -151 0
-148 -152 0
-148 -153 0
-148 -154 0
-148 -155 0
-148 -156 0
-148 -157 0
-148 -158 0
-148 -159 0
-148 -160 0
-148 -161 0
-148 -162 0
-148 -163 0
-148 -164 0
-148 -165 0
-148 -166 0
-148 -167 0
-148 -168 0
-148 -169 0
-148 -170 0
-148 -171 0
-148 -172 0
-148 -173 0
-148 -174 0
-148 -175 0
-148 -176 0
-148 -177 0
-148 -178 0
-148 -179 0
-148 -180 0
-148 -181 0
-148 -182 0
-148 -183 0
-148 -184 0
-148 -185 0
-148 -186 0
-148 -187 0
-148 -188 0
-148 -189 0
-148 -190 0
-148 -191 0
-148 -192 0
-148 -193 0
-148 -194 0
-148 -195 0
-148 -196 0
-149 -150 0
-149 -151 0
-149 -152 0
-149 -153 0
-149 -154 0
-149 -155 0
-149 -156 0
-149 -157 0
-149 -158 0
-149 -159 0
-149 -160 0
-149 -161 0
-149 -162 0
-149 -163 0
-149 -164 0
-149 -165 0
-149 -166 0
-149 -167 0
-149 -168 0
-149 -169 0
-149 -170 0
-149 -171 0
-149 -172 0
-149 -173 0
-149 -174 0
-149 -175 0
-149 -176 0
-149 -177 0
-149 -178 0
-149 -179 0
-149 -180 0
-149 -181 0
-149 -182 0
-149 -183 0
-149 -184 0
-149 -185 0
-149 -186 0
-149 -187 0
-149 -188 0
-149 -189 0
-149 -190 0
-149 -191 0
-149 -192 0
-149 -193 0
-149 -194 0
-149 -195 0
-149 -196 0
-150 -151 0
-150 -152 0
-150 -153 0
-150 -154 0
-150 -155 0
-150 -156 0
-150 -157 0
-150 -158 0
-150 -159 0
-150 -160 0
-150 -161 0
-150 -162 0
-150 -163 0
-150 -164 0
-150 -165 0
-150 -166 0
-150 -167 0
-150 -168 0
-150 -169 0
-150 -170 0
-150 -171 0
-150 -172 0
-150 -173 0
-150 -174 0
-150 -175 0
-150 -176 0
-150 -177 0
-150 -178 0
-150 -179 0
-150 -180 0
-150 -181 0
-150 -182 0
-150 -183 0
-150 -184 0
-150 -185 0
-150 -186 0
-150 -187 0
-150 -188 0
-150 -189 0
-150 -190 0
-150 -191 0
-150 -192 0
-150 -193 0
-150 -194 0
-150 -195 0
-150 -196 0
-151 -152 0
-151 -153 0
-151 -154 0
-151 -155 0
-151 -156 0
-151 -157 0
-151 -158 0
-151 -159 0
-151 -160 0
-151 -161 0
-151 -162 0
-151 -163 0
-151 -164 0
-151 -165 0
-151 -166 0
-151 -167 0
-151 -168 0
-151 -169 0
-151 -170 0
-151 -171 0
-151 -172 0
-151 -173 0
-151 -174 0
-151 -175 0
-151 -176 0
-151 -177 0
-151 -178 0
-151 -179 0
-151 -180 0
-151 -181 0
-151 -182 0
-151 -183 0
-151 -184 0
-151 -185 0
-151 -186 0
-151 -187 0
-151 -188 0
-151 -189 0
-151 -190 0
-151 -191 0
-151 -192 0
-151 -193 0
-151 -194 0
-151 -195 0
-151 -196 0
-152 -153 0
-152 -154 0
-152 -155 0
-152 -156 0
-152 -157 0
-152 -158 0
-152 -159 0
-152 -160 0
-152 -161 0
-152 -162 0
-152 -163 0
-152 -164 0
-152 -165 0
-152 -166 0
-152 -167 0
-152 -168 0
-152 -169 0
-152 -170 0
-152 -171 0
-152 -172 0
-152 -173 0
-152 -174 0
-152 -175 0
-152 -176 0
-152 -177 0
-152 -178 0
-152 -179 0
-152 -180 0
-152 -181 0
-152 -182 0
-152 -183 0
-152 -184 0
-152 -185 0
-152 -186 0
-152 -187 0
-152 -188 0
-152 -189 0
-152 -190 0
-152 -191 0
-152 -192 0
-152 -193 0
-152 -194 0
-152 -195 0
-152 -196 0
-153 -154 0
-153 -155 0
-153 -156 0
-153 -157 0
-153 -158 0
-153 -159 0
-153 -160 0
-153 -161 0
-153 -162 0
-153 -163 0
-153 -164 0
-153 -165 0
-153 -166 0
-153 -167 0
-153 -168 0
-153 -169 0
-153 -170 0
-153 -171 0
-153 -172 0
-153 -173 0
-153 -174 0
-153 -175 0
-153 -176 0
-153 -177 0
-153 -178 0
-153 -179 0
-153 -180 0
-153 -181 0
-153 -182 0
-153 -183 0
-153 -184 0
-153 -185 0
-153 -186 0
-153 -187 0
-153 -188 0
-153 -189 0
-153 -190 0
-153 -191 0
-153 -192 0
-153 -193 0
-153 -194 0
-153 -195 0
-153 -196 0
-154 -155 0
-154 -156 0
-154 -157 0
-154 -158 0
-154 -159 0
-154 -160 0
-154 -161 0
-154 -162 0
-154 -163 0
-154 -164 0
-154 -165 0
-154 -166 0
-154 -167 0
-154 -168 0
-154 -169 0
-154 -170 0
-154 -171 0
-154 -172 0
-154 -173 0
-154 -174 0
-154 -175 0
-154 -176 0
-154 -177 0
-154 -178 0
-154 -179 0
-154 -180 0
-154 -181 0
-154 -182 0
-154 -183 0
-154 -184 0
-154 -185 0
-154 -186 0
-154 -187 0
-154 -188 0
-154 -189 0
-154 -190 0
-154 -191 0
-154 -192 0
-154 -193 0
-154 -194 0
-154 -195 0
-154 -196 0
-155 -156 0
-155 -157 0
-155 -158 0
-155 -159 0
-155 -160 0
-155 -161 0
-155 -162 0
-155 -163 0
-155 -164 0
-155 -165 0
-155 -166 0
-155 -167 0
-155 -168 0
-155 -169 0
-155 -170 0
-155 -171 0
-155 -172 0
-155 -173 0
-155 -174 0
-155 -175 0
-155 -176 0
-155 -177 0
-155 -178 0
-155 -179 0
-155 -180 0
-155 -181 0
-155 -182 0
-155 -183 0
-155 -184 0
-155 -185 0
-155 -186 0
-155 -187 0
-155 -188 0
-155 -189 0
-155 -190 0
-155 -191 0
-155 -192 0
-155 -193 0
-155 -194 0
-155 -195 0
-155 -196 0
-156 -157 0
-156 -158 0
-156 -159 0
-156 -160 0
-156 -161 0
-156 -162 0
-156 -163 0
-156 -164 0
-156 -165 0
-156 -166 0
-156 -167 0
-156 -168 0
-156 -169 0
-156 -170 0
-156 -171 0
-156 -172 0
-156 -173 0
-156 -174 0
-156 -175 0
-156 -176 0
-156 -177 0
-156 -178 0
-156 -179 0
-156 -180 0
-156 -181 0
-156 -182 0
-156 -183 0
-156 -184 0
-156 -185 0
-156 -186 0
-156 -187 0
-156 -188 0
-156 -189 0
-156 -190 0
-156 -191 0
-156 -192 0
-156 -193 0
-156 -194 0
-156 -195 0
-156 -196 0
-157 -158 0
-157 -159 0
-157 -160 0
-157 -161 0
-157 -162 0
-157 -163 0
-157 -164 0
-157 -165 0
-157 -166 0
-157 -167 0
-157 -168 0
-157 -169 0
-157 -170 0
-157 -171 0
-157 -172 0
-157 -173 0
-157 -174 0
-157 -175 0
-157 -176 0
-157 -177 0
-157 -178 0
-157 -179 0
-157 -180 0
-157 -181 0
-157 -182 0
-157 -183 0
-157 -184 0
-157 -185 0
-157 -186 0
-157 -187 0
-157 -188 0
-157 -189 0
-157 -190 0
-157 -191 0
-157 -192 0
-157 -193 0
-157 -194 0
-157 -195 0
-157 -196 0
-158 -159 0
-158 -160 0
-158 -161 0
-158 -162 0
-158 -163 0
-158 -164 0
-158 -165 0
-158 -166 0
-158 -167 0
-158 -168 0
-158 -169 0
-158 -170 0
-158 -171 0
-158 -172 0
-158 -173 0
-158 -174 0
-158 -175 0
-158 -176 0
-158 -177 0
-158 -178 0
-158 -179 0
-158 -180 0
-158 -181 0
-158 -182 0
-158 -183 0
-158 -184 0
-158 -185 0
-158 -186 0
-158 -187 0
-158 -188 0
-158 -189 0
-158 -190 0
-158 -191 0
-158 -192 0
-158 -193 0
-158 -194 0
-158 -195 0
-158 -196 0
-159 -160 0
-159 -161 0
-159 -162 0
-159 -163 0
-159 -164 0
-159 -165 0
-159 -166 0
-159 -167 0
-159 -168 0
-159 -169 0
-159 -170 0
-159 -171 0
-159 -172 0
-159 -173 0
-159 -174 0
-159 -175 0
-159 -176 0
-159 -177 0
-159 -178 0
-159 -179 0
-159 -180 0
-159 -181 0
-159 -182 0
-159 -183 0
-159 -184 0
-159 -185 0
-159 -186 0
-159 -187 0
-159 -188 0
-159 -189 0
-159 -190 0
-159 -191 0
-159 -192 0
-159 -193 0
-159 -194 0
-159 -195 0
-159 -196 0
-160 -161 0
-160 -162 0
-160 -163 0
-160 -164 0
-160 -165 0
-160 -166 0
-160 -167 0
-160 -168 0
-160 -169 0
-160 -170 0
-160 -171 0
-160 -172 0
-160 -173 0
-160 -174 0
-160 -175 0
-160 -176 0
-160 -177 0
-160 -178 0
-160 -179 0
-160 -180 0
-160 -181 0
-160 -182 0
-160 -183 0
-160 -184 0
-160 -185 0
-160 -186 0
-160 -187 0
-160 -188 0
-160 -189 0
-160 -190 0
-160 -191 0
-160 -192 0
-160 -193 0
-160 -194 0
-160 -195 0
-160 -196 0
-161 -162 0
-161 -163 0
-161 -164 0
-161 -165 0
-161 -166 0
-161 -167 0
-161 -168 0
-161 -169 0
-161 -170 0
-161 -171 0
-161 -172 0
-161 -173 0
-161 -174 0
-161 -175 0
-161 -176 0
-161 -177 0
-161 -178 0
-161 -179 0
-161 -180 0
-161 -181 0
-161 -182 0
-161 -183 0
-161 -184 0
-161 -185 0
-161 -186 0
-161 -187 0
-161 -188 0
-161 -189 0
-161 -190 0
-161 -191 0
-161 -192 0
-161 -193 0
-161 -194 0
-161 -195 0
-161 -196 0
-162 -163 0
-162 -164 0
-162 -165 0
-162 -166 0
-162 -167 0
-162 -168 0
-162 -169 0
-162 -170 0
-162 -171 0
-162 -172 0
-162 -173 0
-162 -174 0
-162 -175 0
-162 -176 0
-162 -177 0
-162 -178 0
-162 -179 0
-162 -180 0
-162 -181 0
-162 -182 0
-162 -183 0
-162 -184 0
-162 -185 0
-162 -186 0
-162 -187 0
-162 -188 0
-162 -189 0
-162 -190 0
-162 -191 0
-162 -192 0
-162 -193 0
-162 -194 0
-162 -195 0
-162 -196 0
-163 -164 0
-163 -165 0
-163 -166 0
-163 -167 0
-163 -168 0
-163 -169 0
-163 -170 0
-163 -171 0
-163 -172 0
-163 -173 0
-163 -174 0
-163 -175 0
-163 -176 0
-163 -177 0
-163 -178 0
-163 -179 0
-163 -180 0
-163 -181 0
-163 -182 0
-163 -183 0
-163 -184 0
-163 -185 0
-163 -186 0
-163 -187 0
-163 -188 0
-163 -189 0
-163 -190 0
-163 -191 0
-163 -192 0
-163 -193 0
-163 -194 0
-163 -195 0
-163 -196 0
-164 -165 0
-164 -166 0
-164 -167 0
-164 -168 0
-164 -169 0
-164 -170 0
-164 -171 0
-164 -172 0
-164 -173 0
-164 -174 0
-164 -175 0
-164 -176 0
-164 -177 0
-164 -178 0
-164 -179 0
-164 -180 0
-164 -181 0
-164 -182 0
-164 -183 0
-164 -184 0
-164 -185 0
-164 -186 0
-164 -187 0
-164 -188 0
-164 -189 0
-164 -190 0
-164 -191 0
-164 -192 0
-164 -193 0
-164 -194 0
-164 -195 0
-164 -196 0
-165 -166 0
-165 -167 0
-165 -168 0
-165 -169 0
-165 -170 0
-165 -171 0
-165 -172 0
-165 -173 0
-165 -174 0
-165 -175 0
-165 -176 0
-165 -177 0
-165 -178 0
-165 -179 0
-165 -180 0
-165 -181 0
-165 -182 0
-165 -183 0
-165 -184 0
-165 -185 0
-165 -186 0
-165 -187 0
-165 -188 0
-165 -189 0
-165 -190 0
-165 -191 0
-165 -192 0
-165 -193 0
-165 -194 0
-165 -195 0
-165 -196 0
-166 -167 0
-166 -168 0
-166 -169 0
-166 -170 0
-166 -171 0
-166 -172 0
-166 -173 0
-166 -174 0
-166 -175 0
-166 -176 0
-166 -177 0
-166 -178 0
-166 -179 0
-166 -180 0
-166 -181 0
-166 -182 0
-166 -183 0
-166 -184 0
-166 -185 0
-166 -186 0
-166 -187 0
-166 -188 0
-166 -189 0
-166 -190 0
-166 -191 0
-166 -192 0
-166 -193 0
-166 -194 0
-166 -195 0
-166 -196 0
-167 -168 0
-167 -169 0
-167 -170 0
-167 -171 0
-167 -172 0
-167 -173 0
-167 -174 0
-167 -175 0
-167 -176 0
-167 -177 0
-167 -178 0
-167 -179 0
-167 -180 0
-167 -181 0
-167 -182 0
-167 -183 0
-167 -184 0
-167 -185 0
-167 -186 0
-167 -187 0
-167 -188 0
-167 -189 0
-167 -190 0
-167 -191 0
-167 -192 0
-167 -193 0
-167 -194 0
-167 -195 0
-167 -196 0
-168 -169 0
-168 -170 0
-168 -171 0
-168 -172 0
-168 -173 0
-168 -174 0
-168 -175 0
-168 -176 0
-168 -177 0
-168 -178 0
-168 -179 0
-168 -180 0
-168 -181 0
-168 -182 0
-168 -183 0
-168 -184 0
-168 -185 0
-168 -186 0
-168 -187 0
-168 -188 0
-168 -189 0
-168 -190 0
-168 -191 0
-168 -192 0
-168 -193 0
-168 -194 0
-168 -195 0
-168 -196 0
-169 -170 0
-169 -171 0
-169 -172 0
-169 -173 0
-169 -174 0
-169 -175 0
-169 -176 0
-169 -177 0
-169 -178 0
-169 -179 0
-169 -180 0
-169 -181 0
-169 -182 0
-169 -183 0
-169 -184 0
-169 -185 0
-169 -186 0
-169 -187 0
-169 -188 0
-169 -189 0
-169 -190 0
-169 -191 0
-169 -192 0
-169 -193 0
-169 -194 0
-169 -195 0
-169 -196 0
-170 -171 0
-170 -172 0
-170 -173 0
-170 -174 0
-170 -175 0
-170 -176 0
-170 -177 0
-170 -178 0
-170 -179 0
-170 -180 0
-170 -181 0
-170 -182 0
-170 -183 0
-170 -184 0
-170 -185 0
-170 -186 0
-170 -187 0
-170 -188 0
-170 -189 0
-170 -190 0
-170 -191 0
-170 -192 0
-170 -193 0
-170 -194 0
-170 -195 0
-170 -196 0
-171 -172 0
-171 -173 0
-171 -174 0
-171 -175 0
-171 -176 0
-171 -177 0
-171 -178 0
-171 -179 0
-171 -180 0
-171 -181 0
-171 -182 0
-171 -183 0
-171 -184 0
-171 -185 0
-171 -186 0
-171 -187 0
-171 -188 0
-171 -189 0
-171 -190 0
-171 -191 0
-171 -192 0
-171 -193 0
-171 -194 0
-171 -195 0
-171 -196 0
-172 -173 0
-172 -174 0
-172 -175 0
-172 -176 0
-172 -177 0
-172 -178 0
-172 -179 0
-172 -180 0
-172 -181 0
-172 -182 0
-172 -183 0
-172 -184 0
-172 -185 0
-172 -186 0
-172 -187 0
-172 -188 0
-172 -189 0
-172 -190 0
-172 -191 0
-172 -192 0
-172 -193 0
-172 -194 0
-172 -195 0
-172 -196 0
-173 -174 0
-173 -175 0
-173 -176 0
-173 -177 0
-173 -178 0
-173 -179 0
-173 -180 0
-173 -181 0
-173 -182 0
-173 -183 0
-173 -184 0
-173 -185 0
-173 -186 0
-173 -187 0
-173 -188 0
-173 -189 0
-173 -190 0
-173 -191 0
-173 -192 0
-173 -193 0
-173 -194 0
-173 -195 0
-173 -196 0
-174 -175 0
-174 -176 0
-174 -177 0
-174 -178 0
-174 -179 0
-174 -180 0
-174 -181 0
-174 -182 0
-174 -183 0
-174 -184 0
-174 -185 0
-174 -186 0
-174 -187 0
-174 -188 0
-174 -189 0
-174 -190 0
-174 -191 0
-174 -192 0
-174 -193 0
-174 -194 0
-174 -195 0
-174 -196 0
-175 -176 0
-175 -177 0
-175 -178 0
-175 -179 0
-175 -180 0
-175 -181 0
-175 -182 0
-175 -183 0
-175 -184 0
-175 -185 0
-175 -186 0
-175 -187 0
-175 -188 0
-175 -189 0
-175 -190 0
-175 -191 0
-175 -192 0
-175 -193 0
-175 -194 0
-175 -195 0
-175 -196 0
-176 -177 0
-176 -178 0
-176 -179 0
-176 -180 0
-176 -181 0
-176 -182 0
-176 -183 0
-176 -184 0
-176 -185 0
-176 -186 0
-176 -187 0
-176 -188 0
-176 -189 0
-176 -190 0
-176 -191 0
-176 -192 0
-176 -193 0
-176 -194 0
-176 -195 0
-176 -196 0
-177 -178 0
-177 -179 0
-177 -180 0
-177 -181 0
-177 -182 0
-177 -183 0
-177 -184 0
-177 -185 0
-177 -186 0
-177 -187 0
-177 -188 0
-177 -189 0
-177 -190 0
-177 -191 0
-177 -192 0
-177 -193 0
-177 -194 0
-177 -195 0
-177 -196 0
-178 -179 0
-178 -180 0
-178 -181 0
-178 -182 0
-178 -183 0
-178 -184 0
-178 -185 0
-178 -186 0
-178 -187 0
-178 -188 0
-178 -189 0
-178 -190 0
-178 -191 0
-178 -192 0
-178 -193 0
-178 -194 0
-178 -195 0
-178 -196 0
-179 -180 0
-179 -181 0
-179 -182 0
-179 -183 0
-179 -184 0
-179 -185 0
-179 -186 0
-179 -187 0
-179 -188 0
-179 -189 0
-179 -190 0
-179 -191 0
-179 -192 0
-179 -193 0
-179 -194 0
-179 -195 0
-179 -196 0
-180 -181 0
-180 -182 0
-180 -183 0
-180 -184 0
-180 -185 0
-180 -186 0
-180 -187 0
-180 -188 0
-180 -189 0
-180 -190 0
-180 -191 0
-180 -192 0
-180 -193 0
-180 -194 0
-180 -195 0
-180 -196 0
-181 -182 0
-181 -183 0
-181 -184 0
-181 -185 0
-181 -186 0
-181 -187 0
-181 -188 0
-181 -189 0
-181 -190 0
-181 -191 0
-181 -192 0
-181 -193 0
-181 -194 0
-181 -195 0
-181 -196 0
-182 -183 0
-182 -184 0
-182 -185 0
-182 -186 0
-182 -187 0
-182 -188 0
-182 -189 0
-182 -190 0
-182 -191 0
-182 -192 0
-182 -193 0
-182 -194 0
-182 -195 0
-182 -196 0
-183 -184 0
-183 -185 0
-183 -186 0
-183 -187 0
-183 -188 0
-183 -189 0
-183 -190 0
-183 -191 0
-183 -192 0
-183 -193 0
-183 -194 0
-183 -195 0
-183 -196 0
-184 -185 0
-184 -186 0
-184 -187 0
-184 -188 0
-184 -189 0
-184 -190 0
-184 -191 0
-184 -192 0
-184 -193 0
-184 -194 0
-184 -195 0
-184 -196 0
-185 -186 0
-185 -187 0
-185 -188 0
-185 -189 0
-185 -190 0
-185 -191 0
-185 -192 0
-185 -193 0
-185 -194 0
-185 -195 0
-185 -196 0
-186 -187 0
-186 -188 0
-186 -189 0
-186 -190 0
-186 -191 0
-186 -192 0
-186 -193 0
-186 -194 0
-186 -195 0
-186 -196 0
-187 -188 0
-187 -189 0
-187 -190 0
-187 -191 0
-187 -192 0
-187 -193 0
-187 -194 0
-187 -195 0
-187 -196 0
-188 -189 0
-188 -190 0
-188 -191 0
-188 -192 0
-188 -193 0
-188 -194 0
-188 -195 0
-188 -196 0
-189 -190 0
-189 -191 0
-189 -192 0
-189 -193 0
-189 -194 0
-189 -195 0
-189 -196 0
-190 -191 0
-190 -192 0
-190 -193 0
-190 -194 0
-190 -195 0
-190 -196 0
-191 -192 0
-191 -193 0
-191 -194 0
-191 -195 0
-191 -196 0
-192 -193 0
-192 -194 0
-192 -195 0
-192 -196 0
-193 -194 0
-193 -195 0
-193 -196 0
-194 -195 0
-194 -196 0
-195 -196 0
-137 -33 0
-137 -34 0
-137 -35 0
-137 36 0
-137 -37 0
-137 -38 0
-137 -39 0
-137 40 0
-137 -41 0
-137 -42 0
-137 -43 0
-137 44 0
-137 -45 0
-137 -46 0
-137 -47 0
-137 48 0
-137 -49 0
-137 -50 0
-137 -51 0
-137 52 0
-137 -53 0
-137 -54 0
-137 -55 0
-137 56 0
-137 -57 0
-137 -58 0
-137 -59 0
-137 60 0
-137 -61 0
-137 -62 0
-137 -63 0
-137 64 0
-138 -33 0
-138 34 0
-138 -35 0
-138 -36 0
-138 -37 0
-138 38 0
-138 -39 0
-138 -40 0
-138 -41 0
-138 42 0
-138 -43 0
-138 -44 0
-138 -45 0
-138 46 0
-138 -47 0
-138 -48 0
-138 -49 0
-138 50 0
-138 -51 0
-138 -52 0
-138 -53 0
-138 54 0
-138 -55 0
-138 -56 0
-138 -57 0
-138 58 0
-138 -59 0
-138 -60 0
-138 -61 0
-138 62 0
-138 -63 0
-138 -64 0
-139 -33 0
-139 -34 0
-139 35 0
-139 -36 0
-139 -37 0
-139 -38 0
-139 39 0
-139 -40 0
-139 -41 0
-139 -42 0
-139 43 0
-139 -44 0
-139 -45 0
-139 -46 0
-139 47 0
-139 -48 0
-139 -49 0
-139 -50 0
-139 51 0
-139 -52 0
-139 -53 0
-139 -54 0
-139 55 0
-139 -56 0
-139 -57 0
-139 -58 0
-139 59 0
-139 -60 0
-139 -61 0
-139 -62 0
-139 63 0
-139 -64 0
-140 33 0
-140 -34 0
-140 -35 0
-140 -36 0
-140 37 0
-140 -38 0
-140 -39 0
-140 -40 0
-140 41 0
-140 -42 0
-140 -43 0
-140 -44 0
-140 45 0
-140 -46 0
-140 -47 0
-140 -48 0
-140 49 0
-140 -50 0
-140 -51 0
-140 -52 0
-140 53 0
-140 -54 0
-140 -55 0
-140 -56 0
-140 57 0
-140 -58 0
-140 -59 0
-140 -60 0
-140 61 0
-140 -62 0
-140 -63 0
-140 -64 0
-141 -33 0
-141 -34 0
-141 -35 0
-141 -36 0
-141 -37 0
-141 38 0
-141 -39 0
-141 40 0
-141 -41 0
-141 -42 0
-141 -43 0
-141 -44 0
-141 -45 0
-141 46 0
-141 -47 0
-141 48 0
-141 -49 0
-141 -50 0
-141 -51 0
-141 -52 0
-141 -53 0
-141 54 0
-141 -55 0
-141 56 0
-141 -57 0
-141 -58 0
-141 -59 0
-141 -60 0
-141 -61 0
-141 62 0
-141 -63 0
-141 64 0
-142 -33 0
-142 34 0
-142 -35 0
-142 36 0
-142 -37 0
-142 -38 0
-142 -39 0
-142 -40 0
-142 -41 0
-142 42 0
-142 -43 0
-142 44 0
-142 -45 0
-142 -46 0
-142 -47 0
-142 -48 0
-142 -49 0
-142 50 0
-142 -51 0
-142 52 0
-142 -53 0
-142 -54 0
-142 -55 0
-142 -56 0
-142 -57 0
-142 58 0
-142 -59 0
-142 60 0
-142 -61 0
-142 -62 0
-142 -63 0
-142 -64 0
-143 -33 0
-143 -34 0
-143 -35 0
-143 -36 0
-143 37 0
-143 -38 0
-143 39 0
-143 -40 0
-143 -41 0
-143 -42 0
-143 -43 0
-143 -44 0
-143 45 0
-143 -46 0
-143 47 0
-143 -48 0
-143 -49 0
-143 -50 0
-143 -51 0
-143 -52 0
-143 53 0
-143 -54 0
-143 55 0
-143 -56 0
-143 -57 0
-143 -58 0
-143 -59 0
-143 -60 0
-143 61 0
-143 -62 0
-143 63 0
-143 -64 0
-144 33 0
-144 -34 0
-144 35 0
-144 -36 0
-144 -37 0
-144 -38 0
-144 -39 0
-144 -40 0
-144 41 0
-144 -42 0
-144 43 0
-144 -44 0
-144 -45 0
-144 -46 0
-144 -47 0
-144 -48 0
-144 49 0
-144 -50 0
-144 51 0
-144 -52 0
-144 -53 0
-144 -54 0
-144 -55 0
-144 -56 0
-144 57 0
-144 -58 0
-144 59 0
-144 -60 0
-144 -61 0
-144 -62 0
-144 -63 0
-144 -64 0
-145 -33 0
-145 -34 0
-145 -35 0
-145 -36 0
-145 -37 0
-145 -38 0
-145 -39 0
-145 -40 0
-145 -41 0
-145 42 0
-145 -43 0
-145 44 0
-145 -45 0
-145 46 0
-145 -47 0
-145 48 0
-145 -49 0
-145 -50 0
-145 -51 0
-145 -52 0
-145 -53 0
-145 -54 0
-145 -55 0
-145 -56 0
-145 -57 0
-145 58 0
-145 -59 0
-145 60 0
-145 -61 0
-145 62 0
-145 -63 0
-145 64 0
-146 -33 0
-146 34 0
-146 -35 0
-146 36 0
-146 -37 0
-146 38 0
-146 -39 0
-146 40 0
-146 -41 0
-146 -42 0
-146 -43 0
-146 -44 0
-146 -45 0
-146 -46 0
-146 -47 0
-146 -48 0
-146 -49 0
-146 50 0
-146 -51 0
-146 52 0
-146 -53 0
-146 54 0
-146 -55 0
-146 56 0
-146 -57 0
-146 -58 0
-146 -59 0
-146 -60 0
-146 -61 0
-146 -62 0
-146 -63 0
-146 -64 0
-147 -33 0
-147 -34 0
-147 -35 0
-147 -36 0
-147 -37 0
-147 -38 0
-147 -39 0
-147 -40 0
-147 41 0
-147 -42 0
-147 43 0
-147 -44 0
-147 45 0
-147 -46 0
-147 47 0
-147 -48 0
-147 -49 0
-147 -50 0
-147 -51 0
-147 -52 0
-147 -53 0
-147 -54 0
-147 -55 0
-147 -56 0
-147 57 0
-147 -58 0
-147 59 0
-147 -60 0
-147 61 0
-147 -62 0
-147 63 0
-147 -64 0
-148 33 0
-148 -34 0
-148 35 0
-148 -36 0
-148 37 0
-148 -38 0
-148 39 0
-148 -40 0
-148 -41 0
-148 -42 0
-148 -43 0
-148 -44 0
-148 -45 0
-148 -46 0
-148 -47 0
-148 -48 0
-148 49 0
-148 -50 0
-148 51 0
-148 -52 0
-148 53 0
-148 -54 0
-148 55 0
-148 -56 0
-148 -57 0
-148 -58 0
-148 -59 0
-148 -60 0
-148 -61 0
-148 -62 0
-148 -63 0
-148 -64 0
-149 -33 0
-149 -34 0
-149 -35 0
-149 -36 0
-149 -37 0
-149 -38 0
-149 -39 0
-149 -40 0
-149 -41 0
-149 -42 0
-149 -43 0
-149 -44 0
-149 -45 0
-149 -46 0
-149 -47 0
-149 -48 0
-149 -49 0
-149 50 0
-149 -51 0
-149 52 0
-149 -53 0
-149 54 0
-149 -55 0
-149 56 0
-149 -57 0
-149 58 0
-149 -59 0
-149 60 0
-149 -61 0
-149 62 0
-149 -63 0
-149 64 0
-150 -33 0
-150 34 0
-150 -35 0
-150 36 0
-150 -37 0
-150 38 0
-150 -39 0
-150 40 0
-150 -41 0
-150 42 0
-150 -43 0
-150 44 0
-150 -45 0
-150 46 0
-150 -47 0
-150 48 0
-150 -49 0
-150 -50 0
-150 -51 0
-150 -52 0
-150 -53 0
-150 -54 0
-150 -55 0
-150 -56 0
-150 -57 0
-150 -58 0
-150 -59 0
-150 -60 0
-150 -61 0
-150 -62 0
-150 -63 0
-150 -64 0
-151 -33 0
-151 -34 0
-151 -35 0
-151 -36 0
-151 -37 0
-151 -38 0
-151 -39 0
-151 -40 0
-151 -41 0
-151 -42 0
-151 -43 0
-151 -44 0
-151 -45 0
-151 -46 0
-151 -47 0
-151 -48 0
-151 49 0
-151 -50 0
-151 51 0
-151 -52 0
-151 53 0
-151 -54 0
-151 55 0
-151 -56 0
-151 57 0
-151 -58 0
-151 59 0
-151 -60 0
-151 61 0
-151 -62 0
-151 63 0
-151 -64 0
-152 33 0
-152 -34 0
-152 35 0
-152 -36 0
-152 37 0
-152 -38 0
-152 39 0
-152 -40 0
-152 41 0
-152 -42 0
-152 43 0
-152 -44 0
-152 45 0
-152 -46 0
-152 47 0
-152 -48 0
-152 -49 0
-152 -50 0
-152 -51 0
-152 -52 0
-152 -53 0
-152 -54 0
-152 -55 0
-152 -56 0
-152 -57 0
-152 -58 0
-152 -59 0
-152 -60 0
-152 -61 0
-152 -62 0
-152 -63 0
-152 -64 0
-153 -33 0
-153 -34 2 0
-153 34 -2 0
-153 -35 0
-153 -36 4 0
-153 36 -4 0
-153 -37 0
-153 -38 6 0
-153 38 -6 0
-153 -39 0
-153 -40 8 0
-153 40 -8 0
-153 -41 0
-153 -42 10 0
-153 42 -10 0
-153 -43 0
-153 -44 12 0
-153 44 -12 0
-153 -45 0
-153 -46 14 0
-153 46 -14 0
-153 -47 0
-153 -48 16 0
-153 48 -16 0
-153 -49 0
-153 -50 18 0
-153 50 -18 0
-153 -51 0
-153 -52 20 0
-153 52 -20 0
-153 -53 0
-153 -54 22 0
-153 54 -22 0
-153 -55 0
-153 -56 24 0
-153 56 -24 0
-153 -57 0
-153 -58 26 0
-153 58 -26 0
-153 -59 0
-153 -60 28 0
-153 60 -28 0
-153 -61 0
-153 -62 30 0
-153 62 -30 0
-153 -63 0
-153 -64 32 0
-153 64 -32 0
-154 -33 0
-154 -34 -2 0
-154 34 2 0
-154 -35 0
-154 -36 -4 0
-154 36 4 0
-154 -37 0
-154 -38 -6 0
-154 38 6 0
-154 -39 0
-154 -40 -8 0
-154 40 8 0
-154 -41 0
-154 -42 -10 0
-154 42 10 0
-154 -43 0
-154 -44 -12 0
-154 44 12 0
-154 -45 0
-154 -46 -14 0
-154 46 14 0
-154 -47 0
-154 -48 -16 0
-154 48 16 0
-154 -49 0
-154 -50 -18 0
-154 50 18 0
-154 -51 0
-154 -52 -20 0
-154 52 20 0
-154 -53 0
-154 -54 -22 0
-154 54 22 0
-154 -55 0
-154 -56 -24 0
-154 56 24 0
-154 -57 0
-154 -58 -26 0
-154 58 26 0
-154 -59 0
-154 -60 -28 0
-154 60 28 0
-154 -61 0
-154 -62 -30 0
-154 62 30 0
-154 -63 0
-154 -64 -32 0
-154 64 32 0
-155 -33 1 0
-155 33 -1 0
-155 -34 0
-155 -35 3 0
-155 35 -3 0
-155 -36 0
-155 -37 5 0
-155 37 -5 0
-155 -38 0
-155 -39 7 0
-155 39 -7 0
-155 -40 0
-155 -41 9 0
-155 41 -9 0
-155 -42 0
-155 -43 11 0
-155 43 -11 0
-155 -44 0
-155 -45 13 0
-155 45 -13 0
-155 -46 0
-155 -47 15 0
-155 47 -15 0
-155 -48 0
-155 -49 17 0
-155 49 -17 0
-155 -50 0
-155 -51 19 0
-155 51 -19 0
-155 -52 0
-155 -53 21 0
-155 53 -21 0
-155 -54 0
-155 -55 23 0
-155 55 -23 0
-155 -56 0
-155 -57 25 0
-155 57 -25 0
-155 -58 0
-155 -59 27 0
-155 59 -27 0
-155 -60 0
-155 -61 29 0
-155 61 -29 0
-155 -62 0
-155 -63 31 0
-155 63 -31 0
-155 -64 0
-156 -33 -1 0
-156 33 1 0
-156 -34 0
-156 -35 -3 0
-156 35 3 0
-156 -36 0
-156 -37 -5 0
-156 37 5 0
-156 -38 0
-156 -39 -7 0
-156 39 7 0
-156 -40 0
-156 -41 -9 0
-156 41 9 0
-156 -42 0
-156 -43 -11 0
-156 43 11 0
-156 -44 0
-156 -45 -13 0
-156 45 13 0
-156 -46 0
-156 -47 -15 0
-156 47 15 0
-156 -48 0
-156 -49 -17 0
-156 49 17 0
-156 -50 0
-156 -51 -19 0
-156 51 19 0
-156 -52 0
-156 -53 -21 0
-156 53 21 0
-156 -54 0
-156 -55 -23 0
-156 55 23 0
-156 -56 0
-156 -57 -25 0
-156 57 25 0
-156 -58 0
-156 -59 -27 0
-156 59 27 0
-156 -60 0
-156 -61 -29 0
-156 61 29 0
-156 -62 0
-156 -63 -31 0
-156 63 31 0
-156 -64 0
-157 -33 0
-157 -34 0
-157 -35 0
-157 -36 0
-157 -37 0
-157 -38 0
-157 39 0
-157 40 0
-157 -41 0
-157 -42 0
-157 -43 0
-157 -44 0
-157 -45 0
-157 -46 0
-157 47 0
-157 48 0
-157 -49 0
-157 -50 0
-157 -51 0
-157 -52 0
-157 -53 0
-157 -54 0
-157 55 0
-157 56 0
-157 -57 0
-157 -58 0
-157 -59 0
-157 -60 0
-157 -61 0
-157 -62 0
-157 63 0
-157 64 0
-158 -33 0
-158 -34 0
-158 35 0
-158 36 0
-158 -37 0
-158 -38 0
-158 -39 0
-158 -40 0
-158 -41 0
-158 -42 0
-158 43 0
-158 44 0
-158 -45 0
-158 -46 0
-158 -47 0
-158 -48 0
-158 -49 0
-158 -50 0
-158 51 0
-158 52 0
-158 -53 0
-158 -54 0
-158 -55 0
-158 -56 0
-158 -57 0
-158 -58 0
-158 59 0
-158 60 0
-158 -61 0
-158 -62 0
-158 -63 0
-158 -64 0
-159 -33 0
-159 -34 0
-159 -35 0
-159 -36 0
-159 37 0
-159 38 0
-159 -39 0
-159 -40 0
-159 -41 0
-159 -42 0
-159 -43 0
-159 -44 0
-159 45 0
-159 46 0
-159 -47 0
-159 -48 0
-159 -49 0
-159 -50 0
-159 -51 0
-159 -52 0
-159 53 0
-159 54 0
-159 -55 0
-159 -56 0
-159 -57 0
-159 -58 0
-159 -59 0
-159 -60 0
-159 61 0
-159 62 0
-159 -63 0
-159 -64 0
-160 33 0
-160 34 0
-160 -35 0
-160 -36 0
-160 -37 0
-160 -38 0
-160 -39 0
-160 -40 0
-160 41 0
-160 42 0
-160 -43 0
-160 -44 0
-160 -45 0
-160 -46 0
-160 -47 0
-160 -48 0
-160 49 0
-160 50 0
-160 -51 0
-160 -52 0
-160 -53 0
-160 -54 0
-160 -55 0
-160 -56 0
-160 57 0
-160 58 0
-160 -59 0
-160 -60 0
-160 -61 0
-160 -62 0
-160 -63 0
-160 -64 0
-161 -33 0
-161 -34 0
-161 -35 0
-161 -36 0
-161 -37 0
-161 -38 0
-161 -39 0
-161 -40 0
-161 -41 0
-161 -42 0
-161 43 0
-161 44 0
-161 -45 0
-161 -46 0
-161 47 0
-161 48 0
-161 -49 0
-161 -50 0
-161 -51 0
-161 -52 0
-161 -53 0
-161 -54 0
-161 -55 0
-161 -56 0
-161 -57 0
-161 -58 0
-161 59 0
-161 60 0
-161 -61 0
-161 -62 0
-161 63 0
-161 64 0
-162 -33 0
-162 -34 0
-162 35 0
-162 36 0
-162 -37 0
-162 -38 0
-162 39 0
-162 40 0
-162 -41 0
-162 -42 0
-162 -43 0
-162 -44 0
-162 -45 0
-162 -46 0
-162 -47 0
-162 -48 0
-162 -49 0
-162 -50 0
-162 51 0
-162 52 0
-162 -53 0
-162 -54 0
-162 55 0
-162 56 0
-162 -57 0
-162 -58 0
-162 -59 0
-162 -60 0
-162 -61 0
-162 -62 0
-162 -63 0
-162 -64 0
-163 -33 0
-163 -34 0
-163 -35 0
-163 -36 0
-163 -37 0
-163 -38 0
-163 -39 0
-163 -40 0
-163 41 0
-163 42 0
-163 -43 0
-163 -44 0
-163 45 0
-163 46 0
-163 -47 0
-163 -48 0
-163 -49 0
-163 -50 0
-163 -51 0
-163 -52 0
-163 -53 0
-163 -54 0
-163 -55 0
-163 -56 0
-163 57 0
-163 58 0
-163 -59 0
-163 -60 0
-163 61 0
-163 62 0
-163 -63 0
-163 -64 0
-164 33 0
-164 34 0
-164 -35 0
-164 -36 0
-164 37 0
-164 38 0
-164 -39 0
-164 -40 0
-164 -41 0
-164 -42 0
-164 -43 0
-164 -44 0
-164 -45 0
-164 -46 0
-164 -47 0
-164 -48 0
-164 49 0
-164 50 0
-164 -51 0
-164 -52 0
-164 53 0
-164 54 0
-164 -55 0
-164 -56 0
-164 -57 0
-164 -58 0
-164 -59 0
-164 -60 0
-164 -61 0
-164 -62 0
-164 -63 0
-164 -64 0
-165 -33 0
-165 -34 0
-165 -35 0
-165 -36 0
-165 -37 0
-165 -38 0
-165 -39 0
-165 -40 0
-165 -41 0
-165 -42 0
-165 -43 0
-165 -44 0
-165 -45 0
-165 -46 0
-165 -47 0
-165 -48 0
-165 -49 0
-165 -50 0
-165 51 0
-165 52 0
-165 -53 0
-165 -54 0
-165 55 0
-165 56 0
-165 -57 0
-165 -58 0
-165 59 0
-165 60 0
-165 -61 0
-165 -62 0
-165 63 0
-165 64 0
-166 -33 0
-166 -34 0
-166 35 0
-166 36 0
-166 -37 0
-166 -38 0
-166 39 0
-166 40 0
-166 -41 0
-166 -42 0
-166 43 0
-166 44 0
-166 -45 0
-166 -46 0
-166 47 0
-166 48 0
-166 -49 0
-166 -50 0
-166 -51 0
-166 -52 0
-166 -53 0
-166 -54 0
-166 -55 0
-166 -56 0
-166 -57 0
-166 -58 0
-166 -59 0
-166 -60 0
-166 -61 0
-166 -62 0
-166 -63 0
-166 -64 0
-167 -33 0
-167 -34 0
-167 -35 0
-167 -36 0
-167 -37 0
-167 -38 0
-167 -39 0
-167 -40 0
-167 -41 0
-167 -42 0
-167 -43 0
-167 -44 0
-167 -45 0
-167 -46 0
-167 -47 0
-167 -48 0
-167 49 0
-167 50 0
-167 -51 0
-167 -52 0
-167 53 0
-167 54 0
-167 -55 0
-167 -56 0
-167 57 0
-167 58 0
-167 -59 0
-167 -60 0
-167 61 0
-167 62 0
-167 -63 0
-167 -64 0
-168 33 0
-168 34 0
-168 -35 0
-168 -36 0
-168 37 0
-168 38 0
-168 -39 0
-168 -40 0
-168 41 0
-168 42 0
-168 -43 0
-168 -44 0
-168 45 0
-168 46 0
-168 -47 0
-168 -48 0
-168 -49 0
-168 -50 0
-168 -51 0
-168 -52 0
-168 -53 0
-168 -54 0
-168 -55 0
-168 -56 0
-168 -57 0
-168 -58 0
-168 -59 0
-168 -60 0
-168 -61 0
-168 -62 0
-168 -63 0
-168 -64 0
-169 -33 0
-169 -34 0
-169 -35 3 0
-169 35 -3 0
-169 -36 4 0
-169 36 -4 0
-169 -37 0
-169 -38 0
-169 -39 7 0
-169 39 -7 0
-169 -40 8 0
-169 40 -8 0
-169 -41 0
-169 -42 0
-169 -43 11 0
-169 43 -11 0
-169 -44 12 0
-169 44 -12 0
-169 -45 0
-169 -46 0
-169 -47 15 0
-169 47 -15 0
-169 -48 16 0
-169 48 -16 0
-169 -49 0
-169 -50 0
-169 -51 19 0
-169 51 -19 0
-169 -52 20 0
-169 52 -20 0
-169 -53 0
-169 -54 0
-169 -55 23 0
-169 55 -23 0
-169 -56 24 0
-169 56 -24 0
-169 -57 0
-169 -58 0
-169 -59 27 0
-169 59 -27 0
-169 -60 28 0
-169 60 -28 0
-169 -61 0
-169 -62 0
-169 -63 31 0
-169 63 -31 0
-169 -64 32 0
-169 64 -32 0
-170 -33 0
-170 -34 0
-170 -35 -3 0
-170 35 3 0
-170 -36 -4 0
-170 36 4 0
-170 -37 0
-170 -38 0
-170 -39 -7 0
-170 39 7 0
-170 -40 -8 0
-170 40 8 0
-170 -41 0
-170 -42 0
-170 -43 -11 0
-170 43 11 0
-170 -44 -12 0
-170 44 12 0
-170 -45 0
-170 -46 0
-170 -47 -15 0
-170 47 15 0
-170 -48 -16 0
-170 48 16 0
-170 -49 0
-170 -50 0
-170 -51 -19 0
-170 51 19 0
-170 -52 -20 0
-170 52 20 0
-170 -53 0
-170 -54 0
-170 -55 -23 0
-170 55 23 0
-170 -56 -24 0
-170 56 24 0
-170 -57 0
-170 -58 0
-170 -59 -27 0
-170 59 27 0
-170 -60 -28 0
-170 60 28 0
-170 -61 0
-170 -62 0
-170 -63 -31 0
-170 63 31 0
-170 -64 -32 0
-170 64 32 0
-171 -33 1 0
-171 33 -1 0
-171 -34 2 0
-171 34 -2 0
-171 -35 0
-171 -36 0
-171 -37 5 0
-171 37 -5 0
-171 -38 6 0
-171 38 -6 0
-171 -39 0
-171 -40 0
-171 -41 9 0
-171 41 -9 0
-171 -42 10 0
-171 42 -10 0
-171 -43 0
-171 -44 0
-171 -45 13 0
-171 45 -13 0
-171 -46 14 0
-171 46 -14 0
-171 -47 0
-171 -48 0
-171 -49 17 0
-171 49 -17 0
-171 -50 18 0
-171 50 -18 0
-171 -51 0
-171 -52 0
-171 -53 21 0
-171 53 -21 0
-171 -54 22 0
-171 54 -22 0
-171 -55 0
-171 -56 0
-171 -57 25 0
-171 57 -25 0
-171 -58 26 0
-171 58 -26 0
-171 -59 0
-171 -60 0
-171 -61 29 0
-171 61 -29 0
-171 -62 30 0
-171 62 -30 0
-171 -63 0
-171 -64 0
-172 -33 -1 0
-172 33 1 0
-172 -34 -2 0
-172 34 2 0
-172 -35 0
-172 -36 0
-172 -37 -5 0
-172 37 5 0
-172 -38 -6 0
-172 38 6 0
-172 -39 0
-172 -40 0
-172 -41 -9 0
-172 41 9 0
-172 -42 -10 0
-172 42 10 0
-172 -43 0
-172 -44 0
-172 -45 -13 0
-172 45 13 0
-172 -46 -14 0
-172 46 14 0
-172 -47 0
-172 -48 0
-172 -49 -17 0
-172 49 17 0
-172 -50 -18 0
-172 50 18 0
-172 -51 0
-172 -52 0
-172 -53 -21 0
-172 53 21 0
-172 -54 -22 0
-172 54 22 0
-172 -55 0
-172 -56 0
-172 -57 -25 0
-172 57 25 0
-172 -58 -26 0
-172 58 26 0
-172 -59 0
-172 -60 0
-172 -61 -29 0
-172 61 29 0
-172 -62 -30 0
-172 62 30 0
-172 -63 0
-172 -64 0
-173 -33 0
-173 -34 0
-173 -35 0
-173 -36 0
-173 -37 0
-173 -38 0
-173 -39 0
-173 -40 0
-173 -41 0
-173 -42 0
-173 -43 0
-173 -44 0
-173 45 0
-173 46 0
-173 47 0
-173 48 0
-173 -49 0
-173 -50 0
-173 -51 0
-173 -52 0
-173 -53 0
-173 -54 0
-173 -55 0
-173 -56 0
-173 -57 0
-173 -58 0
-173 -59 0
-173 -60 0
-173 61 0
-173 62 0
-173 63 0
-173 64 0
-174 -33 0
-174 -34 0
-174 -35 0
-174 -36 0
-174 37 0
-174 38 0
-174 39 0
-174 40 0
-174 -41 0
-174 -42 0
-174 -43 0
-174 -44 0
-174 -45 0
-174 -46 0
-174 -47 0
-174 -48 0
-174 -49 0
-174 -50 0
-174 -51 0
-174 -52 0
-174 53 0
-174 54 0
-174 55 0
-174 56 0
-174 -57 0
-174 -58 0
-174 -59 0
-174 -60 0
-174 -61 0
-174 -62 0
-174 -63 0
-174 -64 0
-175 -33 0
-175 -34 0
-175 -35 0
-175 -36 0
-175 -37 0
-175 -38 0
-175 -39 0
-175 -40 0
-175 41 0
-175 42 0
-175 43 0
-175 44 0
-175 -45 0
-175 -46 0
-175 -47 0
-175 -48 0
-175 -49 0
-175 -50 0
-175 -51 0
-175 -52 0
-175 -53 0
-175 -54 0
-175 -55 0
-175 -56 0
-175 57 0
-175 58 0
-175 59 0
-175 60 0
-175 -61 0
-175 -62 0
-175 -63 0
-175 -64 0
-176 33 0
-176 34 0
-176 35 0
-176 36 0
-176 -37 0
-176 -38 0
-176 -39 0
-176 -40 0
-176 -41 0
-176 -42 0
-176 -43 0
-176 -44 0
-176 -45 0
-176 -46 0
-176 -47 0
-176 -48 0
-176 49 0
-176 50 0
-176 51 0
-176 52 0
-176 -53 0
-176 -54 0
-176 -55 0
-176 -56 0
-176 -57 0
-176 -58 0
-176 -59 0
-176 -60 0
-176 -61 0
-176 -62 0
-176 -63 0
-176 -64 0
-177 -33 0
-177 -34 0
-177 -35 0
-177 -36 0
-177 -37 0
-177 -38 0
-177 -39 0
-177 -40 0
-177 -41 0
-177 -42 0
-177 -43 0
-177 -44 0
-177 -45 0
-177 -46 0
-177 -47 0
-177 -48 0
-177 -49 0
-177 -50 0
-177 -51 0
-177 -52 0
-177 53 0
-177 54 0
-177 55 0
-177 56 0
-177 -57 0
-177 -58 0
-177 -59 0
-177 -60 0
-177 61 0
-177 62 0
-177 63 0
-177 64 0
-178 -33 0
-178 -34 0
-178 -35 0
-178 -36 0
-178 37 0
-178 38 0
-178 39 0
-178 40 0
-178 -41 0
-178 -42 0
-178 -43 0
-178 -44 0
-178 45 0
-178 46 0
-178 47 0
-178 48 0
-178 -49 0
-178 -50 0
-178 -51 0
-178 -52 0
-178 -53 0
-178 -54 0
-178 -55 0
-178 -56 0
-178 -57 0
-178 -58 0
-178 -59 0
-178 -60 0
-178 -61 0
-178 -62 0
-178 -63 0
-178 -64 0
-179 -33 0
-179 -34 0
-179 -35 0
-179 -36 0
-179 -37 0
-179 -38 0
-179 -39 0
-179 -40 0
-179 -41 0
-179 -42 0
-179 -43 0
-179 -44 0
-179 -45 0
-179 -46 0
-179 -47 0
-179 -48 0
-179 49 0
-179 50 0
-179 51 0
-179 52 0
-179 -53 0
-179 -54 0
-179 -55 0
-179 -56 0
-179 57 0
-179 58 0
-179 59 0
-179 60 0
-179 -61 0
-179 -62 0
-179 -63 0
-179 -64 0
-180 33 0
-180 34 0
-180 35 0
-180 36 0
-180 -37 0
-180 -38 0
-180 -39 0
-180 -40 0
-180 41 0
-180 42 0
-180 43 0
-180 44 0
-180 -45 0
-180 -46 0
-180 -47 0
-180 -48 0
-180 -49 0
-180 -50 0
-180 -51 0
-180 -52 0
-180 -53 0
-180 -54 0
-180 -55 0
-180 -56 0
-180 -57 0
-180 -58 0
-180 -59 0
-180 -60 0
-180 -61 0
-180 -62 0
-180 -63 0
-180 -64 0
-181 -33 0
-181 -34 0
-181 -35 0
-181 -36 0
-181 -37 5 0
-181 37 -5 0
-181 -38 6 0
-181 38 -6 0
-181 -39 7 0
-181 39 -7 0
-181 -40 8 0
-181 40 -8 0
-181 -41 0
-181 -42 0
-181 -43 0
-181 -44 0
-181 -45 13 0
-181 45 -13 0
-181 -46 14 0
-181 46 -14 0
-181 -47 15 0
-181 47 -15 0
-181 -48 16 0
-181 48 -16 0
-181 -49 0
-181 -50 0
-181 -51 0
-181 -52 0
-181 -53 21 0
-181 53 -21 0
-181 -54 22 0
-181 54 -22 0
-181 -55 23 0
-181 55 -23 0
-181 -56 24 0
-181 56 -24 0
-181 -57 0
-181 -58 0
-181 -59 0
-181 -60 0
-181 -61 29 0
-181 61 -29 0
-181 -62 30 0
-181 62 -30 0
-181 -63 31 0
-181 63 -31 0
-181 -64 32 0
-181 64 -32 0
-182 -33 0
-182 -34 0
-182 -35 0
-182 -36 0
-182 -37 -5 0
-182 37 5 0
-182 -38 -6 0
-182 38 6 0
-182 -39 -7 0
-182 39 7 0
-182 -40 -8 0
-182 40 8 0
-182 -41 0
-182 -42 0
-182 -43 0
-182 -44 0
-182 -45 -13 0
-182 45 13 0
-182 -46 -14 0
-182 46 14 0
-182 -47 -15 0
-182 47 15 0
-182 -48 -16 0
-182 48 16 0
-182 -49 0
-182 -50 0
-182 -51 0
-182 -52 0
-182 -53 -21 0
-182 53 21 0
-182 -54 -22 0
-182 54 22 0
-182 -55 -23 0
-182 55 23 0
-182 -56 -24 0
-182 56 24 0
-182 -57 0
-182 -58 0
-182 -59 0
-182 -60 0
-182 -61 -29 0
-182 61 29 0
-182 -62 -30 0
-182 62 30 0
-182 -63 -31 0
-182 63 31 0
-182 -64 -32 0
-182 64 32 0
-183 -33 1 0
-183 33 -1 0
-183 -34 2 0
-183 34 -2 0
-183 -35 3 0
-183 35 -3 0
-183 -36 4 0
-183 36 -4 0
-183 -37 0
-183 -38 0
-183 -39 0
-183 -40 0
-183 -41 9 0
-183 41 -9 0
-183 -42 10 0
-183 42 -10 0
-183 -43 11 0
-183 43 -11 0
-183 -44 12 0
-183 44 -12 0
-183 -45 0
-183 -46 0
-183 -47 0
-183 -48 0
-183 -49 17 0
-183 49 -17 0
-183 -50 18 0
-183 50 -18 0
-183 -51 19 0
-183 51 -19 0
-183 -52 20 0
-183 52 -20 0
-183 -53 0
-183 -54 0
-183 -55 0
-183 -56 0
-183 -57 25 0
-183 57 -25 0
-183 -58 26 0
-183 58 -26 0
-183 -59 27 0
-183 59 -27 0
-183 -60 28 0
-183 60 -28 0
-183 -61 0
-183 -62 0
-183 -63 0
-183 -64 0
-184 -33 -1 0
-184 33 1 0
-184 -34 -2 0
-184 34 2 0
-184 -35 -3 0
-184 35 3 0
-184 -36 -4 0
-184 36 4 0
-184 -37 0
-184 -38 0
-184 -39 0
-184 -40 0
-184 -41 -9 0
-184 41 9 0
-184 -42 -10 0
-184 42 10 0
-184 -43 -11 0
-184 43 11 0
-184 -44 -12 0
-184 44 12 0
-184 -45 0
-184 -46 0
-184 -47 0
-184 -48 0
-184 -49 -17 0
-184 49 17 0
-184 -50 -18 0
-184 50 18 0
-184 -51 -19 0
-184 51 19 0
-184 -52 -20 0
-184 52 20 0
-184 -53 0
-184 -54 0
-184 -55 0
-184 -56 0
-184 -57 -25 0
-184 57 25 0
-184 -58 -26 0
-184 58 26 0
-184 -59 -27 0
-184 59 27 0
-184 -60 -28 0
-184 60 28 0
-184 -61 0
-184 -62 0
-184 -63 0
-184 -64 0
-185 -33 0
-185 -34 0
-185 -35 0
-185 -36 0
-185 -37 0
-185 -38 0
-185 -39 0
-185 -40 0
-185 -41 0
-185 -42 0
-185 -43 0
-185 -44 0
-185 -45 0
-185 -46 0
-185 -47 0
-185 -48 0
-185 -49 0
-185 -50 0
-185 -51 0
-185 -52 0
-185 -53 0
-185 -54 0
-185 -55 0
-185 -56 0
-185 57 0
-185 58 0
-185 59 0
-185 60 0
-185 61 0
-185 62 0
-185 63 0
-185 64 0
-186 -33 0
-186 -34 0
-186 -35 0
-186 -36 0
-186 -37 0
-186 -38 0
-186 -39 0
-186 -40 0
-186 41 0
-186 42 0
-186 43 0
-186 44 0
-186 45 0
-186 46 0
-186 47 0
-186 48 0
-186 -49 0
-186 -50 0
-186 -51 0
-186 -52 0
-186 -53 0
-186 -54 0
-186 -55 0
-186 -56 0
-186 -57 0
-186 -58 0
-186 -59 0
-186 -60 0
-186 -61 0
-186 -62 0
-186 -63 0
-186 -64 0
-187 -33 0
-187 -34 0
-187 -35 0
-187 -36 0
-187 -37 0
-187 -38 0
-187 -39 0
-187 -40 0
-187 -41 0
-187 -42 0
-187 -43 0
-187 -44 0
-187 -45 0
-187 -46 0
-187 -47 0
-187 -48 0
-187 49 0
-187 50 0
-187 51 0
-187 52 0
-187 53 0
-187 54 0
-187 55 0
-187 56 0
-187 -57 0
-187 -58 0
-187 -59 0
-187 -60 0
-187 -61 0
-187 -62 0
-187 -63 0
-187 -64 0
-188 33 0
-188 34 0
-188 35 0
-188 36 0
-188 37 0
-188 38 0
-188 39 0
-188 40 0
-188 -41 0
-188 -42 0
-188 -43 0
-188 -44 0
-188 -45 0
-188 -46 0
-188 -47 0
-188 -48 0
-188 -49 0
-188 -50 0
-188 -51 0
-188 -52 0
-188 -53 0
-188 -54 0
-188 -55 0
-188 -56 0
-188 -57 0
-188 -58 0
-188 -59 0
-188 -60 0
-188 -61 0
-188 -62 0
-188 -63 0
-188 -64 0
-189 -33 0
-189 -34 0
-189 -35 0
-189 -36 0
-189 -37 0
-189 -38 0
-189 -39 0
-189 -40 0
-189 -41 9 0
-189 41 -9 0
-189 -42 10 0
-189 42 -10 0
-189 -43 11 0
-189 43 -11 0
-189 -44 12 0
-189 44 -12 0
-189 -45 13 0
-189 45 -13 0
-189 -46 14 0
-189 46 -14 0
-189 -47 15 0
-189 47 -15 0
-189 -48 16 0
-189 48 -16 0
-189 -49 0
-189 -50 0
-189 -51 0
-189 -52 0
-189 -53 0
-189 -54 0
-189 -55 0
-189 -56 0
-189 -57 25 0
-189 57 -25 0
-189 -58 26 0
-189 58 -26 0
-189 -59 27 0
-189 59 -27 0
-189 -60 28 0
-189 60 -28 0
-189 -61 29 0
-189 61 -29 0
-189 -62 30 0
-189 62 -30 0
-189 -63 31 0
-189 63 -31 0
-189 -64 32 0
-189 64 -32 0
-190 -33 0
-190 -34 0
-190 -35 0
-190 -36 0
-190 -37 0
-190 -38 0
-190 -39 0
-190 -40 0
-190 -41 -9 0
-190 41 9 0
-190 -42 -10 0
-190 42 10 0
-190 -43 -11 0
-190 43 11 0
-190 -44 -12 0
-190 44 12 0
-190 -45 -13 0
-190 45 13 0
-190 -46 -14 0
-190 46 14 0
-190 -47 -15 0
-190 47 15 0
-190 -48 -16 0
-190 48 16 0
-190 -49 0
-190 -50 0
-190 -51 0
-190 -52 0
-190 -53 0
-190 -54 0
-190 -55 0
-190 -56 0
-190 -57 -25 0
-190 57 25 0
-190 -58 -26 0
-190 58 26 0
-190 -59 -27 0
-190 59 27 0
-190 -60 -28 0
-190 60 28 0
-190 -61 -29 0
-190 61 29 0
-190 -62 -30 0
-190 62 30 0
-190 -63 -31 0
-190 63 31 0
-190 -64 -32 0
-190 64 32 0
-191 -33 1 0
-191 33 -1 0
-191 -34 2 0
-191 34 -2 0
-191 -35 3 0
-191 35 -3 0
-191 -36 4 0
-191 36 -4 0
-191 -37 5 0
-191 37 -5 0
-191 -38 6 0
-191 38 -6 0
-191 -39 7 0
-191 39 -7 0
-191 -40 8 0
-191 40 -8 0
-191 -41 0
-191 -42 0
-191 -43 0
-191 -44 0
-191 -45 0
-191 -46 0
-191 -47 0
-191 -48 0
-191 -49 17 0
-191 49 -17 0
-191 -50 18 0
-191 50 -18 0
-191 -51 19 0
-191 51 -19 0
-191 -52 20 0
-191 52 -20 0
-191 -53 21 0
-191 53 -21 0
-191 -54 22 0
-191 54 -22 0
-191 -55 23 0
-191 55 -23 0
-191 -56 24 0
-191 56 -24 0
-191 -57 0
-191 -58 0
-191 -59 0
-191 -60 0
-191 -61 0
-191 -62 0
-191 -63 0
-191 -64 0
-192 -33 -1 0
-192 33 1 0
-192 -34 -2 0
-192 34 2 0
-192 -35 -3 0
-192 35 3 0
-192 -36 -4 0
-192 36 4 0
-192 -37 -5 0
-192 37 5 0
-192 -38 -6 0
-192 38 6 0
-192 -39 -7 0
-192 39 7 0
-192 -40 -8 0
-192 40 8 0
-192 -41 0
-192 -42 0
-192 -43 0
-192 -44 0
-192 -45 0
-192 -46 0
-192 -47 0
-192 -48 0
-192 -49 -17 0
-192 49 17 0
-192 -50 -18 0
-192 50 18 0
-192 -51 -19 0
-192 51 19 0
-192 -52 -20 0
-192 52 20 0
-192 -53 -21 0
-192 53 21 0
-192 -54 -22 0
-192 54 22 0
-192 -55 -23 0
-192 55 23 0
-192 -56 -24 0
-192 56 24 0
-192 -57 0
-192 -58 0
-192 -59 0
-192 -60 0
-192 -61 0
-192 -62 0
-192 -63 0
-192 -64 0
-193 -33 0
-193 -34 0
-193 -35 0
-193 -36 0
-193 -37 0
-193 -38 0
-193 -39 0
-193 -40 0
-193 -41 0
-193 -42 0
-193 -43 0
-193 -44 0
-193 -45 0
-193 -46 0
-193 -47 0
-193 -48 0
-193 -49 17 0
-193 49 -17 0
-193 -50 18 0
-193 50 -18 0
-193 -51 19 0
-193 51 -19 0
-193 -52 20 0
-193 52 -20 0
-193 -53 21 0
-193 53 -21 0
-193 -54 22 0
-193 54 -22 0
-193 -55 23 0
-193 55 -23 0
-193 -56 24 0
-193 56 -24 0
-193 -57 25 0
-193 57 -25 0
-193 -58 26 0
-193 58 -26 0
-193 -59 27 0
-193 59 -27 0
-193 -60 28 0
-193 60 -28 0
-193 -61 29 0
-193 61 -29 0
-193 -62 30 0
-193 62 -30 0
-193 -63 31 0
-193 63 -31 0
-193 -64 32 0
-193 64 -32 0
-194 -33 0
-194 -34 0
-194 -35 0
-194 -36 0
-194 -37 0
-194 -38 0
-194 -39 0
-194 -40 0
-194 -41 0
-194 -42 0
-194 -43 0
-194 -44 0
-194 -45 0
-194 -46 0
-194 -47 0
-194 -48 0
-194 -49 -17 0
-194 49 17 0
-194 -50 -18 0
-194 50 18 0
-194 -51 -19 0
-194 51 19 0
-194 -52 -20 0
-194 52 20 0
-194 -53 -21 0
-194 53 21 0
-194 -54 -22 0
-194 54 22 0
-194 -55 -23 0
-194 55 23 0
-194 -56 -24 0
-194 56 24 0
-194 -57 -25 0
-194 57 25 0
-194 -58 -26 0
-194 58 26 0
-194 -59 -27 0
-194 59 27 0
-194 -60 -28 0
-194 60 28 0
-194 -61 -29 0
-194 61 29 0
-194 -62 -30 0
-194 62 30 0
-194 -63 -31 0
-194 63 31 0
-194 -64 -32 0
-194 64 32 0
-195 -33 1 0
-195 33 -1 0
-195 -34 2 0
-195 34 -2 0
-195 -35 3 0
-195 35 -3 0
-195 -36 4 0
-195 36 -4 0
-195 -37 5 0
-195 37 -5 0
-195 -38 6 0
-195 38 -6 0
-195 -39 7 0
-195 39 -7 0
-195 -40 8 0
-195 40 -8 0
-195 -41 9 0
-195 41 -9 0
-195 -42 10 0
-195 42 -10 0
-195 -43 11 0
-195 43 -11 0
-195 -44 12 0
-195 44 -12 0
-195 -45 13 0
-195 45 -13 0
-195 -46 14 0
-195 46 -14 0
-195 -47 15 0
-195 47 -15 0
-195 -48 16 0
-195 48 -16 0
-195 -49 0
-195 -50 0
-195 -51 0
-195 -52 0
-195 -53 0
-195 -54 0
-195 -55 0
-195 -56 0
-195 -57 0
-195 -58 0
-195 -59 0
-195 -60 0
-195 -61 0
-195 -62 0
-195 -63 0
-195 -64 0
-196 -33 -1 0
-196 33 1 0
-196 -34 -2 0
-196 34 2 0
-196 -35 -3 0
-196 35 3 0
-196 -36 -4 0
-196 36 4 0
-196 -37 -5 0
-196 37 5 0
-196 -38 -6 0
-196 38 6 0
-196 -39 -7 0
-196 39 7 0
-196 -40 -8 0
-196 40 8 0
-196 -41 -9 0
-196 41 9 0
-196 -42 -10 0
-196 42 10 0
-196 -43 -11 0
-196 43 11 0
-196 -44 -12 0
-196 44 12 0
-196 -45 -13 0
-196 45 13 0
-196 -46 -14 0
-196 46 14 0
-196 -47 -15 0
-196 47 15 0
-196 -48 -16 0
-196 48 16 0
-196 -49 0
-196 -50 0
-196 -51 0
-196 -52 0
-196 -53 0
-196 -54 0
-196 -55 0
-196 -56 0
-196 -57 0
-196 -58 0
-196 -59 0
-196 -60 0
-196 -61 0
-196 -62 0
-196 -63 0
-196 -64 0
197 198 199 200 201 202 203 204 205 206 207 208 209 210 211 212 213 214 215 216 217 218 219 220 221 222 223 224 225 226 227 228 229 230 231 232 233 234 235 236 237 238 239 240 241 242 243 244 245 246 247 248 249 250 251 252 253 254 255 256 257 258 259 260 261 262 263 264 265 266 267 268 269 270 271 272 273 274 275 276 277 278 279 280 0
-197 -198 0
-197 -199 0
-197 -200 0
-197 -201 0
-197 -202 0
-197 -203 0
-197 -204 0
-197 -205 0
-197 -206 0
-197 -207 0
-197 -208 0
-197 -209 0
-197 -210 0
-197 -211 0
-197 -212 0
-197 -213 0
-197 -214 0
-197 -215 0
-197 -216 0
-197 -217 0
-197 -218 0
-197 -219 0
-197 -220 0
-197 -221 0
-197 -222 0
-197 -223 0
-197 -224 0
-197 -225 0
-197 -226 0
-197 -227 0
-197 -228 0
-197 -229 0
-197 -230 0
-197 -231 0
-197 -232 0
-197 -233 0
-197 -234 0
-197 -235 0
-197 -236 0
-197 -237 0
-197 -238 0
-197 -239 0
-197 -240 0
-197 -241 0
-197 -242 0
-197 -243 0
-197 -244 0
-197 -245 0
-197 -246 0
-197 -247 0
-197 -248 0
-197 -249 0
-197 -250 0
-197 -251 0
-197 -252 0
-197 -253 0
-197 -254 0
-197 -255 0
-197 -256 0
-197 -257 0
-197 -258 0
-197 -259 0
-197 -260 0
-197 -261 0
-197 -262 0
-197 -263 0
-197 -264 0
-197 -265 0
-197 -266 0
-197 -267 0
-197 -268 0
-197 -269 0
-197 -270 0
-197 -271 0
-197 -272 0
-197 -273 0
-197 -274 0
-197 -275 0
-197 -276 0
-197 -277 0
-197 -278 0
-197 -279 0
-197 -280 0
-198 -199 0
-198 -200 0
-198 -201 0
-198 -202 0
-198 -203 0
-198 -204 0
-198 -205 0
-198 -206 0
-198 -207 0
-198 -208 0
-198 -209 0
-198 -210 0
-198 -211 0
-198 -212 0
-198 -213 0
-198 -214 0
-198 -215 0
-198 -216 0
-198 -217 0
-198 -218 0
-198 -219 0
-198 -220 0
-198 -221 0
-198 -222 0
-198 -223 0
-198 -224 0
-198 -225 0
-198 -226 0
-198 -227 0
-198 -228 0
-198 -229 0
-198 -230 0
-198 -231 0
-198 -232 0
-198 -233 0
-198 -234 0
-198 -235 0
-198 -236 0
-198 -237 0
-198 -238 0
-198 -239 0
-198 -240 0
-198 -241 0
-198 -242 0
-198 -243 0
-198 -244 0
-198 -245 0
-198 -246 0
-198 -247 0
-198 -248 0
-198 -249 0
-198 -250 0
-198 -251 0
-198 -252 0
-198 -253 0
-198 -254 0
-198 -255 0
-198 -256 0
-198 -257 0
-198 -258 0
-198 -259 0
-198 -260 0
-198 -261 0
-198 -262 0
-198 -263 0
-198 -264 0
-198 -265 0
-198 -266 0
-198 -267 0
-198 -268 0
-198 -269 0
-198 -270 0
-198 -271 0
-198 -272 0
-198 -273 0
-198 -274 0
-198 -275 0
-198 -276 0
-198 -277 0
-198 -278 0
-198 -279 0
-198 -280 0
-199 -200 0
-199 -201 0
-199 -202 0
-199 -203 0
-199 -204 0
-199 -205 0
-199 -206 0
-199 -207 0
-199 -208 0
-199 -209 0
-199 -210 0
-199 -211 0
-199 -212 0
-199 -213 0
-199 -214 0
-199 -215 0
-199 -216 0
-199 -217 0
-199 -218 0
-199 -219 0
-199 -220 0
-199 -221 0
-199 -222 0
-199 -223 0
-199 -224 0
-199 -225 0
-199 -226 0
-199 -227 0
-199 -228 0
-199 -229 0
-199 -230 0
-199 -231 0
-199 -232 0
-199 -233 0
-199 -234 0
-199 -235 0
-199 -236 0
-199 -237 0
-199 -238 0
-199 -239 0
-199 -240 0
-199 -241 0
-199 -242 0
-199 -243 0
-199 -244 0
-199 -245 0
-199 -246 0
-199 -247 0
-199 -248 0
-199 -249 0
-199 -250 0
-199 -251 0
-199 -252 0
-199 -253 0
-199 -254 0
-199 -255 0
-199 -256 0
-199 -257 0
-199 -258 0
-199 -259 0
-199 -260 0
-199 -261 0
-199 -262 0
-199 -263 0
-199 -264 0
-199 -265 0
-199 -266 0
-199 -267 0
-199 -268 0
-199 -269 0
-199 -270 0
-199 -271 0
-199 -272 0
-199 -273 0
-199 -274 0
-199 -275 0
-199 -276 0
-199 -277 0
-199 -278 0
-199 -279 0
-199 -280 0
-200 -201 0
-200 -202 0
-200 -203 0
-200 -204 0
-200 -205 0
-200 -206 0
-200 -207 0
-200 -208 0
-200 -209 0
-200 -210 0
-200 -211 0
-200 -212 0
-200 -213 0
-200 -214 0
-200 -215 0
-200 -216 0
-200 -217 0
-200 -218 0
-200 -219 0
-200 -220 0
-200 -221 0
-200 -222 0
-200 -223 0
-200 -224 0
-200 -225 0
-200 -226 0
-200 -227 0
-200 -228 0
-200 -229 0
-200 -230 0
-200 -231 0
-200 -232 0
-200 -233 0
-200 -234 0
-200 -235 0
-200 -236 0
-200 -237 0
-200 -238 0
-200 -239 0
-200 -240 0
-200 -241 0
-200 -242 0
-200 -243 0
-200 -244 0
-200 -245 0
-200 -246 0
-200 -247 0
-200 -248 0
-200 -249 0
-200 -250 0
-200 -251 0
-200 -252 0
-200 -253 0
-200 -254 0
-200 -255 0
-200 -256 0
-200 -257 0
-200 -258 0
-200 -259 0
-200 -260 0
-200 -261 0
-200 -262 0
-200 -263 0
-200 -264 0
-200 -265 0
-200 -266 0
-200 -267 0
-200 -268 0
-200 -269 0
-200 -270 0
-200 -271 0
-200 -272 0
-200 -273 0
-200 -274 0
-200 -275 0
-200 -276 0
-200 -277 0
-200 -278 0
-200 -279 0
-200 -280 0
-201 -202 0
-201 -203 0
-201 -204 0
-201 -205 0
-201 -206 0
-201 -207 0
-201 -208 0
-201 -209 0
-201 -210 0
-201 -211 0
-201 -212 0
-201 -213 0
-201 -214 0
-201 -215 0
-201 -216 0
-201 -217 0
-201 -218 0
-201 -219 0
-201 -220 0
-201 -221 0
-201 -222 0
-201 -223 0
-201 -224 0
-201 -225 0
-201 -226 0
-201 -227 0
-201 -228 0
-201 -229 0
-201 -230 0
-201 -231 0
-201 -232 0
-201 -233 0
-201 -234 0
-201 -235 0
-201 -236 0
-201 -237 0
-201 -238 0
-201 -239 0
-201 -240 0
-201 -241 0
-201 -242 0
-201 -243 0
-201 -244 0
-201 -245 0
-201 -246 0
-201 -247 0
-201 -248 0
-201 -249 0
-201 -250 0
-201 -251 0
-201 -252 0
-201 -253 0
-201 -254 0
-201 -255 0
-201 -256 0
-201 -257 0
-201 -258 0
-201 -259 0
-201 -260 0
-201 -261 0
-201 -262 0
-201 -263 0
-201 -264 0
-201 -265 0
-201 -266 0
-201 -267 0
-201 -268 0
-201 -269 0
-201 -270 0
-201 -271 0
-201 -272 0
-201 -273 0
-201 -274 0
-201 -275 0
-201 -276 0
-201 -277 0
-201 -278 0
-201 -279 0
-201 -280 0
-202 -203 0
-202 -204 0
-202 -205 0
-202 -206 0
-202 -207 0
-202 -208 0
-202 -209 0
-202 -210 0
-202 -211 0
-202 -212 0
-202 -213 0
-202 -214 0
-202 -215 0
-202 -216 0
-202 -217 0
-202 -218 0
-202 -219 0
-202 -220 0
-202 -221 0
-202 -222 0
-202 -223 0
-202 -224 0
-202 -225 0
-202 -226 0
-202 -227 0
-202 -228 0
-202 -229 0
-202 -230 0
-202 -231 0
-202 -232 0
-202 -233 0
-202 -234 0
-202 -235 0
-202 -236 0
-202 -237 0
-202 -238 0
-202 -239 0
-202 -240 0
-202 -241 0
-202 -242 0
-202 -243 0
-202 -244 0
-202 -245 0
-202 -246 0
-202 -247 0
-202 -248 0
-202 -249 0
-202 -250 0
-202 -251 0
-202 -252 0
-202 -253 0
-202 -254 0
-202 -255 0
-202 -256 0
-202 -257 0
-202 -258 0
-202 -259 0
-202 -260 0
-202 -261 0
-202 -262 0
-202 -263 0
-202 -264 0
-202 -265 0
-202 -266 0
-202 -267 0
-202 -268 0
-202 -269 0
-202 -270 0
-202 -271 0
-202 -272 0
-202 -273 0
-202 -274 0
-202 -275 0
-202 -276 0
-202 -277 0
-202 -278 0
-202 -279 0
-202 -280 0
-203 -204 0
-203 -205 0
-203 -206 0
-203 -207 0
-203 -208 0
-203 -209 0
-203 -210 0
-203 -211 0
-203 -212 0
-203 -213 0
-203 -214 0
-203 -215 0
-203 -216 0
-203 -217 0
-203 -218 0
-203 -219 0
-203 -220 0
-203 -221 0
-203 -222 0
-203 -223 0
-203 -224 0
-203 -225 0
-203 -226 0
-203 -227 0
-203 -228 0
-203 -229 0
-203 -230 0
-203 -231 0
-203 -232 0
-203 -233 0
-203 -234 0
-203 -235 0
-203 -236 0
-203 -237 0
-203 -238 0
-203 -239 0
-203 -240 0
-203 -241 0
-203 -242 0
-203 -243 0
-203 -244 0
-203 -245 0
-203 -246 0
-203 -247 0
-203 -248 0
-203 -249 0
-203 -250 0
-203 -251 0
-203 -252 0
-203 -253 0
-203 -254 0
-203 -255 0
-203 -256 0
-203 -257 0
-203 -258 0
-203 -259 0
-203 -260 0
-203 -261 0
-203 -262 0
-203 -263 0
-203 -264 0
-203 -265 0
-203 -266 0
-203 -267 0
-203 -268 0
-203 -269 0
-203 -270 0
-203 -271 0
-203 -272 0
-203 -273 0
-203 -274 0
-203 -275 0
-203 -276 0
-203 -277 0
-203 -278 0
-203 -279 0
-203 -280 0
-204 -205 0
-204 -206 0
-204 -207 0
-204 -208 0
-204 -209 0
-204 -210 0
-204 -211 0
-204 -212 0
-204 -213 0
-204 -214 0
-204 -215 0
-204 -216 0
-204 -217 0
-204 -218 0
-204 -219 0
-204 -220 0
-204 -221 0
-204 -222 0
-204 -223 0
-204 -224 0
-204 -225 0
-204 -226 0
-204 -227 0
-204 -228 0
-204 -229 0
-204 -230 0
-204 -231 0
-204 -232 0
-204 -233 0
-204 -234 0
-204 -235 0
-204 -236 0
-204 -237 0
-204 -238 0
-204 -239 0
-204 -240 0
-204 -241 0
-204 -242 0
-204 -243 0
-204 -244 0
-204 -245 0
-204 -246 0
-204 -247 0
-204 -248 0
-204 -249 0
-204 -250 0
-204 -251 0
-204 -252 0
-204 -253 0
-204 -254 0
-204 -255 0
-204 -256 0
-204 -257 0
-204 -258 0
-204 -259 0
-204 -260 0
-204 -261 0
-204 -262 0
-204 -263 0
-204 -264 0
-204 -265 0
-204 -266 0
-204 -267 0
-204 -268 0
-204 -269 0
-204 -270 0
-204 -271 0
-204 -272 0
-204 -273 0
-204 -274 0
-204 -275 0
-204 -276 0
-204 -277 0
-204 -278 0
-204 -279 0
-204 -280 0
-205 -206 0
-205 -207 0
-205 -208 0
-205 -209 0
-205 -210 0
-205 -211 0
-205 -212 0
-205 -213 0
-205 -214 0
-205 -215 0
-205 -216 0
-205 -217 0
-205 -218 0
-205 -219 0
-205 -220 0
-205 -221 0
-205 -222 0
-205 -223 0
-205 -224 0
-205 -225 0
-205 -226 0
-205 -227 0
-205 -228 0
-205 -229 0
-205 -230 0
-205 -231 0
-205 -232 0
-205 -233 0
-205 -234 0
-205 -235 0
-205 -236 0
-205 -237 0
-205 -238 0
-205 -239 0
-205 -240 0
-205 -241 0
-205 -242 0
-205 -243 0
-205 -244 0
-205 -245 0
-205 -246 0
-205 -247 0
-205 -248 0
-205 -249 0
-205 -250 0
-205 -251 0
-205 -252 0
-205 -253 0
-205 -254 0
-205 -255 0
-205 -256 0
-205 -257 0
-205 -258 0
-205 -259 0
-205 -260 0
-205 -261 0
-205 -262 0
-205 -263 0
-205 -264 0
-205 -265 0
-205 -266 0
-205 -267 0
-205 -268 0
-205 -269 0
-205 -270 0
-205 -271 0
-205 -272 0
-205 -273 0
-205 -274 0
-205 -275 0
-205 -276 0
-205 -277 0
-205 -278 0
-205 -279 0
-205 -280 0
-206 -207 0
-206 -208 0
-206 -209 0
-206 -210 0
-206 -211 0
-206 -212 0
-206 -213 0
-206 -214 0
-206 -215 0
-206 -216 0
-206 -217 0
-206 -218 0
-206 -219 0
-206 -220 0
-206 -221 0
-206 -222 0
-206 -223 0
-206 -224 0
-206 -225 0
-206 -226 0
-206 -227 0
-206 -228 0
-206 -229 0
-206 -230 0
-206 -231 0
-206 -232 0
-206 -233 0
-206 -234 0
-206 -235 0
-206 -236 0
-206 -237 0
-206 -238 0
-206 -239 0
-206 -240 0
-206 -241 0
-206 -242 0
-206 -243 0
-206 -244 0
-206 -245 0
-206 -246 0
-206 -247 0
-206 -248 0
-206 -249 0
-206 -250 0
-206 -251 0
-206 -252 0
-206 -253 0
-206 -254 0
-206 -255 0
-206 -256 0
-206 -257 0
-206 -258 0
-206 -259 0
-206 -260 0
-206 -261 0
-206 -262 0
-206 -263 0
-206 -264 0
-206 -265 0
-206 -266 0
-206 -267 0
-206 -268 0
-206 -269 0
-206 -270 0
-206 -271 0
-206 -272 0
-206 -273 0
-206 -274 0
-206 -275 0
-206 -276 0
-206 -277 0
-206 -278 0
-206 -279 0
-206 -280 0
-207 -208 0
-207 -209 0
-207 -210 0
-207 -211 0
-207 -212 0
-207 -213 0
-207 -214 0
-207 -215 0
-207 -216 0
-207 -217 0
-207 -218 0
-207 -219 0
-207 -220 0
-207 -221 0
-207 -222 0
-207 -223 0
-207 -224 0
-207 -225 0
-207 -226 0
-207 -227 0
-207 -228 0
-207 -229 0
-207 -230 0
-207 -231 0
-207 -232 0
-207 -233 0
-207 -234 0
-207 -235 0
-207 -236 0
-207 -237 0
-207 -238 0
-207 -239 0
-207 -240 0
-207 -241 0
-207 -242 0
-207 -243 0
-207 -244 0
-207 -245 0
-207 -246 0
-207 -247 0
-207 -248 0
-207 -249 0
-207 -250 0
-207 -251 0
-207 -252 0
-207 -253 0
-207 -254 0
-207 -255 0
-207 -256 0
-207 -257 0
-207 -258 0
-207 -259 0
-207 -260 0
-207 -261 0
-207 -262 0
-207 -263 0
-207 -264 0
-207 -265 0
-207 -266 0
-207 -267 0
-207 -268 0
-207 -269 0
-207 -270 0
-207 -271 0
-207 -272 0
-207 -273 0
-207 -274 0
-207 -275 0
-207 -276 0
-207 -277 0
-207 -278 0
-207 -279 0
-207 -280 0
-208 -209 0
-208 -210 0
-208 -211 0
-208 -212 0
-208 -213 0
-208 -214 0
-208 -215 0
-208 -216 0
-208 -217 0
-208 -218 0
-208 -219 0
-208 -220 0
-208 -221 0
-208 -222 0
-208 -223 0
-208 -224 0
-208 -225 0
-208 -226 0
-208 -227 0
-208 -228 0
-208 -229 0
-208 -230 0
-208 -231 0
-208 -232 0
-208 -233 0
-208 -234 0
-208 -235 0
-208 -236 0
-208 -237 0
-208 -238 0
-208 -239 0
-208 -240 0
-208 -241 0
-208 -242 0
-208 -243 0
-208 -244 0
-208 -245 0
-208 -246 0
-208 -247 0
-208 -248 0
-208 -249 0
-208 -250 0
-208 -251 0
-208 -252 0
-208 -253 0
-208 -254 0
-208 -255 0
-208 -256 0
-208 -257 0
-208 -258 0
-208 -259 0
-208 -260 0
-208 -261 0
-208 -262 0
-208 -263 0
-208 -264 0
-208 -265 0
-208 -266 0
-208 -267 0
-208 -268 0
-208 -269 0
-208 -270 0
-208 -271 0
-208 -272 0
-208 -273 0
-208 -274 0
-208 -275 0
-208 -276 0
-208 -277 0
-208 -278 0
-208 -279 0
-208 -280 0
-209 -210 0
-209 -211 0
-209 -212 0
-209 -213 0
-209 -214 0
-209 -215 0
-209 -216 0
-209 -217 0
-209 -218 0
-209 -219 0
-209 -220 0
-209 -221 0
-209 -222 0
-209 -223 0
-209 -224 0
-209 -225 0
-209 -226 0
-209 -227 0
-209 -228 0
-209 -229 0
-209 -230 0
-209 -231 0
-209 -232 0
-209 -233 0
-209 -234 0
-209 -235 0
-209 -236 0
-209 -237 0
-209 -238 0
-209 -239 0
-209 -240 0
-209 -241 0
-209 -242 0
-209 -243 0
-209 -244 0
-209 -245 0
-209 -246 0
-209 -247 0
-209 -248 0
-209 -249 0
-209 -250 0
-209 -251 0
-209 -252 0
-209 -253 0
-209 -254 0
-209 -255 0
-209 -256 0
-209 -257 0
-209 -258 0
-209 -259 0
-209 -260 0
-209 -261 0
-209 -262 0
-209 -263 0
-209 -264 0
-209 -265 0
-209 -266 0
-209 -267 0
-209 -268 0
-209 -269 0
-209 -270 0
-209 -271 0
-209 -272 0
-209 -273 0
-209 -274 0
-209 -275 0
-209 -276 0
-209 -277 0
-209 -278 0
-209 -279 0
-209 -280 0
-210 -211 0
-210 -212 0
-210 -213 0
-210 -214 0
-210 -215 0
-210 -216 0
-210 -217 0
-210 -218 0
-210 -219 0
-210 -220 0
-210 -221 0
-210 -222 0
-210 -223 0
-210 -224 0
-210 -225 0
-210 -226 0
-210 -227 0
-210 -228 0
-210 -229 0
-210 -230 0
-210 -231 0
-210 -232 0
-210 -233 0
-210 -234 0
-210 -235 0
-210 -236 0
-210 -237 0
-210 -238 0
-210 -239 0
-210 -240 0
-210 -241 0
-210 -242 0
-210 -243 0
-210 -244 0
-210 -245 0
-210 -246 0
-210 -247 0
-210 -248 0
-210 -249 0
-210 -250 0
-210 -251 0
-210 -252 0
-210 -253 0
-210 -254 0
-210 -255 0
-210 -256 0
-210 -257 0
-210 -258 0
-210 -259 0
-210 -260 0
-210 -261 0
-210 -262 0
-210 -263 0
-210 -264 0
-210 -265 0
-210 -266 0
-210 -267 0
-210 -268 0
-210 -269 0
-210 -270 0
-210 -271 0
-210 -272 0
-210 -273 0
-210 -274 0
-210 -275 0
-210 -276 0
-210 -277 0
-210 -278 0
-210 -279 0
-210 -280 0
-211 -212 0
-211 -213 0
-211 -214 0
-211 -215 0
-211 -216 0
-211 -217 0
-211 -218 0
-211 -219 0
-211 -220 0
-211 -221 0
-211 -222 0
-211 -223 0
-211 -224 0
-211 -225 0
-211 -226 0
-211 -227 0
-211 -228 0
-211 -229 0
-211 -230 0
-211 -231 0
-211 -232 0
-211 -233 0
-211 -234 0
-211 -235 0
-211 -236 0
-211 -237 0
-211 -238 0
-211 -239 0
-211 -240 0
-211 -241 0
-211 -242 0
-211 -243 0
-211 -244 0
-211 -245 0
-211 -246 0
-211 -247 0
-211 -248 0
-211 -249 0
-211 -250 0
-211 -251 0
-211 -252 0
-211 -253 0
-211 -254 0
-211 -255 0
-211 -256 0
-211 -257 0
-211 -258 0
-211 -259 0
-211 -260 0
-211 -261 0
-211 -262 0
-211 -263 0
-211 -264 0
-211 -265 0
-211 -266 0
-211 -267 0
-211 -268 0
-211 -269 0
-211 -270 0
-211 -271 0
-211 -272 0
-211 -273 0
-211 -274 0
-211 -275 0
-211 -276 0
-211 -277 0
-211 -278 0
-211 -279 0
-211 -280 0
-212 -213 0
-212 -214 0
-212 -215 0
-212 -216 0
-212 -217 0
-212 -218 0
-212 -219 0
-212 -220 0
-212 -221 0
-212 -222 0
-212 -223 0
-212 -224 0
-212 -225 0
-212 -226 0
-212 -227 0
-212 -228 0
-212 -229 0
-212 -230 0
-212 -231 0
-212 -232 0
-212 -233 0
-212 -234 0
-212 -235 0
-212 -236 0
-212 -237 0
-212 -238 0
-212 -239 0
-212 -240 0
-212 -241 0
-212 -242 0
-212 -243 0
-212 -244 0
-212 -245 0
-212 -246 0
-212 -247 0
-212 -248 0
-212 -249 0
-212 -250 0
-212 -251 0
-212 -252 0
-212 -253 0
-212 -254 0
-212 -255 0
-212 -256 0
-212 -257 0
-212 -258 0
-212 -259 0
-212 -260 0
-212 -261 0
-212 -262 0
-212 -263 0
-212 -264 0
-212 -265 0
-212 -266 0
-212 -267 0
-212 -268 0
-212 -269 0
-212 -270 0
-212 -271 0
-212 -272 0
-212 -273 0
-212 -274 0
-212 -275 0
-212 -276 0
-212 -277 0
-212 -278 0
-212 -279 0
-212 -280 0
-213 -214 0
-213 -215 0
-213 -216 0
-213 -217 0
-213 -218 0
-213 -219 0
-213 -220 0
-213 -221 0
-213 -222 0
-213 -223 0
-213 -224 0
-213 -225 0
-213 -226 0
-213 -227 0
-213 -228 0
-213 -229 0
-213 -230 0
-213 -231 0
-213 -232 0
-213 -233 0
-213 -234 0
-213 -235 0
-213 -236 0
-213 -237 0
-213 -238 0
-213 -239 0
-213 -240 0
-213 -241 0
-213 -242 0
-213 -243 0
-213 -244 0
-213 -245 0
-213 -246 0
-213 -247 0
-213 -248 0
-213 -249 0
-213 -250 0
-213 -251 0
-213 -252 0
-213 -253 0
-213 -254 0
-213 -255 0
-213 -256 0
-213 -257 0
-213 -258 0
-213 -259 0
-213 -260 0
-213 -261 0
-213 -262 0
-213 -263 0
-213 -264 0
-213 -265 0
-213 -266 0
-213 -267 0
-213 -268 0
-213 -269 0
-213 -270 0
-213 -271 0
-213 -272 0
-213 -273 0
-213 -274 0
-213 -275 0
-213 -276 0
-213 -277 0
-213 -278 0
-213 -279 0
-213 -280 0
-214 -215 0
-214 -216 0
-214 -217 0
-214 -218 0
-214 -219 0
-214 -220 0
-214 -221 0
-214 -222 0
-214 -223 0
-214 -224 0
-214 -225 0
-214 -226 0
-214 -227 0
-214 -228 0
-214 -229 0
-214 -230 0
-214 -231 0
-214 -232 0
-214 -233 0
-214 -234 0
-214 -235 0
-214 -236 0
-214 -237 0
-214 -238 0
-214 -239 0
-214 -240 0
-214 -241 0
-214 -242 0
-214 -243 0
-214 -244 0
-214 -245 0
-214 -246 0
-214 -247 0
-214 -248 0
-214 -249 0
-214 -250 0
-214 -251 0
-214 -252 0
-214 -253 0
-214 -254 0
-214 -255 0
-214 -256 0
-214 -257 0
-214 -258 0
-214 -259 0
-214 -260 0
-214 -261 0
-214 -262 0
-214 -263 0
-214 -264 0
-214 -265 0
-214 -266 0
-214 -267 0
-214 -268 0
-214 -269 0
-214 -270 0
-214 -271 0
-214 -272 0
-214 -273 0
-214 -274 0
-214 -275 0
-214 -276 0
-214 -277 0
-214 -278 0
-214 -279 0
-214 -280 0
-215 -216 0
-215 -217 0
-215 -218 0
-215 -219 0
-215 -220 0
-215 -221 0
-215 -222 0
-215 -223 0
-215 -224 0
-215 -225 0
-215 -226 0
-215 -227 0
-215 -228 0
-215 -229 0
-215 -230 0
-215 -231 0
-215 -232 0
-215 -233 0
-215 -234 0
-215 -235 0
-215 -236 0
-215 -237 0
-215 -238 0
-215 -239 0
-215 -240 0
-215 -241 0
-215 -242 0
-215 -243 0
-215 -244 0
-215 -245 0
-215 -246 0
-215 -247 0
-215 -248 0
-215 -249 0
-215 -250 0
-215 -251 0
-215 -252 0
-215 -253 0
-215 -254 0
-215 -255 0
-215 -256 0
-215 -257 0
-215 -258 0
-215 -259 0
-215 -260 0
-215 -261 0
-215 -262 0
-215 -263 0
-215 -264 0
-215 -265 0
-215 -266 0
-215 -267 0
-215 -268 0
-215 -269 0
-215 -270 0
-215 -271 0
-215 -272 0
-215 -273 0
-215 -274 0
-215 -275 0
-215 -276 0
-215 -277 0
-215 -278 0
-215 -279 0
-215 -280 0
-216 -217 0
-216 -218 0
-216 -219 0
-216 -220 0
-216 -221 0
-216 -222 0
-216 -223 0
-216 -224 0
-216 -225 0
-216 -226 0
-216 -227 0
-216 -228 0
-216 -229 0
-216 -230 0
-216 -231 0
-216 -232 0
-216 -233 0
-216 -234 0
-216 -235 0
-216 -236 0
-216 -237 0
-216 -238 0
-216 -239 0
-216 -240 0
-216 -241 0
-216 -242 0
-216 -243 0
-216 -244 0
-216 -245 0
-216 -246 0
-216 -247 0
-216 -248 0
-216 -249 0
-216 -250 0
-216 -251 0
-216 -252 0
-216 -253 0
-216 -254 0
-216 -255 0
-216 -256 0
-216 -257 0
-216 -258 0
-216 -259 0
-216 -260 0
-216 -261 0
-216 -262 0
-216 -263 0
-216 -264 0
-216 -265 0
-216 -266 0
-216 -267 0
-216 -268 0
-216 -269 0
-216 -270 0
-216 -271 0
-216 -272 0
-216 -273 0
-216 -274 0
-216 -275 0
-216 -276 0
-216 -277 0
-216 -278 0
-216 -279 0
-216 -280 0
-217 -218 0
-217 -219 0
-217 -220 0
-217 -221 0
-217 -222 0
-217 -223 0
-217 -224 0
-217 -225 0
-217 -226 0
-217 -227 0
-217 -228 0
-217 -229 0
-217 -230 0
-217 -231 0
-217 -232 0
-217 -233 0
-217 -234 0
-217 -235 0
-217 -236 0
-217 -237 0
-217 -238 0
-217 -239 0
-217 -240 0
-217 -241 0
-217 -242 0
-217 -243 0
-217 -244 0
-217 -245 0
-217 -246 0
-217 -247 0
-217 -248 0
-217 -249 0
-217 -250 0
-217 -251 0
-217 -252 0
-217 -253 0
-217 -254 0
-217 -255 0
-217 -256 0
-217 -257 0
-217 -258 0
-217 -259 0
-217 -260 0
-217 -261 0
-217 -262 0
-217 -263 0
-217 -264 0
-217 -265 0
-217 -266 0
-217 -267 0
-217 -268 0
-217 -269 0
-217 -270 0
-217 -271 0
-217 -272 0
-217 -273 0
-217 -274 0
-217 -275 0
-217 -276 0
-217 -277 0
-217 -278 0
-217 -279 0
-217 -280 0
-218 -219 0
-218 -220 0
-218 -221 0
-218 -222 0
-218 -223 0
-218 -224 0
-218 -225 0
-218 -226 0
-218 -227 0
-218 -228 0
-218 -229 0
-218 -230 0
-218 -231 0
-218 -232 0
-218 -233 0
-218 -234 0
-218 -235 0
-218 -236 0
-218 -237 0
-218 -238 0
-218 -239 0
-218 -240 0
-218 -241 0
-218 -242 0
-218 -243 0
-218 -244 0
-218 -245 0
-218 -246 0
-218 -247 0
-218 -248 0
-218 -249 0
-218 -250 0
-218 -251 0
-218 -252 0
-218 -253 0
-218 -254 0
-218 -255 0
-218 -256 0
-218 -257 0
-218 -258 0
-218 -259 0
-218 -260 0
-218 -261 0
-218 -262 0
-218 -263 0
-218 -264 0
-218 -265 0
-218 -266 0
-218 -267 0
-218 -268 0
-218 -269 0
-218 -270 0
-218 -271 0
-218 -272 0
-218 -273 0
-218 -274 0
-218 -275 0
-218 -276 0
-218 -277 0
-218 -278 0
-218 -279 0
-218 -280 0
-219 -220 0
-219 -221 0
-219 -222 0
-219 -223 0
-219 -224 0
-219 -225 0
-219 -226 0
-219 -227 0
-219 -228 0
-219 -229 0
-219 -230 0
-219 -231 0
-219 -232 0
-219 -233 0
-219 -234 0
-219 -235 0
-219 -236 0
-219 -237 0
-219 -238 0
-219 -239 0
-219 -240 0
-219 -241 0
-219 -242 0
-219 -243 0
-219 -244 0
-219 -245 0
-219 -246 0
-219 -247 0
-219 -248 0
-219 -249 0
-219 -250 0
-219 -251 0
-219 -252 0
-219 -253 0
-219 -254 0
-219 -255 0
-219 -256 0
-219 -257 0
-219 -258 0
-219 -259 0
-219 -260 0
-219 -261 0
-219 -262 0
-219 -263 0
-219 -264 0
-219 -265 0
-219 -266 0
-219 -267 0
-219 -268 0
-219 -269 0
-219 -270 0
-219 -271 0
-219 -272 0
-219 -273 0
-219 -274 0
-219 -275 0
-219 -276 0
-219 -277 0
-219 -278 0
-219 -279 0
-219 -280 0
-220 -221 0
-220 -222 0
-220 -223 0
-220 -224 0
-220 -225 0
-220 -226 0
-220 -227 0
-220 -228 0
-220 -229 0
-220 -230 0
-220 -231 0
-220 -232 0
-220 -233 0
-220 -234 0
-220 -235 0
-220 -236 0
-220 -237 0
-220 -238 0
-220 -239 0
-220 -240 0
-220 -241 0
-220 -242 0
-220 -243 0
-220 -244 0
-220 -245 0
-220 -246 0
-220 -247 0
-220 -248 0
-220 -249 0
-220 -250 0
-220 -251 0
-220 -252 0
-220 -253 0
-220 -254 0
-220 -255 0
-220 -256 0
-220 -257 0
-220 -258 0
-220 -259 0
-220 -260 0
-220 -261 0
-220 -262 0
-220 -263 0
-220 -264 0
-220 -265 0
-220 -266 0
-220 -267 0
-220 -268 0
-220 -269 0
-220 -270 0
-220 -271 0
-220 -272 0
-220 -273 0
-220 -274 0
-220 -275 0
-220 -276 0
-220 -277 0
-220 -278 0
-220 -279 0
-220 -280 0
-221 -222 0
-221 -223 0
-221 -224 0
-221 -225 0
-221 -226 0
-221 -227 0
-221 -228 0
-221 -229 0
-221 -230 0
-221 -231 0
-221 -232 0
-221 -233 0
-221 -234 0
-221 -235 0
-221 -236 0
-221 -237 0
-221 -238 0
-221 -239 0
-221 -240 0
-221 -241 0
-221 -242 0
-221 -243 0
-221 -244 0
-221 -245 0
-221 -246 0
-221 -247 0
-221 -248 0
-221 -249 0
-221 -250 0
-221 -251 0
-221 -252 0
-221 -253 0
-221 -254 0
-221 -255 0
-221 -256 0
-221 -257 0
-221 -258 0
-221 -259 0
-221 -260 0
-221 -261 0
-221 -262 0
-221 -263 0
-221 -264 0
-221 -265 0
-221 -266 0
-221 -267 0
-221 -268 0
-221 -269 0
-221 -270 0
-221 -271 0
-221 -272 0
-221 -273 0
-221 -274 0
-221 -275 0
-221 -276 0
-221 -277 0
-221 -278 0
-221 -279 0
-221 -280 0
-222 -223 0
-222 -224 0
-222 -225 0
-222 -226 0
-222 -227 0
-222 -228 0
-222 -229 0
-222 -230 0
-222 -231 0
-222 -232 0
-222 -233 0
-222 -234 0
-222 -235 0
-222 -236 0
-222 -237 0
-222 -238 0
-222 -239 0
-222 -240 0
-222 -241 0
-222 -242 0
-222 -243 0
-222 -244 0
-222 -245 0
-222 -246 0
-222 -247 0
-222 -248 0
-222 -249 0
-222 -250 0
-222 -251 0
-222 -252 0
-222 -253 0
-222 -254 0
-222 -255 0
-222 -256 0
-222 -257 0
-222 -258 0
-222 -259 0
-222 -260 0
-222 -261 0
-222 -262 0
-222 -263 0
-222 -264 0
-222 -265 0
-222 -266 0
-222 -267 0
-222 -268 0
-222 -269 0
-222 -270 0
-222 -271 0
-222 -272 0
-222 -273 0
-222 -274 0
-222 -275 0
-222 -276 0
-222 -277 0
-222 -278 0
-222 -279 0
-222 -280 0
-223 -224 0
-223 -225 0
-223 -226 0
-223 -227 0
-223 -228 0
-223 -229 0
-223 -230 0
-223 -231 0
-223 -232 0
-223 -233 0
-223 -234 0
-223 -235 0
-223 -236 0
-223 -237 0
-223 -238 0
-223 -239 0
-223 -240 0
-223 -241 0
-223 -242 0
-223 -243 0
-223 -244 0
-223 -245 0
-223 -246 0
-223 -247 0
-223 -248 0
-223 -249 0
-223 -250 0
-223 -251 0
-223 -252 0
-223 -253 0
-223 -254 0
-223 -255 0
-223 -256 0
-223 -257 0
-223 -258 0
-223 -259 0
-223 -260 0
-223 -261 0
-223 -262 0
-223 -263 0
-223 -264 0
-223 -265 0
-223 -266 0
-223 -267 0
-223 -268 0
-223 -269 0
-223 -270 0
-223 -271 0
-223 -272 0
-223 -273 0
-223 -274 0
-223 -275 0
-223 -276 0
-223 -277 0
-223 -278 0
-223 -279 0
-223 -280 0
-224 -225 0
-224 -226 0
-224 -227 0
-224 -228 0
-224 -229 0
-224 -230 0
-224 -231 0
-224 -232 0
-224 -233 0
-224 -234 0
-224 -235 0
-224 -236 0
-224 -237 0
-224 -238 0
-224 -239 0
-224 -240 0
-224 -241 0
-224 -242 0
-224 -243 0
-224 -244 0
-224 -245 0
-224 -246 0
-224 -247 0
-224 -248 0
-224 -249 0
-224 -250 0
-224 -251 0
-224 -252 0
-224 -253 0
-224 -254 0
-224 -255 0
-224 -256 0
-224 -257 0
-224 -258 0
-224 -259 0
-224 -260 0
-224 -261 0
-224 -262 0
-224 -263 0
-224 -264 0
-224 -265 0
-224 -266 0
-224 -267 0
-224 -268 0
-224 -269 0
-224 -270 0
-224 -271 0
-224 -272 0
-224 -273 0
-224 -274 0
-224 -275 0
-224 -276 0
-224 -277 0
-224 -278 0
-224 -279 0
-224 -280 0
-225 -226 0
-225 -227 0
-225 -228 0
-225 -229 0
-225 -230 0
-225 -231 0
-225 -232 0
-225 -233 0
-225 -234 0
-225 -235 0
-225 -236 0
-225 -237 0
-225 -238 0
-225 -239 0
-225 -240 0
-225 -241 0
-225 -242 0
-225 -243 0
-225 -244 0
-225 -245 0
-225 -246 0
-225 -247 0
-225 -248 0
-225 -249 0
-225 -250 0
-225 -251 0
-225 -252 0
-225 -253 0
-225 -254 0
-225 -255 0
-225 -256 0
-225 -257 0
-225 -258 0
-225 -259 0
-225 -260 0
-225 -261 0
-225 -262 0
-225 -263 0
-225 -264 0
-225 -265 0
-225 -266 0
-225 -267 0
-225 -268 0
-225 -269 0
-225 -270 0
-225 -271 0
-225 -272 0
-225 -273 0
-225 -274 0
-225 -275 0
-225 -276 0
-225 -277 0
-225 -278 0
-225 -279 0
-225 -280 0
-226 -227 0
-226 -228 0
-226 -229 0
-226 -230 0
-226 -231 0
-226 -232 0
-226 -233 0
-226 -234 0
-226 -235 0
-226 -236 0
-226 -237 0
-226 -238 0
-226 -239 0
-226 -240 0
-226 -241 0
-226 -242 0
-226 -243 0
-226 -244 0
-226 -245 0
-226 -246 0
-226 -247 0
-226 -248 0
-226 -249 0
-226 -250 0
-226 -251 0
-226 -252 0
-226 -253 0
-226 -254 0
-226 -255 0
-226 -256 0
-226 -257 0
-226 -258 0
-226 -259 0
-226 -260 0
-226 -261 0
-226 -262 0
-226 -263 0
-226 -264 0
-226 -265 0
-226 -266 0
-226 -267 0
-226 -268 0
-226 -269 0
-226 -270 0
-226 -271 0
-226 -272 0
-226 -273 0
-226 -274 0
-226 -275 0
-226 -276 0
-226 -277 0
-226 -278 0
-226 -279 0
-226 -280 0
-227 -228 0
-227 -229 0
-227 -230 0
-227 -231 0
-227 -232 0
-227 -233 0
-227 -234 0
-227 -235 0
-227 -236 0
-227 -237 0
-227 -238 0
-227 -239 0
-227 -240 0
-227 -241 0
-227 -242 0
-227 -243 0
-227 -244 0
-227 -245 0
-227 -246 0
-227 -247 0
-227 -248 0
-227 -249 0
-227 -250 0
-227 -251 0
-227 -252 0
-227 -253 0
-227 -254 0
-227 -255 0
-227 -256 0
-227 -257 0
-227 -258 0
-227 -259 0
-227 -260 0
-227 -261 0
-227 -262 0
-227 -263 0
-227 -264 0
-227 -265 0
-227 -266 0
-227 -267 0
-227 -268 0
-227 -269 0
-227 -270 0
-227 -271 0
-227 -272 0
-227 -273 0
-227 -274 0
-227 -275 0
-227 -276 0
-227 -277 0
-227 -278 0
-227 -279 0
-227 -280 0
-228 -229 0
-228 -230 0
-228 -231 0
-228 -232 0
-228 -233 0
-228 -234 0
-228 -235 0
-228 -236 0
-228 -237 0
-228 -238 0
-228 -239 0
-228 -240 0
-228 -241 0
-228 -242 0
-228 -243 0
-228 -244 0
-228 -245 0
-228 -246 0
-228 -247 0
-228 -248 0
-228 -249 0
-228 -250 0
-228 -251 0
-228 -252 0
-228 -253 0
-228 -254 0
-228 -255 0
-228 -256 0
-228 -257 0
-228 -258 0
-228 -259 0
-228 -260 0
-228 -261 0
-228 -262 0
-228 -263 0
-228 -264 0
-228 -265 0
-228 -266 0
-228 -267 0
-228 -268 0
-228 -269 0
-228 -270 0
-228 -271 0
-228 -272 0
-228 -273 0
-228 -274 0
-228 -275 0
-228 -276 0
-228 -277 0
-228 -278 0
-228 -279 0
-228 -280 0
-229 -230 0
-229 -231 0
-229 -232 0
-229 -233 0
-229 -234 0
-229 -235 0
-229 -236 0
-229 -237 0
-229 -238 0
-229 -239 0
-229 -240 0
-229 -241 0
-229 -242 0
-229 -243 0
-229 -244 0
-229 -245 0
-229 -246 0
-229 -247 0
-229 -248 0
-229 -249 0
-229 -250 0
-229 -251 0
-229 -252 0
-229 -253 0
-229 -254 0
-229 -255 0
-229 -256 0
-229 -257 0
-229 -258 0
-229 -259 0
-229 -260 0
-229 -261 0
-229 -262 0
-229 -263 0
-229 -264 0
-229 -265 0
-229 -266 0
-229 -267 0
-229 -268 0
-229 -269 0
-229 -270 0
-229 -271 0
-229 -272 0
-229 -273 0
-229 -274 0
-229 -275 0
-229 -276 0
-229 -277 0
-229 -278 0
-229 -279 0
-229 -280 0
-230 -231 0
-230 -232 0
-230 -233 0
-230 -234 0
-230 -235 0
-230 -236 0
-230 -237 0
-230 -238 0
-230 -239 0
-230 -240 0
-230 -241 0
-230 -242 0
-230 -243 0
-230 -244 0
-230 -245 0
-230 -246 0
-230 -247 0
-230 -248 0
-230 -249 0
-230 -250 0
-230 -251 0
-230 -252 0
-230 -253 0
-230 -254 0
-230 -255 0
-230 -256 0
-230 -257 0
-230 -258 0
-230 -259 0
-230 -260 0
-230 -261 0
-230 -262 0
-230 -263 0
-230 -264 0
-230 -265 0
-230 -266 0
-230 -267 0
-230 -268 0
-230 -269 0
-230 -270 0
-230 -271 0
-230 -272 0
-230 -273 0
-230 -274 0
-230 -275 0
-230 -276 0
-230 -277 0
-230 -278 0
-230 -279 0
-230 -280 0
-231 -232 0
-231 -233 0
-231 -234 0
-231 -235 0
-231 -236 0
-231 -237 0
-231 -238 0
-231 -239 0
-231 -240 0
-231 -241 0
-231 -242 0
-231 -243 0
-231 -244 0
-231 -245 0
-231 -246 0
-231 -247 0
-231 -248 0
-231 -249 0
-231 -250 0
-231 -251 0
-231 -252 0
-231 -253 0
-231 -254 0
-231 -255 0
-231 -256 0
-231 -257 0
-231 -258 0
-231 -259 0
-231 -260 0
-231 -261 0
-231 -262 0
-231 -263 0
-231 -264 0
-231 -265 0
-231 -266 0
-231 -267 0
-231 -268 0
-231 -269 0
-231 -270 0
-231 -271 0
-231 -272 0
-231 -273 0
-231 -274 0
-231 -275 0
-231 -276 0
-231 -277 0
-231 -278 0
-231 -279 0
-231 -280 0
-232 -233 0
-232 -234 0
-232 -235 0
-232 -236 0
-232 -237 0
-232 -238 0
-232 -239 0
-232 -240 0
-232 -241 0
-232 -242 0
-232 -243 0
-232 -244 0
-232 -245 0
-232 -246 0
-232 -247 0
-232 -248 0
-232 -249 0
-232 -250 0
-232 -251 0
-232 -252 0
-232 -253 0
-232 -254 0
-232 -255 0
-232 -256 0
-232 -257 0
-232 -258 0
-232 -259 0
-232 -260 0
-232 -261 0
-232 -262 0
-232 -263 0
-232 -264 0
-232 -265 0
-232 -266 0
-232 -267 0
-232 -268 0
-232 -269 0
-232 -270 0
-232 -271 0
-232 -272 0
-232 -273 0
-232 -274 0
-232 -275 0
-232 -276 0
-232 -277 0
-232 -278 0
-232 -279 0
-232 -280 0
-233 -234 0
-233 -235 0
-233 -236 0
-233 -237 0
-233 -238 0
-233 -239 0
-233 -240 0
-233 -241 0
-233 -242 0
-233 -243 0
-233 -244 0
-233 -245 0
-233 -246 0
-233 -247 0
-233 -248 0
-233 -249 0
-233 -250 0
-233 -251 0
-233 -252 0
-233 -253 0
-233 -254 0
-233 -255 0
-233 -256 0
-233 -257 0
-233 -258 0
-233 -259 0
-233 -260 0
-233 -261 0
-233 -262 0
-233 -263 0
-233 -264 0
-233 -265 0
-233 -266 0
-233 -267 0
-233 -268 0
-233 -269 0
-233 -270 0
-233 -271 0
-233 -272 0
-233 -273 0
-233 -274 0
-233 -275 0
-233 -276 0
-233 -277 0
-233 -278 0
-233 -279 0
-233 -280 0
-234 -235 0
-234 -236 0
-234 -237 0
-234 -238 0
-234 -239 0
-234 -240 0
-234 -241 0
-234 -242 0
-234 -243 0
-234 -244 0
-234 -245 0
-234 -246 0
-234 -247 0
-234 -248 0
-234 -249 0
-234 -250 0
-234 -251 0
-234 -252 0
-234 -253 0
-234 -254 0
-234 -255 0
-234 -256 0
-234 -257 0
-234 -258 0
-234 -259 0
-234 -260 0
-234 -261 0
-234 -262 0
-234 -263 0
-234 -264 0
-234 -265 0
-234 -266 0
-234 -267 0
-234 -268 0
-234 -269 0
-234 -270 0
-234 -271 0
-234 -272 0
-234 -273 0
-234 -274 0
-234 -275 0
-234 -276 0
-234 -277 0
-234 -278 0
-234 -279 0
-234 -280 0
-235 -236 0
-235 -237 0
-235 -238 0
-235 -239 0
-235 -240 0
-235 -241 0
-235 -242 0
-235 -243 0
-235 -244 0
-235 -245 0
-235 -246 0
-235 -247 0
-235 -248 0
-235 -249 0
-235 -250 0
-235 -251 0
-235 -252 0
-235 -253 0
-235 -254 0
-235 -255 0
-235 -256 0
-235 -257 0
-235 -258 0
-235 -259 0
-235 -260 0
-235 -261 0
-235 -262 0
-235 -263 0
-235 -264 0
-235 -265 0
-235 -266 0
-235 -267 0
-235 -268 0
-235 -269 0
-235 -270 0
-235 -271 0
-235 -272 0
-235 -273 0
-235 -274 0
-235 -275 0
-235 -276 0
-235 -277 0
-235 -278 0
-235 -279 0
-235 -280 0
-236 -237 0
-236 -238 0
-236 -239 0
-236 -240 0
-236 -241 0
-236 -242 0
-236 -243 0
-236 -244 0
-236 -245 0
-236 -246 0
-236 -247 0
-236 -248 0
-236 -249 0
-236 -250 0
-236 -251 0
-236 -252 0
-236 -253 0
-236 -254 0
-236 -255 0
-236 -256 0
-236 -257 0
-236 -258 0
-236 -259 0
-236 -260 0
-236 -261 0
-236 -262 0
-236 -263 0
-236 -264 0
-236 -265 0
-236 -266 0
-236 -267 0
-236 -268 0
-236 -269 0
-236 -270 0
-236 -271 0
-236 -272 0
-236 -273 0
-236 -274 0
-236 -275 0
-236 -276 0
-236 -277 0
-236 -278 0
-236 -279 0
-236 -280 0
-237 -238 0
-237 -239 0
-237 -240 0
-237 -241 0
-237 -242 0
-237 -243 0
-237 -244 0
-237 -245 0
-237 -246 0
-237 -247 0
-237 -248 0
-237 -249 0
-237 -250 0
-237 -251 0
-237 -252 0
-237 -253 0
-237 -254 0
-237 -255 0
-237 -256 0
-237 -257 0
-237 -258 0
-237 -259 0
-237 -260 0
-237 -261 0
-237 -262 0
-237 -263 0
-237 -264 0
-237 -265 0
-237 -266 0
-237 -267 0
-237 -268 0
-237 -269 0
-237 -270 0
-237 -271 0
-237 -272 0
-237 -273 0
-237 -274 0
-237 -275 0
-237 -276 0
-237 -277 0
-237 -278 0
-237 -279 0
-237 -280 0
-238 -239 0
-238 -240 0
-238 -241 0
-238 -242 0
-238 -243 0
-238 -244 0
-238 -245 0
-238 -246 0
-238 -247 0
-238 -248 0
-238 -249 0
-238 -250 0
-238 -251 0
-238 -252 0
-238 -253 0
-238 -254 0
-238 -255 0
-238 -256 0
-238 -257 0
-238 -258 0
-238 -259 0
-238 -260 0
-238 -261 0
-238 -262 0
-238 -263 0
-238 -264 0
-238 -265 0
-238 -266 0
-238 -267 0
-238 -268 0
-238 -269 0
-238 -270 0
-238 -271 0
-238 -272 0
-238 -273 0
-238 -274 0
-238 -275 0
-238 -276 0
-238 -277 0
-238 -278 0
-238 -279 0
-238 -280 0
-239 -240 0
-239 -241 0
-239 -242 0
-239 -243 0
-239 -244 0
-239 -245 0
-239 -246 0
-239 -247 0
-239 -248 0
-239 -249 0
-239 -250 0
-239 -251 0
-239 -252 0
-239 -253 0
-239 -254 0
-239 -255 0
-239 -256 0
-239 -257 0
-239 -258 0
-239 -259 0
-239 -260 0
-239 -261 0
-239 -262 0
-239 -263 0
-239 -264 0
-239 -265 0
-239 -266 0
-239 -267 0
-239 -268 0
-239 -269 0
-239 -270 0
-239 -271 0
-239 -272 0
-239 -273 0
-239 -274 0
-239 -275 0
-239 -276 0
-239 -277 0
-239 -278 0
-239 -279 0
-239 -280 0
-240 -241 0
-240 -242 0
-240 -243 0
-240 -244 0
-240 -245 0
-240 -246 0
-240 -247 0
-240 -248 0
-240 -249 0
-240 -250 0
-240 -251 0
-240 -252 0
-240 -253 0
-240 -254 0
-240 -255 0
-240 -256 0
-240 -257 0
-240 -258 0
-240 -259 0
-240 -260 0
-240 -261 0
-240 -262 0
-240 -263 0
-240 -264 0
-240 -265 0
-240 -266 0
-240 -267 0
-240 -268 0
-240 -269 0
-240 -270 0
-240 -271 0
-240 -272 0
-240 -273 0
-240 -274 0
-240 -275 0
-240 -276 0
-240 -277 0
-240 -278 0
-240 -279 0
-240 -280 0
-241 -242 0
-241 -243 0
-241 -244 0
-241 -245 0
-241 -246 0
-241 -247 0
-241 -248 0
-241 -249 0
-241 -250 0
-241 -251 0
-241 -252 0
-241 -253 0
-241 -254 0
-241 -255 0
-241 -256 0
-241 -257 0
-241 -258 0
-241 -259 0
-241 -260 0
-241 -261 0
-241 -262 0
-241 -263 0
-241 -264 0
-241 -265 0
-241 -266 0
-241 -267 0
-241 -268 0
-241 -269 0
-241 -270 0
-241 -271 0
-241 -272 0
-241 -273 0
-241 -274 0
-241 -275 0
-241 -276 0
-241 -277 0
-241 -278 0
-241 -279 0
-241 -280 0
-242 -243 0
-242 -244 0
-242 -245 0
-242 -246 0
-242 -247 0
-242 -248 0
-242 -249 0
-242 -250 0
-242 -251 0
-242 -252 0
-242 -253 0
-242 -254 0
-242 -255 0
-242 -256 0
-242 -257 0
-242 -258 0
-242 -259 0
-242 -260 0
-242 -261 0
-242 -262 0
-242 -263 0
-242 -264 0
-242 -265 0
-242 -266 0
-242 -267 0
-242 -268 0
-242 -269 0
-242 -270 0
-242 -271 0
-242 -272 0
-242 -273 0
-242 -274 0
-242 -275 0
-242 -276 0
-242 -277 0
-242 -278 0
-242 -279 0
-242 -280 0
-243 -244 0
-243 -245 0
-243 -246 0
-243 -247 0
-243 -248 0
-243 -249 0
-243 -250 0
-243 -251 0
-243 -252 0
-243 -253 0
-243 -254 0
-243 -255 0
-243 -256 0
-243 -257 0
-243 -258 0
-243 -259 0
-243 -260 0
-243 -261 0
-243 -262 0
-243 -263 0
-243 -264 0
-243 -265 0
-243 -266 0
-243 -267 0
-243 -268 0
-243 -269 0
-243 -270 0
-243 -271 0
-243 -272 0
-243 -273 0
-243 -274 0
-243 -275 0
-243 -276 0
-243 -277 0
-243 -278 0
-243 -279 0
-243 -280 0
-244 -245 0
-244 -246 0
-244 -247 0
-244 -248 0
-244 -249 0
-244 -250 0
-244 -251 0
-244 -252 0
-244 -253 0
-244 -254 0
-244 -255 0
-244 -256 0
-244 -257 0
-244 -258 0
-244 -259 0
-244 -260 0
-244 -261 0
-244 -262 0
-244 -263 0
-244 -264 0
-244 -265 0
-244 -266 0
-244 -267 0
-244 -268 0
-244 -269 0
-244 -270 0
-244 -271 0
-244 -272 0
-244 -273 0
-244 -274 0
-244 -275 0
-244 -276 0
-244 -277 0
-244 -278 0
-244 -279 0
-244 -280 0
-245 -246 0
-245 -247 0
-245 -248 0
-245 -249 0
-245 -250 0
-245 -251 0
-245 -252 0
-245 -253 0
-245 -254 0
-245 -255 0
-245 -256 0
-245 -257 0
-245 -258 0
-245 -259 0
-245 -260 0
-245 -261 0
-245 -262 0
-245 -263 0
-245 -264 0
-245 -265 0
-245 -266 0
-245 -267 0
-245 -268 0
-245 -269 0
-245 -270 0
-245 -271 0
-245 -272 0
-245 -273 0
-245 -274 0
-245 -275 0
-245 -276 0
-245 -277 0
-245 -278 0
-245 -279 0
-245 -280 0
-246 -247 0
-246 -248 0
-246 -249 0
-246 -250 0
-246 -251 0
-246 -252 0
-246 -253 0
-246 -254 0
-246 -255 0
-246 -256 0
-246 -257 0
-246 -258 0
-246 -259 0
-246 -260 0
-246 -261 0
-246 -262 0
-246 -263 0
-246 -264 0
-246 -265 0
-246 -266 0
-246 -267 0
-246 -268 0
-246 -269 0
-246 -270 0
-246 -271 0
-246 -272 0
-246 -273 0
-246 -274 0
-246 -275 0
-246 -276 0
-246 -277 0
-246 -278 0
-246 -279 0
-246 -280 0
-247 -248 0
-247 -249 0
-247 -250 0
-247 -251 0
-247 -252 0
-247 -253 0
-247 -254 0
-247 -255 0
-247 -256 0
-247 -257 0
-247 -258 0
-247 -259 0
-247 -260 0
-247 -261 0
-247 -262 0
-247 -263 0
-247 -264 0
-247 -265 0
-247 -266 0
-247 -267 0
-247 -268 0
-247 -269 0
-247 -270 0
-247 -271 0
-247 -272 0
-247 -273 0
-247 -274 0
-247 -275 0
-247 -276 0
-247 -277 0
-247 -278 0
-247 -279 0
-247 -280 0
-248 -249 0
-248 -250 0
-248 -251 0
-248 -252 0
-248 -253 0
-248 -254 0
-248 -255 0
-248 -256 0
-248 -257 0
-248 -258 0
-248 -259 0
-248 -260 0
-248 -261 0
-248 -262 0
-248 -263 0
-248 -264 0
-248 -265 0
-248 -266 0
-248 -267 0
-248 -268 0
-248 -269 0
-248 -270 0
-248 -271 0
-248 -272 0
-248 -273 0
-248 -274 0
-248 -275 0
-248 -276 0
-248 -277 0
-248 -278 0
-248 -279 0
-248 -280 0
-249 -250 0
-249 -251 0
-249 -252 0
-249 -253 0
-249 -254 0
-249 -255 0
-249 -256 0
-249 -257 0
-249 -258 0
-249 -259 0
-249 -260 0
-249 -261 0
-249 -262 0
-249 -263 0
-249 -264 0
-249 -265 0
-249 -266 0
-249 -267 0
-249 -268 0
-249 -269 0
-249 -270 0
-249 -271 0
-249 -272 0
-249 -273 0
-249 -274 0
-249 -275 0
-249 -276 0
-249 -277 0
-249 -278 0
-249 -279 0
-249 -280 0
-250 -251 0
-250 -252 0
-250 -253 0
-250 -254 0
-250 -255 0
-250 -256 0
-250 -257 0
-250 -258 0
-250 -259 0
-250 -260 0
-250 -261 0
-250 -262 0
-250 -263 0
-250 -264 0
-250 -265 0
-250 -266 0
-250 -267 0
-250 -268 0
-250 -269 0
-250 -270 0
-250 -271 0
-250 -272 0
-250 -273 0
-250 -274 0
-250 -275 0
-250 -276 0
-250 -277 0
-250 -278 0
-250 -279 0
-250 -280 0
-251 -252 0
-251 -253 0
-251 -254 0
-251 -255 0
-251 -256 0
-251 -257 0
-251 -258 0
-251 -259 0
-251 -260 0
-251 -261 0
-251 -262 0
-251 -263 0
-251 -264 0
-251 -265 0
-251 -266 0
-251 -267 0
-251 -268 0
-251 -269 0
-251 -270 0
-251 -271 0
-251 -272 0
-251 -273 0
-251 -274 0
-251 -275 0
-251 -276 0
-251 -277 0
-251 -278 0
-251 -279 0
-251 -280 0
-252 -253 0
-252 -254 0
-252 -255 0
-252 -256 0
-252 -257 0
-252 -258 0
-252 -259 0
-252 -260 0
-252 -261 0
-252 -262 0
-252 -263 0
-252 -264 0
-252 -265 0
-252 -266 0
-252 -267 0
-252 -268 0
-252 -269 0
-252 -270 0
-252 -271 0
-252 -272 0
-252 -273 0
-252 -274 0
-252 -275 0
-252 -276 0
-252 -277 0
-252 -278 0
-252 -279 0
-252 -280 0
-253 -254 0
-253 -255 0
-253 -256 0
-253 -257 0
-253 -258 0
-253 -259 0
-253 -260 0
-253 -261 0
-253 -262 0
-253 -263 0
-253 -264 0
-253 -265 0
-253 -266 0
-253 -267 0
-253 -268 0
-253 -269 0
-253 -270 0
-253 -271 0
-253 -272 0
-253 -273 0
-253 -274 0
-253 -275 0
-253 -276 0
-253 -277 0
-253 -278 0
-253 -279 0
-253 -280 0
-254 -255 0
-254 -256 0
-254 -257 0
-254 -258 0
-254 -259 0
-254 -260 0
-254 -261 0
-254 -262 0
-254 -263 0
-254 -264 0
-254 -265 0
-254 -266 0
-254 -267 0
-254 -268 0
-254 -269 0
-254 -270 0
-254 -271 0
-254 -272 0
-254 -273 0
-254 -274 0
-254 -275 0
-254 -276 0
-254 -277 0
-254 -278 0
-254 -279 0
-254 -280 0
-255 -256 0
-255 -257 0
-255 -258 0
-255 -259 0
-255 -260 0
-255 -261 0
-255 -262 0
-255 -263 0
-255 -264 0
-255 -265 0
-255 -266 0
-255 -267 0
-255 -268 0
-255 -269 0
-255 -270 0
-255 -271 0
-255 -272 0
-255 -273 0
-255 -274 0
-255 -275 0
-255 -276 0
-255 -277 0
-255 -278 0
-255 -279 0
-255 -280 0
-256 -257 0
-256 -258 0
-256 -259 0
-256 -260 0
-256 -261 0
-256 -262 0
-256 -263 0
-256 -264 0
-256 -265 0
-256 -266 0
-256 -267 0
-256 -268 0
-256 -269 0
-256 -270 0
-256 -271 0
-256 -272 0
-256 -273 0
-256 -274 0
-256 -275 0
-256 -276 0
-256 -277 0
-256 -278 0
-256 -279 0
-256 -280 0
-257 -258 0
-257 -259 0
-257 -260 0
-257 -261 0
-257 -262 0
-257 -263 0
-257 -264 0
-257 -265 0
-257 -266 0
-257 -267 0
-257 -268 0
-257 -269 0
-257 -270 0
-257 -271 0
-257 -272 0
-257 -273 0
-257 -274 0
-257 -275 0
-257 -276 0
-257 -277 0
-257 -278 0
-257 -279 0
-257 -280 0
-258 -259 0
-258 -260 0
-258 -261 0
-258 -262 0
-258 -263 0
-258 -264 0
-258 -265 0
-258 -266 0
-258 -267 0
-258 -268 0
-258 -269 0
-258 -270 0
-258 -271 0
-258 -272 0
-258 -273 0
-258 -274 0
-258 -275 0
-258 -276 0
-258 -277 0
-258 -278 0
-258 -279 0
-258 -280 0
-259 -260 0
-259 -261 0
-259 -262 0
-259 -263 0
-259 -264 0
-259 -265 0
-259 -266 0
-259 -267 0
-259 -268 0
-259 -269 0
-259 -270 0
-259 -271 0
-259 -272 0
-259 -273 0
-259 -274 0
-259 -275 0
-259 -276 0
-259 -277 0
-259 -278 0
-259 -279 0
-259 -280 0
-260 -261 0
-260 -262 0
-260 -263 0
-260 -264 0
-260 -265 0
-260 -266 0
-260 -267 0
-260 -268 0
-260 -269 0
-260 -270 0
-260 -271 0
-260 -272 0
-260 -273 0
-260 -274 0
-260 -275 0
-260 -276 0
-260 -277 0
-260 -278 0
-260 -279 0
-260 -280 0
-261 -262 0
-261 -263 0
-261 -264 0
-261 -265 0
-261 -266 0
-261 -267 0
-261 -268 0
-261 -269 0
-261 -270 0
-261 -271 0
-261 -272 0
-261 -273 0
-261 -274 0
-261 -275 0
-261 -276 0
-261 -277 0
-261 -278 0
-261 -279 0
-261 -280 0
-262 -263 0
-262 -264 0
-262 -265 0
-262 -266 0
-262 -267 0
-262 -268 0
-262 -269 0
-262 -270 0
-262 -271 0
-262 -272 0
-262 -273 0
-262 -274 0
-262 -275 0
-262 -276 0
-262 -277 0
-262 -278 0
-262 -279 0
-262 -280 0
-263 -264 0
-263 -265 0
-263 -266 0
-263 -267 0
-263 -268 0
-263 -269 0
-263 -270 0
-263 -271 0
-263 -272 0
-263 -273 0
-263 -274 0
-263 -275 0
-263 -276 0
-263 -277 0
-263 -278 0
-263 -279 0
-263 -280 0
-264 -265 0
-264 -266 0
-264 -267 0
-264 -268 0
-264 -269 0
-264 -270 0
-264 -271 0
-264 -272 0
-264 -273 0
-264 -274 0
-264 -275 0
-264 -276 0
-264 -277 0
-264 -278 0
-264 -279 0
-264 -280 0
-265 -266 0
-265 -267 0
-265 -268 0
-265 -269 0
-265 -270 0
-265 -271 0
-265 -272 0
-265 -273 0
-265 -274 0
-265 -275 0
-265 -276 0
-265 -277 0
-265 -278 0
-265 -279 0
-265 -280 0
-266 -267 0
-266 -268 0
-266 -269 0
-266 -270 0
-266 -271 0
-266 -272 0
-266 -273 0
-266 -274 0
-266 -275 0
-266 -276 0
-266 -277 0
-266 -278 0
-266 -279 0
-266 -280 0
-267 -268 0
-267 -269 0
-267 -270 0
-267 -271 0
-267 -272 0
-267 -273 0
-267 -274 0
-267 -275 0
-267 -276 0
-267 -277 0
-267 -278 0
-267 -279 0
-267 -280 0
-268 -269 0
-268 -270 0
-268 -271 0
-268 -272 0
-268 -273 0
-268 -274 0
-268 -275 0
-268 -276 0
-268 -277 0
-268 -278 0
-268 -279 0
-268 -280 0
-269 -270 0
-269 -271 0
-269 -272 0
-269 -273 0
-269 -274 0
-269 -275 0
-269 -276 0
-269 -277 0
-269 -278 0
-269 -279 0
-269 -280 0
-270 -271 0
-270 -272 0
-270 -273 0
-270 -274 0
-270 -275 0
-270 -276 0
-270 -277 0
-270 -278 0
-270 -279 0
-270 -280 0
-271 -272 0
-271 -273 0
-271 -274 0
-271 -275 0
-271 -276 0
-271 -277 0
-271 -278 0
-271 -279 0
-271 -280 0
-272 -273 0
-272 -274 0
-272 -275 0
-272 -276 0
-272 -277 0
-272 -278 0
-272 -279 0
-272 -280 0
-273 -274 0
-273 -275 0
-273 -276 0
-273 -277 0
-273 -278 0
-273 -279 0
-273 -280 0
-274 -275 0
-274 -276 0
-274 -277 0
-274 -278 0
-274 -279 0
-274 -280 0
-275 -276 0
-275 -277 0
-275 -278 0
-275 -279 0
-275 -280 0
-276 -277 0
-276 -278 0
-276 -279 0
-276 -280 0
-277 -278 0
-277 -279 0
-277 -280 0
-278 -279 0
-278 -280 0
-279 -280 0
-197 -65 0
-197 -66 0
-197 -67 0
-197 68 0
-197 -69 0
-197 -70 0
-197 -71 0
-197 72 0
-197 -73 0
-197 -74 0
-197 -75 0
-197 76 0
-197 -77 0
-197 -78 0
-197 -79 0
-197 80 0
-197 -81 0
-197 -82 0
-197 -83 0
-197 84 0
-197 -85 0
-197 -86 0
-197 -87 0
-197 88 0
-197 -89 0
-197 -90 0
-197 -91 0
-197 92 0
-197 -93 0
-197 -94 0
-197 -95 0
-197 96 0
-198 -65 0
-198 66 0
-198 -67 0
-198 -68 0
-198 -69 0
-198 70 0
-198 -71 0
-198 -72 0
-198 -73 0
-198 74 0
-198 -75 0
-198 -76 0
-198 -77 0
-198 78 0
-198 -79 0
-198 -80 0
-198 -81 0
-198 82 0
-198 -83 0
-198 -84 0
-198 -85 0
-198 86 0
-198 -87 0
-198 -88 0
-198 -89 0
-198 90 0
-198 -91 0
-198 -92 0
-198 -93 0
-198 94 0
-198 -95 0
-198 -96 0
-199 -65 0
-199 -66 0
-199 67 0
-199 -68 0
-199 -69 0
-199 -70 0
-199 71 0
-199 -72 0
-199 -73 0
-199 -74 0
-199 75 0
-199 -76 0
-199 -77 0
-199 -78 0
-199 79 0
-199 -80 0
-199 -81 0
-199 -82 0
-199 83 0
-199 -84 0
-199 -85 0
-199 -86 0
-199 87 0
-199 -88 0
-199 -89 0
-199 -90 0
-199 91 0
-199 -92 0
-199 -93 0
-199 -94 0
-199 95 0
-199 -96 0
-200 65 0
-200 -66 0
-200 -67 0
-200 -68 0
-200 69 0
-200 -70 0
-200 -71 0
-200 -72 0
-200 73 0
-200 -74 0
-200 -75 0
-200 -76 0
-200 77 0
-200 -78 0
-200 -79 0
-200 -80 0
-200 81 0
-200 -82 0
-200 -83 0
-200 -84 0
-200 85 0
-200 -86 0
-200 -87 0
-200 -88 0
-200 89 0
-200 -90 0
-200 -91 0
-200 -92 0
-200 93 0
-200 -94 0
-200 -95 0
-200 -96 0
-201 -65 0
-201 -66 0
-201 -67 0
-201 -68 0
-201 -69 0
-201 70 0
-201 -71 0
-201 72 0
-201 -73 0
-201 -74 0
-201 -75 0
-201 -76 0
-201 -77 0
-201 78 0
-201 -79 0
-201 80 0
-201 -81 0
-201 -82 0
-201 -83 0
-201 -84 0
-201 -85 0
-201 86 0
-201 -87 0
-201 88 0
-201 -89 0
-201 -90 0
-201 -91 0
-201 -92 0
-201 -93 0
-201 94 0
-201 -95 0
-201 96 0
-202 -65 0
-202 66 0
-202 -67 0
-202 68 0
-202 -69 0
-202 -70 0
-202 -71 0
-202 -72 0
-202 -73 0
-202 74 0
-202 -75 0
-202 76 0
-202 -77 0
-202 -78 0
-202 -79 0
-202 -80 0
-202 -81 0
-202 82 0
-202 -83 0
-202 84 0
-202 -85 0
-202 -86 0
-202 -87 0
-202 -88 0
-202 -89 0
-202 90 0
-202 -91 0
-202 92 0
-202 -93 0
-202 -94 0
-202 -95 0
-202 -96 0
-203 -65 0
-203 -66 0
-203 -67 0
-203 -68 0
-203 69 0
-203 -70 0
-203 71 0
-203 -72 0
-203 -73 0
-203 -74 0
-203 -75 0
-203 -76 0
-203 77 0
-203 -78 0
-203 79 0
-203 -80 0
-203 -81 0
-203 -82 0
-203 -83 0
-203 -84 0
-203 85 0
-203 -86 0
-203 87 0
-203 -88 0
-203 -89 0
-203 -90 0
-203 -91 0
-203 -92 0
-203 93 0
-203 -94 0
-203 95 0
-203 -96 0
-204 65 0
-204 -66 0
-204 67 0
-204 -68 0
-204 -69 0
-204 -70 0
-204 -71 0
-204 -72 0
-204 73 0
-204 -74 0
-204 75 0
-204 -76 0
-204 -77 0
-204 -78 0
-204 -79 0
-204 -80 0
-204 81 0
-204 -82 0
-204 83 0
-204 -84 0
-204 -85 0
-204 -86 0
-204 -87 0
-204 -88 0
-204 89 0
-204 -90 0
-204 91 0
-204 -92 0
-204 -93 0
-204 -94 0
-204 -95 0
-204 -96 0
-205 -65 0
-205 -66 0
-205 -67 0
-205 -68 0
-205 -69 0
-205 -70 0
-205 -71 0
-205 -72 0
-205 -73 0
-205 74 0
-205 -75 0
-205 76 0
-205 -77 0
-205 78 0
-205 -79 0
-205 80 0
-205 -81 0
-205 -82 0
-205 -83 0
-205 -84 0
-205 -85 0
-205 -86 0
-205 -87 0
-205 -88 0
-205 -89 0
-205 90 0
-205 -91 0
-205 92 0
-205 -93 0
-205 94 0
-205 -95 0
-205 96 0
-206 -65 0
-206 66 0
-206 -67 0
-206 68 0
-206 -69 0
-206 70 0
-206 -71 0
-206 72 0
-206 -73 0
-206 -74 0
-206 -75 0
-206 -76 0
-206 -77 0
-206 -78 0
-206 -79 0
-206 -80 0
-206 -81 0
-206 82 0
-206 -83 0
-206 84 0
-206 -85 0
-206 86 0
-206 -87 0
-206 88 0
-206 -89 0
-206 -90 0
-206 -91 0
-206 -92 0
-206 -93 0
-206 -94 0
-206 -95 0
-206 -96 0
-207 -65 0
-207 -66 0
-207 -67 0
-207 -68 0
-207 -69 0
-207 -70 0
-207 -71 0
-207 -72 0
-207 73 0
-207 -74 0
-207 75 0
-207 -76 0
-207 77 0
-207 -78 0
-207 79 0
-207 -80 0
-207 -81 0
-207 -82 0
-207 -83 0
-207 -84 0
-207 -85 0
-207 -86 0
-207 -87 0
-207 -88 0
-207 89 0
-207 -90 0
-207 91 0
-207 -92 0
-207 93 0
-207 -94 0
-207 95 0
-207 -96 0
-208 65 0
-208 -66 0
-208 67 0
-208 -68 0
-208 69 0
-208 -70 0
-208 71 0
-208 -72 0
-208 -73 0
-208 -74 0
-208 -75 0
-208 -76 0
-208 -77 0
-208 -78 0
-208 -79 0
-208 -80 0
-208 81 0
-208 -82 0
-208 83 0
-208 -84 0
-208 85 0
-208 -86 0
-208 87 0
-208 -88 0
-208 -89 0
-208 -90 0
-208 -91 0
-208 -92 0
-208 -93 0
-208 -94 0
-208 -95 0
-208 -96 0
-209 -65 0
-209 -66 0
-209 -67 0
-209 -68 0
-209 -69 0
-209 -70 0
-209 -71 0
-209 -72 0
-209 -73 0
-209 -74 0
-209 -75 0
-209 -76 0
-209 -77 0
-209 -78 0
-209 -79 0
-209 -80 0
-209 -81 0
-209 82 0
-209 -83 0
-209 84 0
-209 -85 0
-209 86 0
-209 -87 0
-209 88 0
-209 -89 0
-209 90 0
-209 -91 0
-209 92 0
-209 -93 0
-209 94 0
-209 -95 0
-209 96 0
-210 -65 0
-210 66 0
-210 -67 0
-210 68 0
-210 -69 0
-210 70 0
-210 -71 0
-210 72 0
-210 -73 0
-210 74 0
-210 -75 0
-210 76 0
-210 -77 0
-210 78 0
-210 -79 0
-210 80 0
-210 -81 0
-210 -82 0
-210 -83 0
-210 -84 0
-210 -85 0
-210 -86 0
-210 -87 0
-210 -88 0
-210 -89 0
-210 -90 0
-210 -91 0
-210 -92 0
-210 -93 0
-210 -94 0
-210 -95 0
-210 -96 0
-211 -65 0
-211 -66 0
-211 -67 0
-211 -68 0
-211 -69 0
-211 -70 0
-211 -71 0
-211 -72 0
-211 -73 0
-211 -74 0
-211 -75 0
-211 -76 0
-211 -77 0
-211 -78 0
-211 -79 0
-211 -80 0
-211 81 0
-211 -82 0
-211 83 0
-211 -84 0
-211 85 0
-211 -86 0
-211 87 0
-211 -88 0
-211 89 0
-211 -90 0
-211 91 0
-211 -92 0
-211 93 0
-211 -94 0
-211 95 0
-211 -96 0
-212 65 0
-212 -66 0
-212 67 0
-212 -68 0
-212 69 0
-212 -70 0
-212 71 0
-212 -72 0
-212 73 0
-212 -74 0
-212 75 0
-212 -76 0
-212 77 0
-212 -78 0
-212 79 0
-212 -80 0
-212 -81 0
-212 -82 0
-212 -83 0
-212 -84 0
-212 -85 0
-212 -86 0
-212 -87 0
-212 -88 0
-212 -89 0
-212 -90 0
-212 -91 0
-212 -92 0
-212 -93 0
-212 -94 0
-212 -95 0
-212 -96 0
-213 -65 0
-213 -66 2 0
-213 66 -2 0
-213 -67 0
-213 -68 4 0
-213 68 -4 0
-213 -69 0
-213 -70 6 0
-213 70 -6 0
-213 -71 0
-213 -72 8 0
-213 72 -8 0
-213 -73 0
-213 -74 10 0
-213 74 -10 0
-213 -75 0
-213 -76 12 0
-213 76 -12 0
-213 -77 0
-213 -78 14 0
-213 78 -14 0
-213 -79 0
-213 -80 16 0
-213 80 -16 0
-213 -81 0
-213 -82 18 0
-213 82 -18 0
-213 -83 0
-213 -84 20 0
-213 84 -20 0
-213 -85 0
-213 -86 22 0
-213 86 -22 0
-213 -87 0
-213 -88 24 0
-213 88 -24 0
-213 -89 0
-213 -90 26 0
-213 90 -26 0
-213 -91 0
-213 -92 28 0
-213 92 -28 0
-213 -93 0
-213 -94 30 0
-213 94 -30 0
-213 -95 0
-213 -96 32 0
-213 96 -32 0
-214 -65 0
-214 -66 -2 0
-214 66 2 0
-214 -67 0
-214 -68 -4 0
-214 68 4 0
-214 -69 0
-214 -70 -6 0
-214 70 6 0
-214 -71 0
-214 -72 -8 0
-214 72 8 0
-214 -73 0
-214 -74 -10 0
-214 74 10 0
-214 -75 0
-214 -76 -12 0
-214 76 12 0
-214 -77 0
-214 -78 -14 0
-214 78 14 0
-214 -79 0
-214 -80 -16 0
-214 80 16 0
-214 -81 0
-214 -82 -18 0
-214 82 18 0
-214 -83 0
-214 -84 -20 0
-214 84 20 0
-214 -85 0
-214 -86 -22 0
-214 86 22 0
-214 -87 0
-214 -88 -24 0
-214 88 24 0
-214 -89 0
-214 -90 -26 0
-214 90 26 0
-214 -91 0
-214 -92 -28 0
-214 92 28 0
-214 -93 0
-214 -94 -30 0
-214 94 30 0
-214 -95 0
-214 -96 -32 0
-214 96 32 0
-215 -65 1 0
-215 65 -1 0
-215 -66 0
-215 -67 3 0
-215 67 -3 0
-215 -68 0
-215 -69 5 0
-215 69 -5 0
-215 -70 0
-215 -71 7 0
-215 71 -7 0
-215 -72 0
-215 -73 9 0
-215 73 -9 0
-215 -74 0
-215 -75 11 0
-215 75 -11 0
-215 -76 0
-215 -77 13 0
-215 77 -13 0
-215 -78 0
-215 -79 15 0
-215 79 -15 0
-215 -80 0
-215 -81 17 0
-215 81 -17 0
-215 -82 0
-215 -83 19 0
-215 83 -19 0
-215 -84 0
-215 -85 21 0
-215 85 -21 0
-215 -86 0
-215 -87 23 0
-215 87 -23 0
-215 -88 0
-215 -89 25 0
-215 89 -25 0
-215 -90 0
-215 -91 27 0
-215 91 -27 0
-215 -92 0
-215 -93 29 0
-215 93 -29 0
-215 -94 0
-215 -95 31 0
-215 95 -31 0
-215 -96 0
-216 -65 -1 0
-216 65 1 0
-216 -66 0
-216 -67 -3 0
-216 67 3 0
-216 -68 0
-216 -69 -5 0
-216 69 5 0
-216 -70 0
-216 -71 -7 0
-216 71 7 0
-216 -72 0
-216 -73 -9 0
-216 73 9 0
-216 -74 0
-216 -75 -11 0
-216 75 11 0
-216 -76 0
-216 -77 -13 0
-216 77 13 0
-216 -78 0
-216 -79 -15 0
-216 79 15 0
-216 -80 0
-216 -81 -17 0
-216 81 17 0
-216 -82 0
-216 -83 -19 0
-216 83 19 0
-216 -84 0
-216 -85 -21 0
-216 85 21 0
-216 -86 0
-216 -87 -23 0
-216 87 23 0
-216 -88 0
-216 -89 -25 0
-216 89 25 0
-216 -90 0
-216 -91 -27 0
-216 91 27 0
-216 -92 0
-216 -93 -29 0
-216 93 29 0
-216 -94 0
-216 -95 -31 0
-216 95 31 0
-216 -96 0
-217 -65 0
-217 -66 34 0
-217 66 -34 0
-217 -67 0
-217 -68 36 0
-217 68 -36 0
-217 -69 0
-217 -70 38 0
-217 70 -38 0
-217 -71 0
-217 -72 40 0
-217 72 -40 0
-217 -73 0
-217 -74 42 0
-217 74 -42 0
-217 -75 0
-217 -76 44 0
-217 76 -44 0
-217 -77 0
-217 -78 46 0
-217 78 -46 0
-217 -79 0
-217 -80 48 0
-217 80 -48 0
-217 -81 0
-217 -82 50 0
-217 82 -50 0
-217 -83 0
-217 -84 52 0
-217 84 -52 0
-217 -85 0
-217 -86 54 0
-217 86 -54 0
-217 -87 0
-217 -88 56 0
-217 88 -56 0
-217 -89 0
-217 -90 58 0
-217 90 -58 0
-217 -91 0
-217 -92 60 0
-217 92 -60 0
-217 -93 0
-217 -94 62 0
-217 94 -62 0
-217 -95 0
-217 -96 64 0
-217 96 -64 0
-218 -65 0
-218 -66 -34 0
-218 66 34 0
-218 -67 0
-218 -68 -36 0
-218 68 36 0
-218 -69 0
-218 -70 -38 0
-218 70 38 0
-218 -71 0
-218 -72 -40 0
-218 72 40 0
-218 -73 0
-218 -74 -42 0
-218 74 42 0
-218 -75 0
-218 -76 -44 0
-218 76 44 0
-218 -77 0
-218 -78 -46 0
-218 78 46 0
-218 -79 0
-218 -80 -48 0
-218 80 48 0
-218 -81 0
-218 -82 -50 0
-218 82 50 0
-218 -83 0
-218 -84 -52 0
-218 84 52 0
-218 -85 0
-218 -86 -54 0
-218 86 54 0
-218 -87 0
-218 -88 -56 0
-218 88 56 0
-218 -89 0
-218 -90 -58 0
-218 90 58 0
-218 -91 0
-218 -92 -60 0
-218 92 60 0
-218 -93 0
-218 -94 -62 0
-218 94 62 0
-218 -95 0
-218 -96 -64 0
-218 96 64 0
-219 -65 33 0
-219 65 -33 0
-219 -66 0
-219 -67 35 0
-219 67 -35 0
-219 -68 0
-219 -69 37 0
-219 69 -37 0
-219 -70 0
-219 -71 39 0
-219 71 -39 0
-219 -72 0
-219 -73 41 0
-219 73 -41 0
-219 -74 0
-219 -75 43 0
-219 75 -43 0
-219 -76 0
-219 -77 45 0
-219 77 -45 0
-219 -78 0
-219 -79 47 0
-219 79 -47 0
-219 -80 0
-219 -81 49 0
-219 81 -49 0
-219 -82 0
-219 -83 51 0
-219 83 -51 0
-219 -84 0
-219 -85 53 0
-219 85 -53 0
-219 -86 0
-219 -87 55 0
-219 87 -55 0
-219 -88 0
-219 -89 57 0
-219 89 -57 0
-219 -90 0
-219 -91 59 0
-219 91 -59 0
-219 -92 0
-219 -93 61 0
-219 93 -61 0
-219 -94 0
-219 -95 63 0
-219 95 -63 0
-219 -96 0
-220 -65 -33 0
-220 65 33 0
-220 -66 0
-220 -67 -35 0
-220 67 35 0
-220 -68 0
-220 -69 -37 0
-220 69 37 0
-220 -70 0
-220 -71 -39 0
-220 71 39 0
-220 -72 0
-220 -73 -41 0
-220 73 41 0
-220 -74 0
-220 -75 -43 0
-220 75 43 0
-220 -76 0
-220 -77 -45 0
-220 77 45 0
-220 -78 0
-220 -79 -47 0
-220 79 47 0
-220 -80 0
-220 -81 -49 0
-220 81 49 0
-220 -82 0
-220 -83 -51 0
-220 83 51 0
-220 -84 0
-220 -85 -53 0
-220 85 53 0
-220 -86 0
-220 -87 -55 0
-220 87 55 0
-220 -88 0
-220 -89 -57 0
-220 89 57 0
-220 -90 0
-220 -91 -59 0
-220 91 59 0
-220 -92 0
-220 -93 -61 0
-220 93 61 0
-220 -94 0
-220 -95 -63 0
-220 95 63 0
-220 -96 0
-221 -65 0
-221 -66 0
-221 -67 0
-221 -68 0
-221 -69 0
-221 -70 0
-221 71 0
-221 72 0
-221 -73 0
-221 -74 0
-221 -75 0
-221 -76 0
-221 -77 0
-221 -78 0
-221 79 0
-221 80 0
-221 -81 0
-221 -82 0
-221 -83 0
-221 -84 0
-221 -85 0
-221 -86 0
-221 87 0
-221 88 0
-221 -89 0
-221 -90 0
-221 -91 0
-221 -92 0
-221 -93 0
-221 -94 0
-221 95 0
-221 96 0
-222 -65 0
-222 -66 0
-222 67 0
-222 68 0
-222 -69 0
-222 -70 0
-222 -71 0
-222 -72 0
-222 -73 0
-222 -74 0
-222 75 0
-222 76 0
-222 -77 0
-222 -78 0
-222 -79 0
-222 -80 0
-222 -81 0
-222 -82 0
-222 83 0
-222 84 0
-222 -85 0
-222 -86 0
-222 -87 0
-222 -88 0
-222 -89 0
-222 -90 0
-222 91 0
-222 92 0
-222 -93 0
-222 -94 0
-222 -95 0
-222 -96 0
-223 -65 0
-223 -66 0
-223 -67 0
-223 -68 0
-223 69 0
-223 70 0
-223 -71 0
-223 -72 0
-223 -73 0
-223 -74 0
-223 -75 0
-223 -76 0
-223 77 0
-223 78 0
-223 -79 0
-223 -80 0
-223 -81 0
-223 -82 0
-223 -83 0
-223 -84 0
-223 85 0
-223 86 0
-223 -87 0
-223 -88 0
-223 -89 0
-223 -90 0
-223 -91 0
-223 -92 0
-223 93 0
-223 94 0
-223 -95 0
-223 -96 0
-224 65 0
-224 66 0
-224 -67 0
-224 -68 0
-224 -69 0
-224 -70 0
-224 -71 0
-224 -72 0
-224 73 0
-224 74 0
-224 -75 0
-224 -76 0
-224 -77 0
-224 -78 0
-224 -79 0
-224 -80 0
-224 81 0
-224 82 0
-224 -83 0
-224 -84 0
-224 -85 0
-224 -86 0
-224 -87 0
-224 -88 0
-224 89 0
-224 90 0
-224 -91 0
-224 -92 0
-224 -93 0
-224 -94 0
-224 -95 0
-224 -96 0
-225 -65 0
-225 -66 0
-225 -67 0
-225 -68 0
-225 -69 0
-225 -70 0
-225 -71 0
-225 -72 0
-225 -73 0
-225 -74 0
-225 75 0
-225 76 0
-225 -77 0
-225 -78 0
-225 79 0
-225 80 0
-225 -81 0
-225 -82 0
-225 -83 0
-225 -84 0
-225 -85 0
-225 -86 0
-225 -87 0
-225 -88 0
-225 -89 0
-225 -90 0
-225 91 0
-225 92 0
-225 -93 0
-225 -94 0
-225 95 0
-225 96 0
-226 -65 0
-226 -66 0
-226 67 0
-226 68 0
-226 -69 0
-226 -70 0
-226 71 0
-226 72 0
-226 -73 0
-226 -74 0
-226 -75 0
-226 -76 0
-226 -77 0
-226 -78 0
-226 -79 0
-226 -80 0
-226 -81 0
-226 -82 0
-226 83 0
-226 84 0
-226 -85 0
-226 -86 0
-226 87 0
-226 88 0
-226 -89 0
-226 -90 0
-226 -91 0
-226 -92 0
-226 -93 0
-226 -94 0
-226 -95 0
-226 -96 0
-227 -65 0
-227 -66 0
-227 -67 0
-227 -68 0
-227 -69 0
-227 -70 0
-227 -71 0
-227 -72 0
-227 73 0
-227 74 0
-227 -75 0
-227 -76 0
-227 77 0
-227 78 0
-227 -79 0
-227 -80 0
-227 -81 0
-227 -82 0
-227 -83 0
-227 -84 0
-227 -85 0
-227 -86 0
-227 -87 0
-227 -88 0
-227 89 0
-227 90 0
-227 -91 0
-227 -92 0
-227 93 0
-227 94 0
-227 -95 0
-227 -96 0
-228 65 0
-228 66 0
-228 -67 0
-228 -68 0
-228 69 0
-228 70 0
-228 -71 0
-228 -72 0
-228 -73 0
-228 -74 0
-228 -75 0
-228 -76 0
-228 -77 0
-228 -78 0
-228 -79 0
-228 -80 0
-228 81 0
-228 82 0
-228 -83 0
-228 -84 0
-228 85 0
-228 86 0
-228 -87 0
-228 -88 0
-228 -89 0
-228 -90 0
-228 -91 0
-228 -92 0
-228 -93 0
-228 -94 0
-228 -95 0
-228 -96 0
-229 -65 0
-229 -66 0
-229 -67 0
-229 -68 0
-229 -69 0
-229 -70 0
-229 -71 0
-229 -72 0
-229 -73 0
-229 -74 0
-229 -75 0
-229 -76 0
-229 -77 0
-229 -78 0
-229 -79 0
-229 -80 0
-229 -81 0
-229 -82 0
-229 83 0
-229 84 0
-229 -85 0
-229 -86 0
-229 87 0
-229 88 0
-229 -89 0
-229 -90 0
-229 91 0
-229 92 0
-229 -93 0
-229 -94 0
-229 95 0
-229 96 0
-230 -65 0
-230 -66 0
-230 67 0
-230 68 0
-230 -69 0
-230 -70 0
-230 71 0
-230 72 0
-230 -73 0
-230 -74 0
-230 75 0
-230 76 0
-230 -77 0
-230 -78 0
-230 79 0
-230 80 0
-230 -81 0
-230 -82 0
-230 -83 0
-230 -84 0
-230 -85 0
-230 -86 0
-230 -87 0
-230 -88 0
-230 -89 0
-230 -90 0
-230 -91 0
-230 -92 0
-230 -93 0
-230 -94 0
-230 -95 0
-230 -96 0
-231 -65 0
-231 -66 0
-231 -67 0
-231 -68 0
-231 -69 0
-231 -70 0
-231 -71 0
-231 -72 0
-231 -73 0
-231 -74 0
-231 -75 0
-231 -76 0
-231 -77 0
-231 -78 0
-231 -79 0
-231 -80 0
-231 81 0
-231 82 0
-231 -83 0
-231 -84 0
-231 85 0
-231 86 0
-231 -87 0
-231 -88 0
-231 89 0
-231 90 0
-231 -91 0
-231 -92 0
-231 93 0
-231 94 0
-231 -95 0
-231 -96 0
-232 65 0
-232 66 0
-232 -67 0
-232 -68 0
-232 69 0
-232 70 0
-232 -71 0
-232 -72 0
-232 73 0
-232 74 0
-232 -75 0
-232 -76 0
-232 77 0
-232 78 0
-232 -79 0
-232 -80 0
-232 -81 0
-232 -82 0
-232 -83 0
-232 -84 0
-232 -85 0
-232 -86 0
-232 -87 0
-232 -88 0
-232 -89 0
-232 -90 0
-232 -91 0
-232 -92 0
-232 -93 0
-232 -94 0
-232 -95 0
-232 -96 0
-233 -65 0
-233 -66 0
-233 -67 3 0
-233 67 -3 0
-233 -68 4 0
-233 68 -4 0
-233 -69 0
-233 -70 0
-233 -71 7 0
-233 71 -7 0
-233 -72 8 0
-233 72 -8 0
-233 -73 0
-233 -74 0
-233 -75 11 0
-233 75 -11 0
-233 -76 12 0
-233 76 -12 0
-233 -77 0
-233 -78 0
-233 -79 15 0
-233 79 -15 0
-233 -80 16 0
-233 80 -16 0
-233 -81 0
-233 -82 0
-233 -83 19 0
-233 83 -19 0
-233 -84 20 0
-233 84 -20 0
-233 -85 0
-233 -86 0
-233 -87 23 0
-233 87 -23 0
-233 -88 24 0
-233 88 -24 0
-233 -89 0
-233 -90 0
-233 -91 27 0
-233 91 -27 0
-233 -92 28 0
-233 92 -28 0
-233 -93 0
-233 -94 0
-233 -95 31 0
-233 95 -31 0
-233 -96 32 0
-233 96 -32 0
-234 -65 0
-234 -66 0
-234 -67 -3 0
-234 67 3 0
-234 -68 -4 0
-234 68 4 0
-234 -69 0
-234 -70 0
-234 -71 -7 0
-234 71 7 0
-234 -72 -8 0
-234 72 8 0
-234 -73 0
-234 -74 0
-234 -75 -11 0
-234 75 11 0
-234 -76 -12 0
-234 76 12 0
-234 -77 0
-234 -78 0
-234 -79 -15 0
-234 79 15 0
-234 -80 -16 0
-234 80 16 0
-234 -81 0
-234 -82 0
-234 -83 -19 0
-234 83 19 0
-234 -84 -20 0
-234 84 20 0
-234 -85 0
-234 -86 0
-234 -87 -23 0
-234 87 23 0
-234 -88 -24 0
-234 88 24 0
-234 -89 0
-234 -90 0
-234 -91 -27 0
-234 91 27 0
-234 -92 -28 0
-234 92 28 0
-234 -93 0
-234 -94 0
-234 -95 -31 0
-234 95 31 0
-234 -96 -32 0
-234 96 32 0
-235 -65 1 0
-235 65 -1 0
-235 -66 2 0
-235 66 -2 0
-235 -67 0
-235 -68 0
-235 -69 5 0
-235 69 -5 0
-235 -70 6 0
-235 70 -6 0
-235 -71 0
-235 -72 0
-235 -73 9 0
-235 73 -9 0
-235 -74 10 0
-235 74 -10 0
-235 -75 0
-235 -76 0
-235 -77 13 0
-235 77 -13 0
-235 -78 14 0
-235 78 -14 0
-235 -79 0
-235 -80 0
-235 -81 17 0
-235 81 -17 0
-235 -82 18 0
-235 82 -18 0
-235 -83 0
-235 -84 0
-235 -85 21 0
-235 85 -21 0
-235 -86 22 0
-235 86 -22 0
-235 -87 0
-235 -88 0
-235 -89 25 0
-235 89 -25 0
-235 -90 26 0
-235 90 -26 0
-235 -91 0
-235 -92 0
-235 -93 29 0
-235 93 -29 0
-235 -94 30 0
-235 94 -30 0
-235 -95 0
-235 -96 0
-236 -65 -1 0
-236 65 1 0
-236 -66 -2 0
-236 66 2 0
-236 -67 0
-236 -68 0
-236 -69 -5 0
-236 69 5 0
-236 -70 -6 0
-236 70 6 0
-236 -71 0
-236 -72 0
-236 -73 -9 0
-236 73 9 0
-236 -74 -10 0
-236 74 10 0
-236 -75 0
-236 -76 0
-236 -77 -13 0
-236 77 13 0
-236 -78 -14 0
-236 78 14 0
-236 -79 0
-236 -80 0
-236 -81 -17 0
-236 81 17 0
-236 -82 -18 0
-236 82 18 0
-236 -83 0
-236 -84 0
-236 -85 -21 0
-236 85 21 0
-236 -86 -22 0
-236 86 22 0
-236 -87 0
-236 -88 0
-236 -89 -25 0
-236 89 25 0
-236 -90 -26 0
-236 90 26 0
-236 -91 0
-236 -92 0
-236 -93 -29 0
-236 93 29 0
-236 -94 -30 0
-236 94 30 0
-236 -95 0
-236 -96 0
-237 -65 0
-237 -66 0
-237 -67 35 0
-237 67 -35 0
-237 -68 36 0
-237 68 -36 0
-237 -69 0
-237 -70 0
-237 -71 39 0
-237 71 -39 0
-237 -72 40 0
-237 72 -40 0
-237 -73 0
-237 -74 0
-237 -75 43 0
-237 75 -43 0
-237 -76 44 0
-237 76 -44 0
-237 -77 0
-237 -78 0
-237 -79 47 0
-237 79 -47 0
-237 -80 48 0
-237 80 -48 0
-237 -81 0
-237 -82 0
-237 -83 51 0
-237 83 -51 0
-237 -84 52 0
-237 84 -52 0
-237 -85 0
-237 -86 0
-237 -87 55 0
-237 87 -55 0
-237 -88 56 0
-237 88 -56 0
-237 -89 0
-237 -90 0
-237 -91 59 0
-237 91 -59 0
-237 -92 60 0
-237 92 -60 0
-237 -93 0
-237 -94 0
-237 -95 63 0
-237 95 -63 0
-237 -96 64 0
-237 96 -64 0
-238 -65 0
-238 -66 0
-238 -67 -35 0
-238 67 35 0
-238 -68 -36 0
-238 68 36 0
-238 -69 0
-238 -70 0
-238 -71 -39 0
-238 71 39 0
-238 -72 -40 0
-238 72 40 0
-238 -73 0
-238 -74 0
-238 -75 -43 0
-238 75 43 0
-238 -76 -44 0
-238 76 44 0
-238 -77 0
-238 -78 0
-238 -79 -47 0
-238 79 47 0
-238 -80 -48 0
-238 80 48 0
-238 -81 0
-238 -82 0
-238 -83 -51 0
-238 83 51 0
-238 -84 -52 0
-238 84 52 0
-238 -85 0
-238 -86 0
-238 -87 -55 0
-238 87 55 0
-238 -88 -56 0
-238 88 56 0
-238 -89 0
-238 -90 0
-238 -91 -59 0
-238 91 59 0
-238 -92 -60 0
-238 92 60 0
-238 -93 0
-238 -94 0
-238 -95 -63 0
-238 95 63 0
-238 -96 -64 0
-238 96 64 0
-239 -65 33 0
-239 65 -33 0
-239 -66 34 0
-239 66 -34 0
-239 -67 0
-239 -68 0
-239 -69 37 0
-239 69 -37 0
-239 -70 38 0
-239 70 -38 0
-239 -71 0
-239 -72 0
-239 -73 41 0
-239 73 -41 0
-239 -74 42 0
-239 74 -42 0
-239 -75 0
-239 -76 0
-239 -77 45 0
-239 77 -45 0
-239 -78 46 0
-239 78 -46 0
-239 -79 0
-239 -80 0
-239 -81 49 0
-239 81 -49 0
-239 -82 50 0
-239 82 -50 0
-239 -83 0
-239 -84 0
-239 -85 53 0
-239 85 -53 0
-239 -86 54 0
-239 86 -54 0
-239 -87 0
-239 -88 0
-239 -89 57 0
-239 89 -57 0
-239 -90 58 0
-239 90 -58 0
-239 -91 0
-239 -92 0
-239 -93 61 0
-239 93 -61 0
-239 -94 62 0
-239 94 -62 0
-239 -95 0
-239 -96 0
-240 -65 -33 0
-240 65 33 0
-240 -66 -34 0
-240 66 34 0
-240 -67 0
-240 -68 0
-240 -69 -37 0
-240 69 37 0
-240 -70 -38 0
-240 70 38 0
-240 -71 0
-240 -72 0
-240 -73 -41 0
-240 73 41 0
-240 -74 -42 0
-240 74 42 0
-240 -75 0
-240 -76 0
-240 -77 -45 0
-240 77 45 0
-240 -78 -46 0
-240 78 46 0
-240 -79 0
-240 -80 0
-240 -81 -49 0
-240 81 49 0
-240 -82 -50 0
-240 82 50 0
-240 -83 0
-240 -84 0
-240 -85 -53 0
-240 85 53 0
-240 -86 -54 0
-240 86 54 0
-240 -87 0
-240 -88 0
-240 -89 -57 0
-240 89 57 0
-240 -90 -58 0
-240 90 58 0
-240 -91 0
-240 -92 0
-240 -93 -61 0
-240 93 61 0
-240 -94 -62 0
-240 94 62 0
-240 -95 0
-240 -96 0
-241 -65 0
-241 -66 0
-241 -67 0
-241 -68 0
-241 -69 0
-241 -70 0
-241 -71 0
-241 -72 0
-241 -73 0
-241 -74 0
-241 -75 0
-241 -76 0
-241 77 0
-241 78 0
-241 79 0
-241 80 0
-241 -81 0
-241 -82 0
-241 -83 0
-241 -84 0
-241 -85 0
-241 -86 0
-241 -87 0
-241 -88 0
-241 -89 0
-241 -90 0
-241 -91 0
-241 -92 0
-241 93 0
-241 94 0
-241 95 0
-241 96 0
-242 -65 0
-242 -66 0
-242 -67 0
-242 -68 0
-242 69 0
-242 70 0
-242 71 0
-242 72 0
-242 -73 0
-242 -74 0
-242 -75 0
-242 -76 0
-242 -77 0
-242 -78 0
-242 -79 0
-242 -80 0
-242 -81 0
-242 -82 0
-242 -83 0
-242 -84 0
-242 85 0
-242 86 0
-242 87 0
-242 88 0
-242 -89 0
-242 -90 0
-242 -91 0
-242 -92 0
-242 -93 0
-242 -94 0
-242 -95 0
-242 -96 0
-243 -65 0
-243 -66 0
-243 -67 0
-243 -68 0
-243 -69 0
-243 -70 0
-243 -71 0
-243 -72 0
-243 73 0
-243 74 0
-243 75 0
-243 76 0
-243 -77 0
-243 -78 0
-243 -79 0
-243 -80 0
-243 -81 0
-243 -82 0
-243 -83 0
-243 -84 0
-243 -85 0
-243 -86 0
-243 -87 0
-243 -88 0
-243 89 0
-243 90 0
-243 91 0
-243 92 0
-243 -93 0
-243 -94 0
-243 -95 0
-243 -96 0
-244 65 0
-244 66 0
-244 67 0
-244 68 0
-244 -69 0
-244 -70 0
-244 -71 0
-244 -72 0
-244 -73 0
-244 -74 0
-244 -75 0
-244 -76 0
-244 -77 0
-244 -78 0
-244 -79 0
-244 -80 0
-244 81 0
-244 82 0
-244 83 0
-244 84 0
-244 -85 0
-244 -86 0
-244 -87 0
-244 -88 0
-244 -89 0
-244 -90 0
-244 -91 0
-244 -92 0
-244 -93 0
-244 -94 0
-244 -95 0
-244 -96 0
-245 -65 0
-245 -66 0
-245 -67 0
-245 -68 0
-245 -69 0
-245 -70 0
-245 -71 0
-245 -72 0
-245 -73 0
-245 -74 0
-245 -75 0
-245 -76 0
-245 -77 0
-245 -78 0
-245 -79 0
-245 -80 0
-245 -81 0
-245 -82 0
-245 -83 0
-245 -84 0
-245 85 0
-245 86 0
-245 87 0
-245 88 0
-245 -89 0
-245 -90 0
-245 -91 0
-245 -92 0
-245 93 0
-245 94 0
-245 95 0
-245 96 0
-246 -65 0
-246 -66 0
-246 -67 0
-246 -68 0
-246 69 0
-246 70 0
-246 71 0
-246 72 0
-246 -73 0
-246 -74 0
-246 -75 0
-246 -76 0
-246 77 0
-246 78 0
-246 79 0
-246 80 0
-246 -81 0
-246 -82 0
-246 -83 0
-246 -84 0
-246 -85 0
-246 -86 0
-246 -87 0
-246 -88 0
-246 -89 0
-246 -90 0
-246 -91 0
-246 -92 0
-246 -93 0
-246 -94 0
-246 -95 0
-246 -96 0
-247 -65 0
-247 -66 0
-247 -67 0
-247 -68 0
-247 -69 0
-247 -70 0
-247 -71 0
-247 -72 0
-247 -73 0
-247 -74 0
-247 -75 0
-247 -76 0
-247 -77 0
-247 -78 0
-247 -79 0
-247 -80 0
-247 81 0
-247 82 0
-247 83 0
-247 84 0
-247 -85 0
-247 -86 0
-247 -87 0
-247 -88 0
-247 89 0
-247 90 0
-247 91 0
-247 92 0
-247 -93 0
-247 -94 0
-247 -95 0
-247 -96 0
-248 65 0
-248 66 0
-248 67 0
-248 68 0
-248 -69 0
-248 -70 0
-248 -71 0
-248 -72 0
-248 73 0
-248 74 0
-248 75 0
-248 76 0
-248 -77 0
-248 -78 0
-248 -79 0
-248 -80 0
-248 -81 0
-248 -82 0
-248 -83 0
-248 -84 0
-248 -85 0
-248 -86 0
-248 -87 0
-248 -88 0
-248 -89 0
-248 -90 0
-248 -91 0
-248 -92 0
-248 -93 0
-248 -94 0
-248 -95 0
-248 -96 0
-249 -65 0
-249 -66 0
-249 -67 0
-249 -68 0
-249 -69 5 0
-249 69 -5 0
-249 -70 6 0
-249 70 -6 0
-249 -71 7 0
-249 71 -7 0
-249 -72 8 0
-249 72 -8 0
-249 -73 0
-249 -74 0
-249 -75 0
-249 -76 0
-249 -77 13 0
-249 77 -13 0
-249 -78 14 0
-249 78 -14 0
-249 -79 15 0
-249 79 -15 0
-249 -80 16 0
-249 80 -16 0
-249 -81 0
-249 -82 0
-249 -83 0
-249 -84 0
-249 -85 21 0
-249 85 -21 0
-249 -86 22 0
-249 86 -22 0
-249 -87 23 0
-249 87 -23 0
-249 -88 24 0
-249 88 -24 0
-249 -89 0
-249 -90 0
-249 -91 0
-249 -92 0
-249 -93 29 0
-249 93 -29 0
-249 -94 30 0
-249 94 -30 0
-249 -95 31 0
-249 95 -31 0
-249 -96 32 0
-249 96 -32 0
-250 -65 0
-250 -66 0
-250 -67 0
-250 -68 0
-250 -69 -5 0
-250 69 5 0
-250 -70 -6 0
-250 70 6 0
-250 -71 -7 0
-250 71 7 0
-250 -72 -8 0
-250 72 8 0
-250 -73 0
-250 -74 0
-250 -75 0
-250 -76 0
-250 -77 -13 0
-250 77 13 0
-250 -78 -14 0
-250 78 14 0
-250 -79 -15 0
-250 79 15 0
-250 -80 -16 0
-250 80 16 0
-250 -81 0
-250 -82 0
-250 -83 0
-250 -84 0
-250 -85 -21 0
-250 85 21 0
-250 -86 -22 0
-250 86 22 0
-250 -87 -23 0
-250 87 23 0
-250 -88 -24 0
-250 88 24 0
-250 -89 0
-250 -90 0
-250 -91 0
-250 -92 0
-250 -93 -29 0
-250 93 29 0
-250 -94 -30 0
-250 94 30 0
-250 -95 -31 0
-250 95 31 0
-250 -96 -32 0
-250 96 32 0
-251 -65 1 0
-251 65 -1 0
-251 -66 2 0
-251 66 -2 0
-251 -67 3 0
-251 67 -3 0
-251 -68 4 0
-251 68 -4 0
-251 -69 0
-251 -70 0
-251 -71 0
-251 -72 0
-251 -73 9 0
-251 73 -9 0
-251 -74 10 0
-251 74 -10 0
-251 -75 11 0
-251 75 -11 0
-251 -76 12 0
-251 76 -12 0
-251 -77 0
-251 -78 0
-251 -79 0
-251 -80 0
-251 -81 17 0
-251 81 -17 0
-251 -82 18 0
-251 82 -18 0
-251 -83 19 0
-251 83 -19 0
-251 -84 20 0
-251 84 -20 0
-251 -85 0
-251 -86 0
-251 -87 0
-251 -88 0
-251 -89 25 0
-251 89 -25 0
-251 -90 26 0
-251 90 -26 0
-251 -91 27 0
-251 91 -27 0
-251 -92 28 0
-251 92 -28 0
-251 -93 0
-251 -94 0
-251 -95 0
-251 -96 0
-252 -65 -1 0
-252 65 1 0
-252 -66 -2 0
-252 66 2 0
-252 -67 -3 0
-252 67 3 0
-252 -68 -4 0
-252 68 4 0
-252 -69 0
-252 -70 0
-252 -71 0
-252 -72 0
-252 -73 -9 0
-252 73 9 0
-252 -74 -10 0
-252 74 10 0
-252 -75 -11 0
-252 75 11 0
-252 -76 -12 0
-252 76 12 0
-252 -77 0
-252 -78 0
-252 -79 0
-252 -80 0
-252 -81 -17 0
-252 81 17 0
-252 -82 -18 0
-252 82 18 0
-252 -83 -19 0
-252 83 19 0
-252 -84 -20 0
-252 84 20 0
-252 -85 0
-252 -86 0
-252 -87 0
-252 -88 0
-252 -89 -25 0
-252 89 25 0
-252 -90 -26 0
-252 90 26 0
-252 -91 -27 0
-252 91 27 0
-252 -92 -28 0
-252 92 28 0
-252 -93 0
-252 -94 0
-252 -95 0
-252 -96 0
-253 -65 0
-253 -66 0
-253 -67 0
-253 -68 0
-253 -69 37 0
-253 69 -37 0
-253 -70 38 0
-253 70 -38 0
-253 -71 39 0
-253 71 -39 0
-253 -72 40 0
-253 72 -40 0
-253 -73 0
-253 -74 0
-253 -75 0
-253 -76 0
-253 -77 45 0
-253 77 -45 0
-253 -78 46 0
-253 78 -46 0
-253 -79 47 0
-253 79 -47 0
-253 -80 48 0
-253 80 -48 0
-253 -81 0
-253 -82 0
-253 -83 0
-253 -84 0
-253 -85 53 0
-253 85 -53 0
-253 -86 54 0
-253 86 -54 0
-253 -87 55 0
-253 87 -55 0
-253 -88 56 0
-253 88 -56 0
-253 -89 0
-253 -90 0
-253 -91 0
-253 -92 0
-253 -93 61 0
-253 93 -61 0
-253 -94 62 0
-253 94 -62 0
-253 -95 63 0
-253 95 -63 0
-253 -96 64 0
-253 96 -64 0
-254 -65 0
-254 -66 0
-254 -67 0
-254 -68 0
-254 -69 -37 0
-254 69 37 0
-254 -70 -38 0
-254 70 38 0
-254 -71 -39 0
-254 71 39 0
-254 -72 -40 0
-254 72 40 0
-254 -73 0
-254 -74 0
-254 -75 0
-254 -76 0
-254 -77 -45 0
-254 77 45 0
-254 -78 -46 0
-254 78 46 0
-254 -79 -47 0
-254 79 47 0
-254 -80 -48 0
-254 80 48 0
-254 -81 0
-254 -82 0
-254 -83 0
-254 -84 0
-254 -85 -53 0
-254 85 53 0
-254 -86 -54 0
-254 86 54 0
-254 -87 -55 0
-254 87 55 0
-254 -88 -56 0
-254 88 56 0
-254 -89 0
-254 -90 0
-254 -91 0
-254 -92 0
-254 -93 -61 0
-254 93 61 0
-254 -94 -62 0
-254 94 62 0
-254 -95 -63 0
-254 95 63 0
-254 -96 -64 0
-254 96 64 0
-255 -65 33 0
-255 65 -33 0
-255 -66 34 0
-255 66 -34 0
-255 -67 35 0
-255 67 -35 0
-255 -68 36 0
-255 68 -36 0
-255 -69 0
-255 -70 0
-255 -71 0
-255 -72 0
-255 -73 41 0
-255 73 -41 0
-255 -74 42 0
-255 74 -42 0
-255 -75 43 0
-255 75 -43 0
-255 -76 44 0
-255 76 -44 0
-255 -77 0
-255 -78 0
-255 -79 0
-255 -80 0
-255 -81 49 0
-255 81 -49 0
-255 -82 50 0
-255 82 -50 0
-255 -83 51 0
-255 83 -51 0
-255 -84 52 0
-255 84 -52 0
-255 -85 0
-255 -86 0
-255 -87 0
-255 -88 0
-255 -89 57 0
-255 89 -57 0
-255 -90 58 0
-255 90 -58 0
-255 -91 59 0
-255 91 -59 0
-255 -92 60 0
-255 92 -60 0
-255 -93 0
-255 -94 0
-255 -95 0
-255 -96 0
-256 -65 -33 0
-256 65 33 0
-256 -66 -34 0
-256 66 34 0
-256 -67 -35 0
-256 67 35 0
-256 -68 -36 0
-256 68 36 0
-256 -69 0
-256 -70 0
-256 -71 0
-256 -72 0
-256 -73 -41 0
-256 73 41 0
-256 -74 -42 0
-256 74 42 0
-256 -75 -43 0
-256 75 43 0
-256 -76 -44 0
-256 76 44 0
-256 -77 0
-256 -78 0
-256 -79 0
-256 -80 0
-256 -81 -49 0
-256 81 49 0
-256 -82 -50 0
-256 82 50 0
-256 -83 -51 0
-256 83 51 0
-256 -84 -52 0
-256 84 52 0
-256 -85 0
-256 -86 0
-256 -87 0
-256 -88 0
-256 -89 -57 0
-256 89 57 0
-256 -90 -58 0
-256 90 58 0
-256 -91 -59 0
-256 91 59 0
-256 -92 -60 0
-256 92 60 0
-256 -93 0
-256 -94 0
-256 -95 0
-256 -96 0
-257 -65 0
-257 -66 0
-257 -67 0
-257 -68 0
-257 -69 0
-257 -70 0
-257 -71 0
-257 -72 0
-257 -73 0
-257 -74 0
-257 -75 0
-257 -76 0
-257 -77 0
-257 -78 0
-257 -79 0
-257 -80 0
-257 -81 0
-257 -82 0
-257 -83 0
-257 -84 0
-257 -85 0
-257 -86 0
-257 -87 0
-257 -88 0
-257 89 0
-257 90 0
-257 91 0
-257 92 0
-257 93 0
-257 94 0
-257 95 0
-257 96 0
-258 -65 0
-258 -66 0
-258 -67 0
-258 -68 0
-258 -69 0
-258 -70 0
-258 -71 0
-258 -72 0
-258 73 0
-258 74 0
-258 75 0
-258 76 0
-258 77 0
-258 78 0
-258 79 0
-258 80 0
-258 -81 0
-258 -82 0
-258 -83 0
-258 -84 0
-258 -85 0
-258 -86 0
-258 -87 0
-258 -88 0
-258 -89 0
-258 -90 0
-258 -91 0
-258 -92 0
-258 -93 0
-258 -94 0
-258 -95 0
-258 -96 0
-259 -65 0
-259 -66 0
-259 -67 0
-259 -68 0
-259 -69 0
-259 -70 0
-259 -71 0
-259 -72 0
-259 -73 0
-259 -74 0
-259 -75 0
-259 -76 0
-259 -77 0
-259 -78 0
-259 -79 0
-259 -80 0
-259 81 0
-259 82 0
-259 83 0
-259 84 0
-259 85 0
-259 86 0
-259 87 0
-259 88 0
-259 -89 0
-259 -90 0
-259 -91 0
-259 -92 0
-259 -93 0
-259 -94 0
-259 -95 0
-259 -96 0
-260 65 0
-260 66 0
-260 67 0
-260 68 0
-260 69 0
-260 70 0
-260 71 0
-260 72 0
-260 -73 0
-260 -74 0
-260 -75 0
-260 -76 0
-260 -77 0
-260 -78 0
-260 -79 0
-260 -80 0
-260 -81 0
-260 -82 0
-260 -83 0
-260 -84 0
-260 -85 0
-260 -86 0
-260 -87 0
-260 -88 0
-260 -89 0
-260 -90 0
-260 -91 0
-260 -92 0
-260 -93 0
-260 -94 0
-260 -95 0
-260 -96 0
-261 -65 0
-261 -66 0
-261 -67 0
-261 -68 0
-261 -69 0
-261 -70 0
-261 -71 0
-261 -72 0
-261 -73 9 0
-261 73 -9 0
-261 -74 10 0
-261 74 -10 0
-261 -75 11 0
-261 75 -11 0
-261 -76 12 0
-261 76 -12 0
-261 -77 13 0
-261 77 -13 0
-261 -78 14 0
-261 78 -14 0
-261 -79 15 0
-261 79 -15 0
-261 -80 16 0
-261 80 -16 0
-261 -81 0
-261 -82 0
-261 -83 0
-261 -84 0
-261 -85 0
-261 -86 0
-261 -87 0
-261 -88 0
-261 -89 25 0
-261 89 -25 0
-261 -90 26 0
-261 90 -26 0
-261 -91 27 0
-261 91 -27 0
-261 -92 28 0
-261 92 -28 0
-261 -93 29 0
-261 93 -29 0
-261 -94 30 0
-261 94 -30 0
-261 -95 31 0
-261 95 -31 0
-261 -96 32 0
-261 96 -32 0
-262 -65 0
-262 -66 0
-262 -67 0
-262 -68 0
-262 -69 0
-262 -70 0
-262 -71 0
-262 -72 0
-262 -73 -9 0
-262 73 9 0
-262 -74 -10 0
-262 74 10 0
-262 -75 -11 0
-262 75 11 0
-262 -76 -12 0
-262 76 12 0
-262 -77 -13 0
-262 77 13 0
-262 -78 -14 0
-262 78 14 0
-262 -79 -15 0
-262 79 15 0
-262 -80 -16 0
-262 80 16 0
-262 -81 0
-262 -82 0
-262 -83 0
-262 -84 0
-262 -85 0
-262 -86 0
-262 -87 0
-262 -88 0
-262 -89 -25 0
-262 89 25 0
-262 -90 -26 0
-262 90 26 0
-262 -91 -27 0
-262 91 27 0
-262 -92 -28 0
-262 92 28 0
-262 -93 -29 0
-262 93 29 0
-262 -94 -30 0
-262 94 30 0
-262 -95 -31 0
-262 95 31 0
-262 -96 -32 0
-262 96 32 0
-263 -65 1 0
-263 65 -1 0
-263 -66 2 0
-263 66 -2 0
-263 -67 3 0
-263 67 -3 0
-263 -68 4 0
-263 68 -4 0
-263 -69 5 0
-263 69 -5 0
-263 -70 6 0
-263 70 -6 0
-263 -71 7 0
-263 71 -7 0
-263 -72 8 0
-263 72 -8 0
-263 -73 0
-263 -74 0
-263 -75 0
-263 -76 0
-263 -77 0
-263 -78 0
-263 -79 0
-263 -80 0
-263 -81 17 0
-263 81 -17 0
-263 -82 18 0
-263 82 -18 0
-263 -83 19 0
-263 83 -19 0
-263 -84 20 0
-263 84 -20 0
-263 -85 21 0
-263 85 -21 0
-263 -86 22 0
-263 86 -22 0
-263 -87 23 0
-263 87 -23 0
-263 -88 24 0
-263 88 -24 0
-263 -89 0
-263 -90 0
-263 -91 0
-263 -92 0
-263 -93 0
-263 -94 0
-263 -95 0
-263 -96 0
-264 -65 -1 0
-264 65 1 0
-264 -66 -2 0
-264 66 2 0
-264 -67 -3 0
-264 67 3 0
-264 -68 -4 0
-264 68 4 0
-264 -69 -5 0
-264 69 5 0
-264 -70 -6 0
-264 70 6 0
-264 -71 -7 0
-264 71 7 0
-264 -72 -8 0
-264 72 8 0
-264 -73 0
-264 -74 0
-264 -75 0
-264 -76 0
-264 -77 0
-264 -78 0
-264 -79 0
-264 -80 0
-264 -81 -17 0
-264 81 17 0
-264 -82 -18 0
-264 82 18 0
-264 -83 -19 0
-264 83 19 0
-264 -84 -20 0
-264 84 20 0
-264 -85 -21 0
-264 85 21 0
-264 -86 -22 0
-264 86 22 0
-264 -87 -23 0
-264 87 23 0
-264 -88 -24 0
-264 88 24 0
-264 -89 0
-264 -90 0
-264 -91 0
-264 -92 0
-264 -93 0
-264 -94 0
-264 -95 0
-264 -96 0
-265 -65 0
-265 -66 0
-265 -67 0
-265 -68 0
-265 -69 0
-265 -70 0
-265 -71 0
-265 -72 0
-265 -73 41 0
-265 73 -41 0
-265 -74 42 0
-265 74 -42 0
-265 -75 43 0
-265 75 -43 0
-265 -76 44 0
-265 76 -44 0
-265 -77 45 0
-265 77 -45 0
-265 -78 46 0
-265 78 -46 0
-265 -79 47 0
-265 79 -47 0
-265 -80 48 0
-265 80 -48 0
-265 -81 0
-265 -82 0
-265 -83 0
-265 -84 0
-265 -85 0
-265 -86 0
-265 -87 0
-265 -88 0
-265 -89 57 0
-265 89 -57 0
-265 -90 58 0
-265 90 -58 0
-265 -91 59 0
-265 91 -59 0
-265 -92 60 0
-265 92 -60 0
-265 -93 61 0
-265 93 -61 0
-265 -94 62 0
-265 94 -62 0
-265 -95 63 0
-265 95 -63 0
-265 -96 64 0
-265 96 -64 0
-266 -65 0
-266 -66 0
-266 -67 0
-266 -68 0
-266 -69 0
-266 -70 0
-266 -71 0
-266 -72 0
-266 -73 -41 0
-266 73 41 0
-266 -74 -42 0
-266 74 42 0
-266 -75 -43 0
-266 75 43 0
-266 -76 -44 0
-266 76 44 0
-266 -77 -45 0
-266 77 45 0
-266 -78 -46 0
-266 78 46 0
-266 -79 -47 0
-266 79 47 0
-266 -80 -48 0
-266 80 48 0
-266 -81 0
-266 -82 0
-266 -83 0
-266 -84 0
-266 -85 0
-266 -86 0
-266 -87 0
-266 -88 0
-266 -89 -57 0
-266 89 57 0
-266 -90 -58 0
-266 90 58 0
-266 -91 -59 0
-266 91 59 0
-266 -92 -60 0
-266 92 60 0
-266 -93 -61 0
-266 93 61 0
-266 -94 -62 0
-266 94 62 0
-266 -95 -63 0
-266 95 63 0
-266 -96 -64 0
-266 96 64 0
-267 -65 33 0
-267 65 -33 0
-267 -66 34 0
-267 66 -34 0
-267 -67 35 0
-267 67 -35 0
-267 -68 36 0
-267 68 -36 0
-267 -69 37 0
-267 69 -37 0
-267 -70 38 0
-267 70 -38 0
-267 -71 39 0
-267 71 -39 0
-267 -72 40 0
-267 72 -40 0
-267 -73 0
-267 -74 0
-267 -75 0
-267 -76 0
-267 -77 0
-267 -78 0
-267 -79 0
-267 -80 0
-267 -81 49 0
-267 81 -49 0
-267 -82 50 0
-267 82 -50 0
-267 -83 51 0
-267 83 -51 0
-267 -84 52 0
-267 84 -52 0
-267 -85 53 0
-267 85 -53 0
-267 -86 54 0
-267 86 -54 0
-267 -87 55 0
-267 87 -55 0
-267 -88 56 0
-267 88 -56 0
-267 -89 0
-267 -90 0
-267 -91 0
-267 -92 0
-267 -93 0
-267 -94 0
-267 -95 0
-267 -96 0
-268 -65 -33 0
-268 65 33 0
-268 -66 -34 0
-268 66 34 0
-268 -67 -35 0
-268 67 35 0
-268 -68 -36 0
-268 68 36 0
-268 -69 -37 0
-268 69 37 0
-268 -70 -38 0
-268 70 38 0
-268 -71 -39 0
-268 71 39 0
-268 -72 -40 0
-268 72 40 0
-268 -73 0
-268 -74 0
-268 -75 0
-268 -76 0
-268 -77 0
-268 -78 0
-268 -79 0
-268 -80 0
-268 -81 -49 0
-268 81 49 0
-268 -82 -50 0
-268 82 50 0
-268 -83 -51 0
-268 83 51 0
-268 -84 -52 0
-268 84 52 0
-268 -85 -53 0
-268 85 53 0
-268 -86 -54 0
-268 86 54 0
-268 -87 -55 0
-268 87 55 0
-268 -88 -56 0
-268 88 56 0
-268 -89 0
-268 -90 0
-268 -91 0
-268 -92 0
-268 -93 0
-268 -94 0
-268 -95 0
-268 -96 0
-269 -65 0
-269 -66 0
-269 -67 0
-269 -68 0
-269 -69 0
-269 -70 0
-269 -71 0
-269 -72 0
-269 -73 0
-269 -74 0
-269 -75 0
-269 -76 0
-269 -77 0
-269 -78 0
-269 -79 0
-269 -80 0
-269 -81 17 0
-269 81 -17 0
-269 -82 18 0
-269 82 -18 0
-269 -83 19 0
-269 83 -19 0
-269 -84 20 0
-269 84 -20 0
-269 -85 21 0
-269 85 -21 0
-269 -86 22 0
-269 86 -22 0
-269 -87 23 0
-269 87 -23 0
-269 -88 24 0
-269 88 -24 0
-269 -89 25 0
-269 89 -25 0
-269 -90 26 0
-269 90 -26 0
-269 -91 27 0
-269 91 -27 0
-269 -92 28 0
-269 92 -28 0
-269 -93 29 0
-269 93 -29 0
-269 -94 30 0
-269 94 -30 0
-269 -95 31 0
-269 95 -31 0
-269 -96 32 0
-269 96 -32 0
-270 -65 0
-270 -66 0
-270 -67 0
-270 -68 0
-270 -69 0
-270 -70 0
-270 -71 0
-270 -72 0
-270 -73 0
-270 -74 0
-270 -75 0
-270 -76 0
-270 -77 0
-270 -78 0
-270 -79 0
-270 -80 0
-270 -81 -17 0
-270 81 17 0
-270 -82 -18 0
-270 82 18 0
-270 -83 -19 0
-270 83 19 0
-270 -84 -20 0
-270 84 20 0
-270 -85 -21 0
-270 85 21 0
-270 -86 -22 0
-270 86 22 0
-270 -87 -23 0
-270 87 23 0
-270 -88 -24 0
-270 88 24 0
-270 -89 -25 0
-270 89 25 0
-270 -90 -26 0
-270 90 26 0
-270 -91 -27 0
-270 91 27 0
-270 -92 -28 0
-270 92 28 0
-270 -93 -29 0
-270 93 29 0
-270 -94 -30 0
-270 94 30 0
-270 -95 -31 0
-270 95 31 0
-270 -96 -32 0
-270 96 32 0
-271 -65 1 0
-271 65 -1 0
-271 -66 2 0
-271 66 -2 0
-271 -67 3 0
-271 67 -3 0
-271 -68 4 0
-271 68 -4 0
-271 -69 5 0
-271 69 -5 0
-271 -70 6 0
-271 70 -6 0
-271 -71 7 0
-271 71 -7 0
-271 -72 8 0
-271 72 -8 0
-271 -73 9 0
-271 73 -9 0
-271 -74 10 0
-271 74 -10 0
-271 -75 11 0
-271 75 -11 0
-271 -76 12 0
-271 76 -12 0
-271 -77 13 0
-271 77 -13 0
-271 -78 14 0
-271 78 -14 0
-271 -79 15 0
-271 79 -15 0
-271 -80 16 0
-271 80 -16 0
-271 -81 0
-271 -82 0
-271 -83 0
-271 -84 0
-271 -85 0
-271 -86 0
-271 -87 0
-271 -88 0
-271 -89 0
-271 -90 0
-271 -91 0
-271 -92 0
-271 -93 0
-271 -94 0
-271 -95 0
-271 -96 0
-272 -65 -1 0
-272 65 1 0
-272 -66 -2 0
-272 66 2 0
-272 -67 -3 0
-272 67 3 0
-272 -68 -4 0
-272 68 4 0
-272 -69 -5 0
-272 69 5 0
-272 -70 -6 0
-272 70 6 0
-272 -71 -7 0
-272 71 7 0
-272 -72 -8 0
-272 72 8 0
-272 -73 -9 0
-272 73 9 0
-272 -74 -10 0
-272 74 10 0
-272 -75 -11 0
-272 75 11 0
-272 -76 -12 0
-272 76 12 0
-272 -77 -13 0
-272 77 13 0
-272 -78 -14 0
-272 78 14 0
-272 -79 -15 0
-272 79 15 0
-272 -80 -16 0
-272 80 16 0
-272 -81 0
-272 -82 0
-272 -83 0
-272 -84 0
-272 -85 0
-272 -86 0
-272 -87 0
-272 -88 0
-272 -89 0
-272 -90 0
-272 -91 0
-272 -92 0
-272 -93 0
-272 -94 0
-272 -95 0
-272 -96 0
-273 -65 0
-273 -66 0
-273 -67 0
-273 -68 0
-273 -69 0
-273 -70 0
-273 -71 0
-273 -72 0
-273 -73 0
-273 -74 0
-273 -75 0
-273 -76 0
-273 -77 0
-273 -78 0
-273 -79 0
-273 -80 0
-273 -81 49 0
-273 81 -49 0
-273 -82 50 0
-273 82 -50 0
-273 -83 51 0
-273 83 -51 0
-273 -84 52 0
-273 84 -52 0
-273 -85 53 0
-273 85 -53 0
-273 -86 54 0
-273 86 -54 0
-273 -87 55 0
-273 87 -55 0
-273 -88 56 0
-273 88 -56 0
-273 -89 57 0
-273 89 -57 0
-273 -90 58 0
-273 90 -58 0
-273 -91 59 0
-273 91 -59 0
-273 -92 60 0
-273 92 -60 0
-273 -93 61 0
-273 93 -61 0
-273 -94 62 0
-273 94 -62 0
-273 -95 63 0
-273 95 -63 0
-273 -96 64 0
-273 96 -64 0
-274 -65 0
-274 -66 0
-274 -67 0
-274 -68 0
-274 -69 0
-274 -70 0
-274 -71 0
-274 -72 0
-274 -73 0
-274 -74 0
-274 -75 0
-274 -76 0
-274 -77 0
-274 -78 0
-274 -79 0
-274 -80 0
-274 -81 -49 0
-274 81 49 0
-274 -82 -50 0
-274 82 50 0
-274 -83 -51 0
-274 83 51 0
-274 -84 -52 0
-274 84 52 0
-274 -85 -53 0
-274 85 53 0
-274 -86 -54 0
-274 86 54 0
-274 -87 -55 0
-274 87 55 0
-274 -88 -56 0
-274 88 56 0
-274 -89 -57 0
-274 89 57 0
-274 -90 -58 0
-274 90 58 0
-274 -91 -59 0
-274 91 59 0
-274 -92 -60 0
-274 92 60 0
-274 -93 -61 0
-274 93 61 0
-274 -94 -62 0
-274 94 62 0
-274 -95 -63 0
-274 95 63 0
-274 -96 -64 0
-274 96 64 0
-275 -65 33 0
-275 65 -33 0
-275 -66 34 0
-275 66 -34 0
-275 -67 35 0
-275 67 -35 0
-275 -68 36 0
-275 68 -36 0
-275 -69 37 0
-275 69 -37 0
-275 -70 38 0
-275 70 -38 0
-275 -71 39 0
-275 71 -39 0
-275 -72 40 0
-275 72 -40 0
-275 -73 41 0
-275 73 -41 0
-275 -74 42 0
-275 74 -42 0
-275 -75 43 0
-275 75 -43 0
-275 -76 44 0
-275 76 -44 0
-275 -77 45 0
-275 77 -45 0
-275 -78 46 0
-275 78 -46 0
-275 -79 47 0
-275 79 -47 0
-275 -80 48 0
-275 80 -48 0
-275 -81 0
-275 -82 0
-275 -83 0
-275 -84 0
-275 -85 0
-275 -86 0
-275 -87 0
-275 -88 0
-275 -89 0
-275 -90 0
-275 -91 0
-275 -92 0
-275 -93 0
-275 -94 0
-275 -95 0
-275 -96 0
-276 -65 -33 0
-276 65 33 0
-276 -66 -34 0
-276 66 34 0
-276 -67 -35 0
-276 67 35 0
-276 -68 -36 0
-276 68 36 0
-276 -69 -37 0
-276 69 37 0
-276 -70 -38 0
-276 70 38 0
-276 -71 -39 0
-276 71 39 0
-276 -72 -40 0
-276 72 40 0
-276 -73 -41 0
-276 73 41 0
-276 -74 -42 0
-276 74 42 0
-276 -75 -43 0
-276 75 43 0
-276 -76 -44 0
-276 76 44 0
-276 -77 -45 0
-276 77 45 0
-276 -78 -46 0
-276 78 46 0
-276 -79 -47 0
-276 79 47 0
-276 -80 -48 0
-276 80 48 0
-276 -81 0
-276 -82 0
-276 -83 0
-276 -84 0
-276 -85 0
-276 -86 0
-276 -87 0
-276 -88 0
-276 -89 0
-276 -90 0
-276 -91 0
-276 -92 0
-276 -93 0
-276 -94 0
-276 -95 0
-276 -96 0
-277 -65 1 0
-277 -65 33 0
-277 65 -1 -33 0
-277 -66 2 0
-277 -66 34 0
-277 66 -2 -34 0
-277 -67 3 0
-277 -67 35 0
-277 67 -3 -35 0
-277 -68 4 0
-277 -68 36 0
-277 68 -4 -36 0
-277 -69 5 0
-277 -69 37 0
-277 69 -5 -37 0
-277 -70 6 0
-277 -70 38 0
-277 70 -6 -38 0
-277 -71 7 0
-277 -71 39 0
-277 71 -7 -39 0
-277 -72 8 0
-277 -72 40 0
-277 72 -8 -40 0
-277 -73 9 0
-277 -73 41 0
-277 73 -9 -41 0
-277 -74 10 0
-277 -74 42 0
-277 74 -10 -42 0
-277 -75 11 0
-277 -75 43 0
-277 75 -11 -43 0
-277 -76 12 0
-277 -76 44 0
-277 76 -12 -44 0
-277 -77 13 0
-277 -77 45 0
-277 77 -13 -45 0
-277 -78 14 0
-277 -78 46 0
-277 78 -14 -46 0
-277 -79 15 0
-277 -79 47 0
-277 79 -15 -47 0
-277 -80 16 0
-277 -80 48 0
-277 80 -16 -48 0
-277 -81 17 0
-277 -81 49 0
-277 81 -17 -49 0
-277 -82 18 0
-277 -82 50 0
-277 82 -18 -50 0
-277 -83 19 0
-277 -83 51 0
-277 83 -19 -51 0
-277 -84 20 0
-277 -84 52 0
-277 84 -20 -52 0
-277 -85 21 0
-277 -85 53 0
-277 85 -21 -53 0
-277 -86 22 0
-277 -86 54 0
-277 86 -22 -54 0
-277 -87 23 0
-277 -87 55 0
-277 87 -23 -55 0
-277 -88 24 0
-277 -88 56 0
-277 88 -24 -56 0
-277 -89 25 0
-277 -89 57 0
-277 89 -25 -57 0
-277 -90 26 0
-277 -90 58 0
-277 90 -26 -58 0
-277 -91 27 0
-277 -91 59 0
-277 91 -27 -59 0
-277 -92 28 0
-277 -92 60 0
-277 92 -28 -60 0
-277 -93 29 0
-277 -93 61 0
-277 93 -29 -61 0
-277 -94 30 0
-277 -94 62 0
-277 94 -30 -62 0
-277 -95 31 0
-277 -95 63 0
-277 95 -31 -63 0
-277 -96 32 0
-277 -96 64 0
-277 96 -32 -64 0
-278 -65 1 0
-278 -65 -33 0
-278 65 -1 33 0
-278 -66 2 0
-278 -66 -34 0
-278 66 -2 34 0
-278 -67 3 0
-278 -67 -35 0
-278 67 -3 35 0
-278 -68 4 0
-278 -68 -36 0
-278 68 -4 36 0
-278 -69 5 0
-278 -69 -37 0
-278 69 -5 37 0
-278 -70 6 0
-278 -70 -38 0
-278 70 -6 38 0
-278 -71 7 0
-278 -71 -39 0
-278 71 -7 39 0
-278 -72 8 0
-278 -72 -40 0
-278 72 -8 40 0
-278 -73 9 0
-278 -73 -41 0
-278 73 -9 41 0
-278 -74 10 0
-278 -74 -42 0
-278 74 -10 42 0
-278 -75 11 0
-278 -75 -43 0
-278 75 -11 43 0
-278 -76 12 0
-278 -76 -44 0
-278 76 -12 44 0
-278 -77 13 0
-278 -77 -45 0
-278 77 -13 45 0
-278 -78 14 0
-278 -78 -46 0
-278 78 -14 46 0
-278 -79 15 0
-278 -79 -47 0
-278 79 -15 47 0
-278 -80 16 0
-278 -80 -48 0
-278 80 -16 48 0
-278 -81 17 0
-278 -81 -49 0
-278 81 -17 49 0
-278 -82 18 0
-278 -82 -50 0
-278 82 -18 50 0
-278 -83 19 0
-278 -83 -51 0
-278 83 -19 51 0
-278 -84 20 0
-278 -84 -52 0
-278 84 -20 52 0
-278 -85 21 0
-278 -85 -53 0
-278 85 -21 53 0
-278 -86 22 0
-278 -86 -54 0
-278 86 -22 54 0
-278 -87 23 0
-278 -87 -55 0
-278 87 -23 55 0
-278 -88 24 0
-278 -88 -56 0
-278 88 -24 56 0
-278 -89 25 0
-278 -89 -57 0
-278 89 -25 57 0
-278 -90 26 0
-278 -90 -58 0
-278 90 -26 58 0
-278 -91 27 0
-278 -91 -59 0
-278 91 -27 59 0
-278 -92 28 0
-278 -92 -60 0
-278 92 -28 60 0
-278 -93 29 0
-278 -93 -61 0
-278 93 -29 61 0
-278 -94 30 0
-278 -94 -62 0
-278 94 -30 62 0
-278 -95 31 0
-278 -95 -63 0
-278 95 -31 63 0
-278 -96 32 0
-278 -96 -64 0
-278 96 -32 64 0
-279 -65 -1 0
-279 -65 33 0
-279 65 1 -33 0
-279 -66 -2 0
-279 -66 34 0
-279 66 2 -34 0
-279 -67 -3 0
-279 -67 35 0
-279 67 3 -35 0
-279 -68 -4 0
-279 -68 36 0
-279 68 4 -36 0
-279 -69 -5 0
-279 -69 37 0
-279 69 5 -37 0
-279 -70 -6 0
-279 -70 38 0
-279 70 6 -38 0
-279 -71 -7 0
-279 -71 39 0
-279 71 7 -39 0
-279 -72 -8 0
-279 -72 40 0
-279 72 8 -40 0
-279 -73 -9 0
-279 -73 41 0
-279 73 9 -41 0
-279 -74 -10 0
-279 -74 42 0
-279 74 10 -42 0
-279 -75 -11 0
-279 -75 43 0
-279 75 11 -43 0
-279 -76 -12 0
-279 -76 44 0
-279 76 12 -44 0
-279 -77 -13 0
-279 -77 45 0
-279 77 13 -45 0
-279 -78 -14 0
-279 -78 46 0
-279 78 14 -46 0
-279 -79 -15 0
-279 -79 47 0
-279 79 15 -47 0
-279 -80 -16 0
-279 -80 48 0
-279 80 16 -48 0
-279 -81 -17 0
-279 -81 49 0
-279 81 17 -49 0
-279 -82 -18 0
-279 -82 50 0
-279 82 18 -50 0
-279 -83 -19 0
-279 -83 51 0
-279 83 19 -51 0
-279 -84 -20 0
-279 -84 52 0
-279 84 20 -52 0
-279 -85 -21 0
-279 -85 53 0
-279 85 21 -53 0
-279 -86 -22 0
-279 -86 54 0
-279 86 22 -54 0
-279 -87 -23 0
-279 -87 55 0
-279 87 23 -55 0
-279 -88 -24 0
-279 -88 56 0
-279 88 24 -56 0
-279 -89 -25 0
-279 -89 57 0
-279 89 25 -57 0
-279 -90 -26 0
-279 -90 58 0
-279 90 26 -58 0
-279 -91 -27 0
-279 -91 59 0
-279 91 27 -59 0
-279 -92 -28 0
-279 -92 60 0
-279 92 28 -60 0
-279 -93 -29 0
-279 -93 61 0
-279 93 29 -61 0
-279 -94 -30 0
-279 -94 62 0
-279 94 30 -62 0
-279 -95 -31 0
-279 -95 63 0
-279 95 31 -63 0
-279 -96 -32 0
-279 -96 64 0
-279 96 32 -64 0
-280 -65 -1 0
-280 -65 -33 0
-280 65 1 33 0
-280 -66 -2 0
-280 -66 -34 0
-280 66 2 34 0
-280 -67 -3 0
-280 -67 -35 0
-280 67 3 35 0
-280 -68 -4 0
-280 -68 -36 0
-280 68 4 36 0
-280 -69 -5 0
-280 -69 -37 0
-280 69 5 37 0
-280 -70 -6 0
-280 -70 -38 0
-280 70 6 38 0
-280 -71 -7 0
-280 -71 -39 0
-280 71 7 39 0
-280 -72 -8 0
-280 -72 -40 0
-280 72 8 40 0
-280 -73 -9 0
-280 -73 -41 0
-280 73 9 41 0
-280 -74 -10 0
-280 -74 -42 0
-280 74 10 42 0
-280 -75 -11 0
-280 -75 -43 0
-280 75 11 43 0
-280 -76 -12 0
-280 -76 -44 0
-280 76 12 44 0
-280 -77 -13 0
-280 -77 -45 0
-280 77 13 45 0
-280 -78 -14 0
-280 -78 -46 0
-280 78 14 46 0
-280 -79 -15 0
-280 -79 -47 0
-280 79 15 47 0
-280 -80 -16 0
-280 -80 -48 0
-280 80 16 48 0
-280 -81 -17 0
-280 -81 -49 0
-280 81 17 49 0
-280 -82 -18 0
-280 -82 -50 0
-280 82 18 50 0
-280 -83 -19 0
-280 -83 -51 0
-280 83 19 51 0
-280 -84 -20 0
-280 -84 -52 0
-280 84 20 52 0
-280 -85 -21 0
-280 -85 -53 0
-280 85 21 53 0
-280 -86 -22 0
-280 -86 -54 0
-280 86 22 54 0
-280 -87 -23 0
-280 -87 -55 0
-280 87 23 55 0
-280 -88 -24 0
-280 -88 -56 0
-280 88 24 56 0
-280 -89 -25 0
-280 -89 -57 0
-280 89 25 57 0
-280 -90 -26 0
-280 -90 -58 0
-280 90 26 58 0
-280 -91 -27 0
-280 -91 -59 0
-280 91 27 59 0
-280 -92 -28 0
-280 -92 -60 0
-280 92 28 60 0
-280 -93 -29 0
-280 -93 -61 0
-280 93 29 61 0
-280 -94 -30 0
-280 -94 -62 0
-280 94 30 62 0
-280 -95 -31 0
-280 -95 -63 0
-280 95 31 63 0
-280 -96 -32 0
-280 -96 -64 0
-280 96 32 64 0
-97 -137 0
-97 -197 0
-137 -197 0
-98 -138 0
-98 -198 0
-138 -198 0
-99 -139 0
-99 -199 0
-139 -199 0
-100 -140 0
-100 -200 0
-140 -200 0
-101 -141 0
-101 -201 0
-141 -201 0
-102 -142 0
-102 -202 0
-142 -202 0
-103 -143 0
-103 -203 0
-143 -203 0
-104 -144 0
-104 -204 0
-144 -204 0
-105 -145 0
-105 -205 0
-145 -205 0
-106 -146 0
-106 -206 0
-146 -206 0
-107 -147 0
-107 -207 0
-147 -207 0
-108 -148 0
-108 -208 0
-148 -208 0
-109 -149 0
-109 -209 0
-149 -209 0
-110 -150 0
-110 -210 0
-150 -210 0
-111 -151 0
-111 -211 0
-151 -211 0
-112 -152 0
-112 -212 0
-152 -212 0
-113 -157 0
-113 -221 0
-157 -221 0
-114 -158 0
-114 -222 0
-158 -222 0
-115 -159 0
-115 -223 0
-159 -223 0
-116 -160 0
-116 -224 0
-160 -224 0
-117 -161 0
-117 -225 0
-161 -225 0
-118 -162 0
-118 -226 0
-162 -226 0
-119 -163 0
-119 -227 0
-163 -227 0
-120 -164 0
-120 -228 0
-164 -228 0
-121 -165 0
-121 -229 0
-165 -229 0
-122 -166 0
-122 -230 0
-166 -230 0
-123 -167 0
-123 -231 0
-167 -231 0
-124 -168 0
-124 -232 0
-168 -232 0
-125 -173 0
-125 -241 0
-173 -241 0
-126 -174 0
-126 -242 0
-174 -242 0
-127 -175 0
-127 -243 0
-175 -243 0
-128 -176 0
-128 -244 0
-176 -244 0
-129 -177 0
-129 -245 0
-177 -245 0
-130 -178 0
-130 -246 0
-178 -246 0
-131 -179 0
-131 -247 0
-179 -247 0
-132 -180 0
-132 -248 0
-180 -248 0
-133 -185 0
-133 -257 0
-185 -257 0
-134 -186 0
-134 -258 0
-186 -258 0
-135 -187 0
-135 -259 0
-187 -259 0
-136 -188 0
-136 -260 0
-188 -260 0
-153 -213 0
-154 -214 0
-155 -215 0
-156 -216 0
-169 -233 0
-170 -234 0
-171 -235 0
-172 -236 0
-181 -249 0
-182 -250 0
-183 -251 0
-184 -252 0
-189 -261 0
-190 -262 0
-191 -263 0
-192 -264 0
-193 -269 0
-194 -270 0
-195 -271 0
-196 -272 0
153 154 155 156 169 170 171 172 181 182 183 184 189 190 191 192 193 194 195 196 213 214 215 216 233 234 235 236 249 250 251 252 261 262 263 264 269 270 271 272 277 278 279 280 0
217 218 219 220 237 238 239 240 253 254 255 256 265 266 267 268 273 274 275 276 277 278 279 280 0
281 -65 0
-281 65 0
281 66 0
-281 -66 0
281 67 0
-281 -67 0
281 68 0
-281 -68 0
281 69 0
-281 -69 0
281 -70 0
-281 70 0
281 71 0
-281 -71 0
281 72 0
-281 -72 0
281 -73 0
-281 73 0
281 -74 0
-281 74 0
281 75 0
-281 -75 0
281 76 0
-281 -76 0
281 77 0
-281 -77 0
281 -78 0
-281 78 0
281 79 0
-281 -79 0
281 80 0
-281 -80 0
281 81 0
-281 -81 0
281 82 0
-281 -82 0
281 -83 0
-281 83 0
281 -84 0
-281 84 0
281 -85 0
-281 85 0
281 -86 0
-281 86 0
281 -87 0
-281 87 0
281 -88 0
-281 88 0
281 -89 0
-281 89 0
281 -90 0
-281 90 0
281 -91 0
-281 91 0
281 -92 0
-281 92 0
281 -93 0
-281 93 0
281 -94 0
-281 94 0
281 -95 0
-281 95 0
281 -96 0
-281 96 0
