p cnf 601 43081
161 162 163 164 165 166 167 168 169 170 171 172 173 174 175 176 177 178 179 180 181 182 183 184 185 186 187 188 189 190 191 192 193 194 195 196 197 198 199 200 0
-161 -162 0
-161 -163 0
-161 -164 0
-161 -165 0
-161 -166 0
-161 -167 0
-161 -168 0
-161 -169 0
-161 -170 0
-161 -171 0
-161 -172 0
-161 -173 0
-161 -174 0
-161 -175 0
-161 -176 0
-161 -177 0
-161 -178 0
-161 -179 0
-161 -180 0
-161 -181 0
-161 -182 0
-161 -183 0
-161 -184 0
-161 -185 0
-161 -186 0
-161 -187 0
-161 -188 0
-161 -189 0
-161 -190 0
-161 -191 0
-161 -192 0
-161 -193 0
-161 -194 0
-161 -195 0
-161 -196 0
-161 -197 0
-161 -198 0
-161 -199 0
-161 -200 0
-162 -163 0
-162 -164 0
-162 -165 0
-162 -166 0
-162 -167 0
-162 -168 0
-162 -169 0
-162 -170 0
-162 -171 0
-162 -172 0
-162 -173 0
-162 -174 0
-162 -175 0
-162 -176 0
-162 -177 0
-162 -178 0
-162 -179 0
-162 -180 0
-162 -181 0
-162 -182 0
-162 -183 0
-162 -184 0
-162 -185 0
-162 -186 0
-162 -187 0
-162 -188 0
-162 -189 0
-162 -190 0
-162 -191 0
-162 -192 0
-162 -193 0
-162 -194 0
-162 -195 0
-162 -196 0
-162 -197 0
-162 -198 0
-162 -199 0
-162 -200 0
-163 -164 0
-163 -165 0
-163 -166 0
-163 -167 0
-163 -168 0
-163 -169 0
-163 -170 0
-163 -171 0
-163 -172 0
-163 -173 0
-163 -174 0
-163 -175 0
-163 -176 0
-163 -177 0
-163 -178 0
-163 -179 0
-163 -180 0
-163 -181 0
-163 -182 0
-163 -183 0
-163 -184 0
-163 -185 0
-163 -186 0
-163 -187 0
-163 -188 0
-163 -189 0
-163 -190 0
-163 -191 0
-163 -192 0
-163 -193 0
-163 -194 0
-163 -195 0
-163 -196 0
-163 -197 0
-163 -198 0
-163 -199 0
-163 -200 0
-164 -165 0
-164 -166 0
-164 -167 0
-164 -168 0
-164 -169 0
-164 -170 0
-164 -171 0
-164 -172 0
-164 -173 0
-164 -174 0
-164 -175 0
-164 -176 0
-164 -177 0
-164 -178 0
-164 -179 0
-164 -180 0
-164 -181 0
-164 -182 0
-164 -183 0
-164 -184 0
-164 -185 0
-164 -186 0
-164 -187 0
-164 -188 0
-164 -189 0
-164 -190 0
-164 -191 0
-164 -192 0
-164 -193 0
-164 -194 0
-164 -195 0
-164 -196 0
-164 -197 0
-164 -198 0
-164 -199 0
-164 -200 0
-165 -166 0
-165 -167 0
-165 -168 0
-165 -169 0
-165 -170 0
-165 -171 0
-165 -172 0
-165 -173 0
-165 -174 0
-165 -175 0
-165 -176 0
-165 -177 0
-165 -178 0
-165 -179 0
-165 -180 0
-165 -181 0
-165 -182 0
-165 -183 0
-165 -184 0
-165 -185 0
-165 -186 0
-165 -187 0
-165 -188 0
-165 -189 0
-165 -190 0
-165 -191 0
-165 -192 0
-165 -193 0
-165 -194 0
-165 -195 0
-165 -196 0
-165 -197 0
-165 -198 0
-165 -199 0
-165 -200 0
-166 -167 0
-166 -168 0
-166 -169 0
-166 -170 0
-166 -171 0
-166 -172 0
-166 -173 0
-166 -174 0
-166 -175 0
-166 -176 0
-166 -177 0
-166 -178 0
-166 -179 0
-166 -180 0
-166 -181 0
-166 -182 0
-166 -183 0
-166 -184 0
-166 -185 0
-166 -186 0
-166 -187 0
-166 -188 0
-166 -189 0
-166 -190 0
-166 -191 0
-166 -192 0
-166 -193 0
-166 -194 0
-166 -195 0
-166 -196 0
-166 -197 0
-166 -198 0
-166 -199 0
-166 -200 0
-167 -168 0
-167 -169 0
-167 -170 0
-167 -171 0
-167 -172 0
-167 -173 0
-167 -174 0
-167 -175 0
-167 -176 0
-167 -177 0
-167 -178 0
-167 -179 0
-167 -180 0
-167 -181 0
-167 -182 0
-167 -183 0
-167 -184 0
-167 -185 0
-167 -186 0
-167 -187 0
-167 -188 0
-167 -189 0
-167 -190 0
-167 -191 0
-167 -192 0
-167 -193 0
-167 -194 0
-167 -195 0
-167 -196 0
-167 -197 0
-167 -198 0
-167 -199 0
-167 -200 0
-168 -169 0
-168 -170 0
-168 -171 0
-168 -172 0
-168 -173 0
-168 -174 0
-168 -175 0
-168 -176 0
-168 -177 0
-168 -178 0
-168 -179 0
-168 -180 0
-168 -181 0
-168 -182 0
-168 -183 0
-168 -184 0
-168 -185 0
-168 -186 0
-168 -187 0
-168 -188 0
-168 -189 0
-168 -190 0
-168 -191 0
-168 -192 0
-168 -193 0
-168 -194 0
-168 -195 0
-168 -196 0
-168 -197 0
-168 -198 0
-168 -199 0
-168 -200 0
-169 -170 0
-169 -171 0
-169 -172 0
-169 -173 0
-169 -174 0
-169 -175 0
-169 -176 0
-169 -177 0
-169 -178 0
-169 -179 0
-169 -180 0
-169 -181 0
-169 -182 0
-169 -183 0
-169 -184 0
-169 -185 0
-169 -186 0
-169 -187 0
-169 -188 0
-169 -189 0
-169 -190 0
-169 -191 0
-169 -192 0
-169 -193 0
-169 -194 0
-169 -195 0
-169 -196 0
-169 -197 0
-169 -198 0
-169 -199 0
-169 -200 0
-170 -171 0
-170 -172 0
-170 -173 0
-170 -174 0
-170 -175 0
-170 -176 0
-170 -177 0
-170 -178 0
-170 -179 0
-170 -180 0
-170 -181 0
-170 -182 0
-170 -183 0
-170 -184 0
-170 -185 0
-170 -186 0
-170 -187 0
-170 -188 0
-170 -189 0
-170 -190 0
-170 -191 0
-170 -192 0
-170 -193 0
-170 -194 0
-170 -195 0
-170 -196 0
-170 -197 0
-170 -198 0
-170 -199 0
-170 -200 0
-171 -172 0
-171 -173 0
-171 -174 0
-171 -175 0
-171 -176 0
-171 -177 0
-171 -178 0
-171 -179 0
-171 -180 0
-171 -181 0
-171 -182 0
-171 -183 0
-171 -184 0
-171 -185 0
-171 -186 0
-171 -187 0
-171 -188 0
-171 -189 0
-171 -190 0
-171 -191 0
-171 -192 0
-171 -193 0
-171 -194 0
-171 -195 0
-171 -196 0
-171 -197 0
-171 -198 0
-171 -199 0
-171 -200 0
-172 -173 0
-172 -174 0
-172 -175 0
-172 -176 0
-172 -177 0
-172 -178 0
-172 -179 0
-172 -180 0
-172 -181 0
-172 -182 0
-172 -183 0
-172 -184 0
-172 -185 0
-172 -186 0
-172 -187 0
-172 -188 0
-172 -189 0
-172 -190 0
-172 -191 0
-172 -192 0
-172 -193 0
-172 -194 0
-172 -195 0
-172 -196 0
-172 -197 0
-172 -198 0
-172 -199 0
-172 -200 0
-173 -174 0
-173 -175 0
-173 -176 0
-173 -177 0
-173 -178 0
-173 -179 0
-173 -180 0
-173 -181 0
-173 -182 0
-173 -183 0
-173 -184 0
-173 -185 0
-173 -186 0
-173 -187 0
-173 -188 0
-173 -189 0
-173 -190 0
-173 -191 0
-173 -192 0
-173 -193 0
-173 -194 0
-173 -195 0
-173 -196 0
-173 -197 0
-173 -198 0
-173 -199 0
-173 -200 0
-174 -175 0
-174 -176 0
-174 -177 0
-174 -178 0
-174 -179 0
-174 -180 0
-174 -181 0
-174 -182 0
-174 -183 0
-174 -184 0
-174 -185 0
-174 -186 0
-174 -187 0
-174 -188 0
-174 -189 0
-174 -190 0
-174 -191 0
-174 -192 0
-174 -193 0
-174 -194 0
-174 -195 0
-174 -196 0
-174 -197 0
-174 -198 0
-174 -199 0
-174 -200 0
-175 -176 0
-175 -177 0
-175 -178 0
-175 -179 0
-175 -180 0
-175 -181 0
-175 -182 0
-175 -183 0
-175 -184 0
-175 -185 0
-175 -186 0
-175 -187 0
-175 -188 0
-175 -189 0
-175 -190 0
-175 -191 0
-175 -192 0
-175 -193 0
-175 -194 0
-175 -195 0
-175 -196 0
-175 -197 0
-175 -198 0
-175 -199 0
-175 -200 0
-176 -177 0
-176 -178 0
-176 -179 0
-176 -180 0
-176 -181 0
-176 -182 0
-176 -183 0
-176 -184 0
-176 -185 0
-176 -186 0
-176 -187 0
-176 -188 0
-176 -189 0
-176 -190 0
-176 -191 0
-176 -192 0
-176 -193 0
-176 -194 0
-176 -195 0
-176 -196 0
-176 -197 0
-176 -198 0
-176 -199 0
-176 -200 0
-177 -178 0
-177 -179 0
-177 -180 0
-177 -181 0
-177 -182 0
-177 -183 0
-177 -184 0
-177 -185 0
-177 -186 0
-177 -187 0
-177 -188 0
-177 -189 0
-177 -190 0
-177 -191 0
-177 -192 0
-177 -193 0
-177 -194 0
-177 -195 0
-177 -196 0
-177 -197 0
-177 -198 0
-177 -199 0
-177 -200 0
-178 -179 0
-178 -180 0
-178 -181 0
-178 -182 0
-178 -183 0
-178 -184 0
-178 -185 0
-178 -186 0
-178 -187 0
-178 -188 0
-178 -189 0
-178 -190 0
-178 -191 0
-178 -192 0
-178 -193 0
-178 -194 0
-178 -195 0
-178 -196 0
-178 -197 0
-178 -198 0
-178 -199 0
-178 -200 0
-179 -180 0
-179 -181 0
-179 -182 0
-179 -183 0
-179 -184 0
-179 -185 0
-179 -186 0
-179 -187 0
-179 -188 0
-179 -189 0
-179 -190 0
-179 -191 0
-179 -192 0
-179 -193 0
-179 -194 0
-179 -195 0
-179 -196 0
-179 -197 0
-179 -198 0
-179 -199 0
-179 -200 0
-180 -181 0
-180 -182 0
-180 -183 0
-180 -184 0
-180 -185 0
-180 -186 0
-180 -187 0
-180 -188 0
-180 -189 0
-180 -190 0
-180 -191 0
-180 -192 0
-180 -193 0
-180 -194 0
-180 -195 0
-180 -196 0
-180 -197 0
-180 -198 0
-180 -199 0
-180 -200 0
-181 -182 0
-181 -183 0
-181 -184 0
-181 -185 0
-181 -186 0
-181 -187 0
-181 -188 0
-181 -189 0
-181 -190 0
-181 -191 0
-181 -192 0
-181 -193 0
-181 -194 0
-181 -195 0
-181 -196 0
-181 -197 0
-181 -198 0
-181 -199 0
-181 -200 0
-182 -183 0
-182 -184 0
-182 -185 0
-182 -186 0
-182 -187 0
-182 -188 0
-182 -189 0
-182 -190 0
-182 -191 0
-182 -192 0
-182 -193 0
-182 -194 0
-182 -195 0
-182 -196 0
-182 -197 0
-182 -198 0
-182 -199 0
-182 -200 0
-183 -184 0
-183 -185 0
-183 -186 0
-183 -187 0
-183 -188 0
-183 -189 0
-183 -190 0
-183 -191 0
-183 -192 0
-183 -193 0
-183 -194 0
-183 -195 0
-183 -196 0
-183 -197 0
-183 -198 0
-183 -199 0
-183 -200 0
-184 -185 0
-184 -186 0
-184 -187 0
-184 -188 0
-184 -189 0
-184 -190 0
-184 -191 0
-184 -192 0
-184 -193 0
-184 -194 0
-184 -195 0
-184 -196 0
-184 -197 0
-184 -198 0
-184 -199 0
-184 -200 0
-185 -186 0
-185 -187 0
-185 -188 0
-185 -189 0
-185 -190 0
-185 -191 0
-185 -192 0
-185 -193 0
-185 -194 0
-185 -195 0
-185 -196 0
-185 -197 0
-185 -198 0
-185 -199 0
-185 -200 0
-186 -187 0
-186 -188 0
-186 -189 0
-186 -190 0
-186 -191 0
-186 -192 0
-186 -193 0
-186 -194 0
-186 -195 0
-186 -196 0
-186 -197 0
-186 -198 0
-186 -199 0
-186 -200 0
-187 -188 0
-187 -189 0
-187 -190 0
-187 -191 0
-187 -192 0
-187 -193 0
-187 -194 0
-187 -195 0
-187 -196 0
-187 -197 0
-187 -198 0
-187 -199 0
-187 -200 0
-188 -189 0
-188 -190 0
-188 -191 0
-188 -192 0
-188 -193 0
-188 -194 0
-188 -195 0
-188 -196 0
-188 -197 0
-188 -198 0
-188 -199 0
-188 -200 0
-189 -190 0
-189 -191 0
-189 -192 0
-189 -193 0
-189 -194 0
-189 -195 0
-189 -196 0
-189 -197 0
-189 -198 0
-189 -199 0
-189 -200 0
-190 -191 0
-190 -192 0
-190 -193 0
-190 -194 0
-190 -195 0
-190 -196 0
-190 -197 0
-190 -198 0
-190 -199 0
-190 -200 0
-191 -192 0
-191 -193 0
-191 -194 0
-191 -195 0
-191 -196 0
-191 -197 0
-191 -198 0
-191 -199 0
-191 -200 0
-192 -193 0
-192 -194 0
-192 -195 0
-192 -196 0
-192 -197 0
-192 -198 0
-192 -199 0
-192 -200 0
-193 -194 0
-193 -195 0
-193 -196 0
-193 -197 0
-193 -198 0
-193 -199 0
-193 -200 0
-194 -195 0
-194 -196 0
-194 -197 0
-194 -198 0
-194 -199 0
-194 -200 0
-195 -196 0
-195 -197 0
-195 -198 0
-195 -199 0
-195 -200 0
-196 -197 0
-196 -198 0
-196 -199 0
-196 -200 0
-197 -198 0
-197 -199 0
-197 -200 0
-198 -199 0
-198 -200 0
-199 -200 0
-161 -1 0
-161 -2 0
-161 -3 0
-161 4 0
-161 -5 0
-161 -6 0
-161 -7 0
-161 8 0
-161 -9 0
-161 -10 0
-161 -11 0
-161 12 0
-161 -13 0
-161 -14 0
-161 -15 0
-161 16 0
-161 -17 0
-161 -18 0
-161 -19 0
-161 20 0
-161 -21 0
-161 -22 0
-161 -23 0
-161 24 0
-161 -25 0
-161 -26 0
-161 -27 0
-161 28 0
-161 -29 0
-161 -30 0
-161 -31 0
-161 32 0
-162 -1 0
-162 2 0
-162 -3 0
-162 -4 0
-162 -5 0
-162 6 0
-162 -7 0
-162 -8 0
-162 -9 0
-162 10 0
-162 -11 0
-162 -12 0
-162 -13 0
-162 14 0
-162 -15 0
-162 -16 0
-162 -17 0
-162 18 0
-162 -19 0
-162 -20 0
-162 -21 0
-162 22 0
-162 -23 0
-162 -24 0
-162 -25 0
-162 26 0
-162 -27 0
-162 -28 0
-162 -29 0
-162 30 0
-162 -31 0
-162 -32 0
-163 -1 0
-163 -2 0
-163 3 0
-163 -4 0
-163 -5 0
-163 -6 0
-163 7 0
-163 -8 0
-163 -9 0
-163 -10 0
-163 11 0
-163 -12 0
-163 -13 0
-163 -14 0
-163 15 0
-163 -16 0
-163 -17 0
-163 -18 0
-163 19 0
-163 -20 0
-163 -21 0
-163 -22 0
-163 23 0
-163 -24 0
-163 -25 0
-163 -26 0
-163 27 0
-163 -28 0
-163 -29 0
-163 -30 0
-163 31 0
-163 -32 0
-164 1 0
-164 -2 0
-164 -3 0
-164 -4 0
-164 5 0
-164 -6 0
-164 -7 0
-164 -8 0
-164 9 0
-164 -10 0
-164 -11 0
-164 -12 0
-164 13 0
-164 -14 0
-164 -15 0
-164 -16 0
-164 17 0
-164 -18 0
-164 -19 0
-164 -20 0
-164 21 0
-164 -22 0
-164 -23 0
-164 -24 0
-164 25 0
-164 -26 0
-164 -27 0
-164 -28 0
-164 29 0
-164 -30 0
-164 -31 0
-164 -32 0
-165 -1 0
-165 -2 0
-165 -3 0
-165 -4 0
-165 -5 0
-165 6 0
-165 -7 0
-165 8 0
-165 -9 0
-165 -10 0
-165 -11 0
-165 -12 0
-165 -13 0
-165 14 0
-165 -15 0
-165 16 0
-165 -17 0
-165 -18 0
-165 -19 0
-165 -20 0
-165 -21 0
-165 22 0
-165 -23 0
-165 24 0
-165 -25 0
-165 -26 0
-165 -27 0
-165 -28 0
-165 -29 0
-165 30 0
-165 -31 0
-165 32 0
-166 -1 0
-166 2 0
-166 -3 0
-166 4 0
-166 -5 0
-166 -6 0
-166 -7 0
-166 -8 0
-166 -9 0
-166 10 0
-166 -11 0
-166 12 0
-166 -13 0
-166 -14 0
-166 -15 0
-166 -16 0
-166 -17 0
-166 18 0
-166 -19 0
-166 20 0
-166 -21 0
-166 -22 0
-166 -23 0
-166 -24 0
-166 -25 0
-166 26 0
-166 -27 0
-166 28 0
-166 -29 0
-166 -30 0
-166 -31 0
-166 -32 0
-167 -1 0
-167 -2 0
-167 -3 0
-167 -4 0
-167 5 0
-167 -6 0
-167 7 0
-167 -8 0
-167 -9 0
-167 -10 0
-167 -11 0
-167 -12 0
-167 13 0
-167 -14 0
-167 15 0
-167 -16 0
-167 -17 0
-167 -18 0
-167 -19 0
-167 -20 0
-167 21 0
-167 -22 0
-167 23 0
-167 -24 0
-167 -25 0
-167 -26 0
-167 -27 0
-167 -28 0
-167 29 0
-167 -30 0
-167 31 0
-167 -32 0
-168 1 0
-168 -2 0
-168 3 0
-168 -4 0
-168 -5 0
-168 -6 0
-168 -7 0
-168 -8 0
-168 9 0
-168 -10 0
-168 11 0
-168 -12 0
-168 -13 0
-168 -14 0
-168 -15 0
-168 -16 0
-168 17 0
-168 -18 0
-168 19 0
-168 -20 0
-168 -21 0
-168 -22 0
-168 -23 0
-168 -24 0
-168 25 0
-168 -26 0
-168 27 0
-168 -28 0
-168 -29 0
-168 -30 0
-168 -31 0
-168 -32 0
-169 -1 0
-169 -2 0
-169 -3 0
-169 -4 0
-169 -5 0
-169 -6 0
-169 -7 0
-169 -8 0
-169 -9 0
-169 10 0
-169 -11 0
-169 12 0
-169 -13 0
-169 14 0
-169 -15 0
-169 16 0
-169 -17 0
-169 -18 0
-169 -19 0
-169 -20 0
-169 -21 0
-169 -22 0
-169 -23 0
-169 -24 0
-169 -25 0
-169 26 0
-169 -27 0
-169 28 0
-169 -29 0
-169 30 0
-169 -31 0
-169 32 0
-170 -1 0
-170 2 0
-170 -3 0
-170 4 0
-170 -5 0
-170 6 0
-170 -7 0
-170 8 0
-170 -9 0
-170 -10 0
-170 -11 0
-170 -12 0
-170 -13 0
-170 -14 0
-170 -15 0
-170 -16 0
-170 -17 0
-170 18 0
-170 -19 0
-170 20 0
-170 -21 0
-170 22 0
-170 -23 0
-170 24 0
-170 -25 0
-170 -26 0
-170 -27 0
-170 -28 0
-170 -29 0
-170 -30 0
-170 -31 0
-170 -32 0
-171 -1 0
-171 -2 0
-171 -3 0
-171 -4 0
-171 -5 0
-171 -6 0
-171 -7 0
-171 -8 0
-171 9 0
-171 -10 0
-171 11 0
-171 -12 0
-171 13 0
-171 -14 0
-171 15 0
-171 -16 0
-171 -17 0
-171 -18 0
-171 -19 0
-171 -20 0
-171 -21 0
-171 -22 0
-171 -23 0
-171 -24 0
-171 25 0
-171 -26 0
-171 27 0
-171 -28 0
-171 29 0
-171 -30 0
-171 31 0
-171 -32 0
-172 1 0
-172 -2 0
-172 3 0
-172 -4 0
-172 5 0
-172 -6 0
-172 7 0
-172 -8 0
-172 -9 0
-172 -10 0
-172 -11 0
-172 -12 0
-172 -13 0
-172 -14 0
-172 -15 0
-172 -16 0
-172 17 0
-172 -18 0
-172 19 0
-172 -20 0
-172 21 0
-172 -22 0
-172 23 0
-172 -24 0
-172 -25 0
-172 -26 0
-172 -27 0
-172 -28 0
-172 -29 0
-172 -30 0
-172 -31 0
-172 -32 0
-173 -1 0
-173 -2 0
-173 -3 0
-173 -4 0
-173 -5 0
-173 -6 0
-173 -7 0
-173 -8 0
-173 -9 0
-173 -10 0
-173 -11 0
-173 -12 0
-173 -13 0
-173 -14 0
-173 -15 0
-173 -16 0
-173 -17 0
-173 18 0
-173 -19 0
-173 20 0
-173 -21 0
-173 22 0
-173 -23 0
-173 24 0
-173 -25 0
-173 26 0
-173 -27 0
-173 28 0
-173 -29 0
-173 30 0
-173 -31 0
-173 32 0
-174 -1 0
-174 2 0
-174 -3 0
-174 4 0
-174 -5 0
-174 6 0
-174 -7 0
-174 8 0
-174 -9 0
-174 10 0
-174 -11 0
-174 12 0
-174 -13 0
-174 14 0
-174 -15 0
-174 16 0
-174 -17 0
-174 -18 0
-174 -19 0
-174 -20 0
-174 -21 0
-174 -22 0
-174 -23 0
-174 -24 0
-174 -25 0
-174 -26 0
-174 -27 0
-174 -28 0
-174 -29 0
-174 -30 0
-174 -31 0
-174 -32 0
-175 -1 0
-175 -2 0
-175 -3 0
-175 -4 0
-175 -5 0
-175 -6 0
-175 -7 0
-175 -8 0
-175 -9 0
-175 -10 0
-175 -11 0
-175 -12 0
-175 -13 0
-175 -14 0
-175 -15 0
-175 -16 0
-175 17 0
-175 -18 0
-175 19 0
-175 -20 0
-175 21 0
-175 -22 0
-175 23 0
-175 -24 0
-175 25 0
-175 -26 0
-175 27 0
-175 -28 0
-175 29 0
-175 -30 0
-175 31 0
-175 -32 0
-176 1 0
-176 -2 0
-176 3 0
-176 -4 0
-176 5 0
-176 -6 0
-176 7 0
-176 -8 0
-176 9 0
-176 -10 0
-176 11 0
-176 -12 0
-176 13 0
-176 -14 0
-176 15 0
-176 -16 0
-176 -17 0
-176 -18 0
-176 -19 0
-176 -20 0
-176 -21 0
-176 -22 0
-176 -23 0
-176 -24 0
-176 -25 0
-176 -26 0
-176 -27 0
-176 -28 0
-176 -29 0
-176 -30 0
-176 -31 0
-176 -32 0
-177 -1 0
-177 -2 0
-177 -3 0
-177 -4 0
-177 -5 0
-177 -6 0
-177 7 0
-177 8 0
-177 -9 0
-177 -10 0
-177 -11 0
-177 -12 0
-177 -13 0
-177 -14 0
-177 15 0
-177 16 0
-177 -17 0
-177 -18 0
-177 -19 0
-177 -20 0
-177 -21 0
-177 -22 0
-177 23 0
-177 24 0
-177 -25 0
-177 -26 0
-177 -27 0
-177 -28 0
-177 -29 0
-177 -30 0
-177 31 0
-177 32 0
-178 -1 0
-178 -2 0
-178 3 0
-178 4 0
-178 -5 0
-178 -6 0
-178 -7 0
-178 -8 0
-178 -9 0
-178 -10 0
-178 11 0
-178 12 0
-178 -13 0
-178 -14 0
-178 -15 0
-178 -16 0
-178 -17 0
-178 -18 0
-178 19 0
-178 20 0
-178 -21 0
-178 -22 0
-178 -23 0
-178 -24 0
-178 -25 0
-178 -26 0
-178 27 0
-178 28 0
-178 -29 0
-178 -30 0
-178 -31 0
-178 -32 0
-179 -1 0
-179 -2 0
-179 -3 0
-179 -4 0
-179 5 0
-179 6 0
-179 -7 0
-179 -8 0
-179 -9 0
-179 -10 0
-179 -11 0
-179 -12 0
-179 13 0
-179 14 0
-179 -15 0
-179 -16 0
-179 -17 0
-179 -18 0
-179 -19 0
-179 -20 0
-179 21 0
-179 22 0
-179 -23 0
-179 -24 0
-179 -25 0
-179 -26 0
-179 -27 0
-179 -28 0
-179 29 0
-179 30 0
-179 -31 0
-179 -32 0
-180 1 0
-180 2 0
-180 -3 0
-180 -4 0
-180 -5 0
-180 -6 0
-180 -7 0
-180 -8 0
-180 9 0
-180 10 0
-180 -11 0
-180 -12 0
-180 -13 0
-180 -14 0
-180 -15 0
-180 -16 0
-180 17 0
-180 18 0
-180 -19 0
-180 -20 0
-180 -21 0
-180 -22 0
-180 -23 0
-180 -24 0
-180 25 0
-180 26 0
-180 -27 0
-180 -28 0
-180 -29 0
-180 -30 0
-180 -31 0
-180 -32 0
-181 -1 0
-181 -2 0
-181 -3 0
-181 -4 0
-181 -5 0
-181 -6 0
-181 -7 0
-181 -8 0
-181 -9 0
-181 -10 0
-181 11 0
-181 12 0
-181 -13 0
-181 -14 0
-181 15 0
-181 16 0
-181 -17 0
-181 -18 0
-181 -19 0
-181 -20 0
-181 -21 0
-181 -22 0
-181 -23 0
-181 -24 0
-181 -25 0
-181 -26 0
-181 27 0
-181 28 0
-181 -29 0
-181 -30 0
-181 31 0
-181 32 0
-182 -1 0
-182 -2 0
-182 3 0
-182 4 0
-182 -5 0
-182 -6 0
-182 7 0
-182 8 0
-182 -9 0
-182 -10 0
-182 -11 0
-182 -12 0
-182 -13 0
-182 -14 0
-182 -15 0
-182 -16 0
-182 -17 0
-182 -18 0
-182 19 0
-182 20 0
-182 -21 0
-182 -22 0
-182 23 0
-182 24 0
-182 -25 0
-182 -26 0
-182 -27 0
-182 -28 0
-182 -29 0
-182 -30 0
-182 -31 0
-182 -32 0
-183 -1 0
-183 -2 0
-183 -3 0
-183 -4 0
-183 -5 0
-183 -6 0
-183 -7 0
-183 -8 0
-183 9 0
-183 10 0
-183 -11 0
-183 -12 0
-183 13 0
-183 14 0
-183 -15 0
-183 -16 0
-183 -17 0
-183 -18 0
-183 -19 0
-183 -20 0
-183 -21 0
-183 -22 0
-183 -23 0
-183 -24 0
-183 25 0
-183 26 0
-183 -27 0
-183 -28 0
-183 29 0
-183 30 0
-183 -31 0
-183 -32 0
-184 1 0
-184 2 0
-184 -3 0
-184 -4 0
-184 5 0
-184 6 0
-184 -7 0
-184 -8 0
-184 -9 0
-184 -10 0
-184 -11 0
-184 -12 0
-184 -13 0
-184 -14 0
-184 -15 0
-184 -16 0
-184 17 0
-184 18 0
-184 -19 0
-184 -20 0
-184 21 0
-184 22 0
-184 -23 0
-184 -24 0
-184 -25 0
-184 -26 0
-184 -27 0
-184 -28 0
-184 -29 0
-184 -30 0
-184 -31 0
-184 -32 0
-185 -1 0
-185 -2 0
-185 -3 0
-185 -4 0
-185 -5 0
-185 -6 0
-185 -7 0
-185 -8 0
-185 -9 0
-185 -10 0
-185 -11 0
-185 -12 0
-185 -13 0
-185 -14 0
-185 -15 0
-185 -16 0
-185 -17 0
-185 -18 0
-185 19 0
-185 20 0
-185 -21 0
-185 -22 0
-185 23 0
-185 24 0
-185 -25 0
-185 -26 0
-185 27 0
-185 28 0
-185 -29 0
-185 -30 0
-185 31 0
-185 32 0
-186 -1 0
-186 -2 0
-186 3 0
-186 4 0
-186 -5 0
-186 -6 0
-186 7 0
-186 8 0
-186 -9 0
-186 -10 0
-186 11 0
-186 12 0
-186 -13 0
-186 -14 0
-186 15 0
-186 16 0
-186 -17 0
-186 -18 0
-186 -19 0
-186 -20 0
-186 -21 0
-186 -22 0
-186 -23 0
-186 -24 0
-186 -25 0
-186 -26 0
-186 -27 0
-186 -28 0
-186 -29 0
-186 -30 0
-186 -31 0
-186 -32 0
-187 -1 0
-187 -2 0
-187 -3 0
-187 -4 0
-187 -5 0
-187 -6 0
-187 -7 0
-187 -8 0
-187 -9 0
-187 -10 0
-187 -11 0
-187 -12 0
-187 -13 0
-187 -14 0
-187 -15 0
-187 -16 0
-187 17 0
-187 18 0
-187 -19 0
-187 -20 0
-187 21 0
-187 22 0
-187 -23 0
-187 -24 0
-187 25 0
-187 26 0
-187 -27 0
-187 -28 0
-187 29 0
-187 30 0
-187 -31 0
-187 -32 0
-188 1 0
-188 2 0
-188 -3 0
-188 -4 0
-188 5 0
-188 6 0
-188 -7 0
-188 -8 0
-188 9 0
-188 10 0
-188 -11 0
-188 -12 0
-188 13 0
-188 14 0
-188 -15 0
-188 -16 0
-188 -17 0
-188 -18 0
-188 -19 0
-188 -20 0
-188 -21 0
-188 -22 0
-188 -23 0
-188 -24 0
-188 -25 0
-188 -26 0
-188 -27 0
-188 -28 0
-188 -29 0
-188 -30 0
-188 -31 0
-188 -32 0
-189 -1 0
-189 -2 0
-189 -3 0
-189 -4 0
-189 -5 0
-189 -6 0
-189 -7 0
-189 -8 0
-189 -9 0
-189 -10 0
-189 -11 0
-189 -12 0
-189 13 0
-189 14 0
-189 15 0
-189 16 0
-189 -17 0
-189 -18 0
-189 -19 0
-189 -20 0
-189 -21 0
-189 -22 0
-189 -23 0
-189 -24 0
-189 -25 0
-189 -26 0
-189 -27 0
-189 -28 0
-189 29 0
-189 30 0
-189 31 0
-189 32 0
-190 -1 0
-190 -2 0
-190 -3 0
-190 -4 0
-190 5 0
-190 6 0
-190 7 0
-190 8 0
-190 -9 0
-190 -10 0
-190 -11 0
-190 -12 0
-190 -13 0
-190 -14 0
-190 -15 0
-190 -16 0
-190 -17 0
-190 -18 0
-190 -19 0
-190 -20 0
-190 21 0
-190 22 0
-190 23 0
-190 24 0
-190 -25 0
-190 -26 0
-190 -27 0
-190 -28 0
-190 -29 0
-190 -30 0
-190 -31 0
-190 -32 0
-191 -1 0
-191 -2 0
-191 -3 0
-191 -4 0
-191 -5 0
-191 -6 0
-191 -7 0
-191 -8 0
-191 9 0
-191 10 0
-191 11 0
-191 12 0
-191 -13 0
-191 -14 0
-191 -15 0
-191 -16 0
-191 -17 0
-191 -18 0
-191 -19 0
-191 -20 0
-191 -21 0
-191 -22 0
-191 -23 0
-191 -24 0
-191 25 0
-191 26 0
-191 27 0
-191 28 0
-191 -29 0
-191 -30 0
-191 -31 0
-191 -32 0
-192 1 0
-192 2 0
-192 3 0
-192 4 0
-192 -5 0
-192 -6 0
-192 -7 0
-192 -8 0
-192 -9 0
-192 -10 0
-192 -11 0
-192 -12 0
-192 -13 0
-192 -14 0
-192 -15 0
-192 -16 0
-192 17 0
-192 18 0
-192 19 0
-192 20 0
-192 -21 0
-192 -22 0
-192 -23 0
-192 -24 0
-192 -25 0
-192 -26 0
-192 -27 0
-192 -28 0
-192 -29 0
-192 -30 0
-192 -31 0
-192 -32 0
-193 -1 0
-193 -2 0
-193 -3 0
-193 -4 0
-193 -5 0
-193 -6 0
-193 -7 0
-193 -8 0
-193 -9 0
-193 -10 0
-193 -11 0
-193 -12 0
-193 -13 0
-193 -14 0
-193 -15 0
-193 -16 0
-193 -17 0
-193 -18 0
-193 -19 0
-193 -20 0
-193 21 0
-193 22 0
-193 23 0
-193 24 0
-193 -25 0
-193 -26 0
-193 -27 0
-193 -28 0
-193 29 0
-193 30 0
-193 31 0
-193 32 0
-194 -1 0
-194 -2 0
-194 -3 0
-194 -4 0
-194 5 0
-194 6 0
-194 7 0
-194 8 0
-194 -9 0
-194 -10 0
-194 -11 0
-194 -12 0
-194 13 0
-194 14 0
-194 15 0
-194 16 0
-194 -17 0
-194 -18 0
-194 -19 0
-194 -20 0
-194 -21 0
-194 -22 0
-194 -23 0
-194 -24 0
-194 -25 0
-194 -26 0
-194 -27 0
-194 -28 0
-194 -29 0
-194 -30 0
-194 -31 0
-194 -32 0
-195 -1 0
-195 -2 0
-195 -3 0
-195 -4 0
-195 -5 0
-195 -6 0
-195 -7 0
-195 -8 0
-195 -9 0
-195 -10 0
-195 -11 0
-195 -12 0
-195 -13 0
-195 -14 0
-195 -15 0
-195 -16 0
-195 17 0
-195 18 0
-195 19 0
-195 20 0
-195 -21 0
-195 -22 0
-195 -23 0
-195 -24 0
-195 25 0
-195 26 0
-195 27 0
-195 28 0
-195 -29 0
-195 -30 0
-195 -31 0
-195 -32 0
-196 1 0
-196 2 0
-196 3 0
-196 4 0
-196 -5 0
-196 -6 0
-196 -7 0
-196 -8 0
-196 9 0
-196 10 0
-196 11 0
-196 12 0
-196 -13 0
-196 -14 0
-196 -15 0
-196 -16 0
-196 -17 0
-196 -18 0
-196 -19 0
-196 -20 0
-196 -21 0
-196 -22 0
-196 -23 0
-196 -24 0
-196 -25 0
-196 -26 0
-196 -27 0
-196 -28 0
-196 -29 0
-196 -30 0
-196 -31 0
-196 -32 0
-197 -1 0
-197 -2 0
-197 -3 0
-197 -4 0
-197 -5 0
-197 -6 0
-197 -7 0
-197 -8 0
-197 -9 0
-197 -10 0
-197 -11 0
-197 -12 0
-197 -13 0
-197 -14 0
-197 -15 0
-197 -16 0
-197 -17 0
-197 -18 0
-197 -19 0
-197 -20 0
-197 -21 0
-197 -22 0
-197 -23 0
-197 -24 0
-197 25 0
-197 26 0
-197 27 0
-197 28 0
-197 29 0
-197 30 0
-197 31 0
-197 32 0
-198 -1 0
-198 -2 0
-198 -3 0
-198 -4 0
-198 -5 0
-198 -6 0
-198 -7 0
-198 -8 0
-198 9 0
-198 10 0
-198 11 0
-198 12 0
-198 13 0
-198 14 0
-198 15 0
-198 16 0
-198 -17 0
-198 -18 0
-198 -19 0
-198 -20 0
-198 -21 0
-198 -22 0
-198 -23 0
-198 -24 0
-198 -25 0
-198 -26 0
-198 -27 0
-198 -28 0
-198 -29 0
-198 -30 0
-198 -31 0
-198 -32 0
-199 -1 0
-199 -2 0
-199 -3 0
-199 -4 0
-199 -5 0
-199 -6 0
-199 -7 0
-199 -8 0
-199 -9 0
-199 -10 0
-199 -11 0
-199 -12 0
-199 -13 0
-199 -14 0
-199 -15 0
-199 -16 0
-199 17 0
-199 18 0
-199 19 0
-199 20 0
-199 21 0
-199 22 0
-199 23 0
-199 24 0
-199 -25 0
-199 -26 0
-199 -27 0
-199 -28 0
-199 -29 0
-199 -30 0
-199 -31 0
-199 -32 0
-200 1 0
-200 2 0
-200 3 0
-200 4 0
-200 5 0
-200 6 0
-200 7 0
-200 8 0
-200 -9 0
-200 -10 0
-200 -11 0
-200 -12 0
-200 -13 0
-200 -14 0
-200 -15 0
-200 -16 0
-200 -17 0
-200 -18 0
-200 -19 0
-200 -20 0
-200 -21 0
-200 -22 0
-200 -23 0
-200 -24 0
-200 -25 0
-200 -26 0
-200 -27 0
-200 -28 0
-200 -29 0
-200 -30 0
-200 -31 0
-200 -32 0
201 202 203 204 205 206 207 208 209 210 211 212 213 214 215 216 217 218 219 220 221 222 223 224 225 226 227 228 229 230 231 232 233 234 235 236 237 238 239 240 241 242 243 244 245 246 247 248 249 250 251 252 253 254 255 256 257 258 259 260 0
-201 -202 0
-201 -203 0
-201 -204 0
-201 -205 0
-201 -206 0
-201 -207 0
-201 -208 0
-201 -209 0
-201 -210 0
-201 -211 0
-201 -212 0
-201 -213 0
-201 -214 0
-201 -215 0
-201 -216 0
-201 -217 0
-201 -218 0
-201 -219 0
-201 -220 0
-201 -221 0
-201 -222 0
-201 -223 0
-201 -224 0
-201 -225 0
-201 -226 0
-201 -227 0
-201 -228 0
-201 -229 0
-201 -230 0
-201 -231 0
-201 -232 0
-201 -233 0
-201 -234 0
-201 -235 0
-201 -236 0
-201 -237 0
-201 -238 0
-201 -239 0
-201 -240 0
-201 -241 0
-201 -242 0
-201 -243 0
-201 -244 0
-201 -245 0
-201 -246 0
-201 -247 0
-201 -248 0
-201 -249 0
-201 -250 0
-201 -251 0
-201 -252 0
-201 -253 0
-201 -254 0
-201 -255 0
-201 -256 0
-201 -257 0
-201 -258 0
-201 -259 0
-201 -260 0
-202 -203 0
-202 -204 0
-202 -205 0
-202 -206 0
-202 -207 0
-202 -208 0
-202 -209 0
-202 -210 0
-202 -211 0
-202 -212 0
-202 -213 0
-202 -214 0
-202 -215 0
-202 -216 0
-202 -217 0
-202 -218 0
-202 -219 0
-202 -220 0
-202 -221 0
-202 -222 0
-202 -223 0
-202 -224 0
-202 -225 0
-202 -226 0
-202 -227 0
-202 -228 0
-202 -229 0
-202 -230 0
-202 -231 0
-202 -232 0
-202 -233 0
-202 -234 0
-202 -235 0
-202 -236 0
-202 -237 0
-202 -238 0
-202 -239 0
-202 -240 0
-202 -241 0
-202 -242 0
-202 -243 0
-202 -244 0
-202 -245 0
-202 -246 0
-202 -247 0
-202 -248 0
-202 -249 0
-202 -250 0
-202 -251 0
-202 -252 0
-202 -253 0
-202 -254 0
-202 -255 0
-202 -256 0
-202 -257 0
-202 -258 0
-202 -259 0
-202 -260 0
-203 -204 0
-203 -205 0
-203 -206 0
-203 -207 0
-203 -208 0
-203 -209 0
-203 -210 0
-203 -211 0
-203 -212 0
-203 -213 0
-203 -214 0
-203 -215 0
-203 -216 0
-203 -217 0
-203 -218 0
-203 -219 0
-203 -220 0
-203 -221 0
-203 -222 0
-203 -223 0
-203 -224 0
-203 -225 0
-203 -226 0
-203 -227 0
-203 -228 0
-203 -229 0
-203 -230 0
-203 -231 0
-203 -232 0
-203 -233 0
-203 -234 0
-203 -235 0
-203 -236 0
-203 -237 0
-203 -238 0
-203 -239 0
-203 -240 0
-203 -241 0
-203 -242 0
-203 -243 0
-203 -244 0
-203 -245 0
-203 -246 0
-203 -247 0
-203 -248 0
-203 -249 0
-203 -250 0
-203 -251 0
-203 -252 0
-203 -253 0
-203 -254 0
-203 -255 0
-203 -256 0
-203 -257 0
-203 -258 0
-203 -259 0
-203 -260 0
-204 -205 0
-204 -206 0
-204 -207 0
-204 -208 0
-204 -209 0
-204 -210 0
-204 -211 0
-204 -212 0
-204 -213 0
-204 -214 0
-204 -215 0
-204 -216 0
-204 -217 0
-204 -218 0
-204 -219 0
-204 -220 0
-204 -221 0
-204 -222 0
-204 -223 0
-204 -224 0
-204 -225 0
-204 -226 0
-204 -227 0
-204 -228 0
-204 -229 0
-204 -230 0
-204 -231 0
-204 -232 0
-204 -233 0
-204 -234 0
-204 -235 0
-204 -236 0
-204 -237 0
-204 -238 0
-204 -239 0
-204 -240 0
-204 -241 0
-204 -242 0
-204 -243 0
-204 -244 0
-204 -245 0
-204 -246 0
-204 -247 0
-204 -248 0
-204 -249 0
-204 -250 0
-204 -251 0
-204 -252 0
-204 -253 0
-204 -254 0
-204 -255 0
-204 -256 0
-204 -257 0
-204 -258 0
-204 -259 0
-204 -260 0
-205 -206 0
-205 -207 0
-205 -208 0
-205 -209 0
-205 -210 0
-205 -211 0
-205 -212 0
-205 -213 0
-205 -214 0
-205 -215 0
-205 -216 0
-205 -217 0
-205 -218 0
-205 -219 0
-205 -220 0
-205 -221 0
-205 -222 0
-205 -223 0
-205 -224 0
-205 -225 0
-205 -226 0
-205 -227 0
-205 -228 0
-205 -229 0
-205 -230 0
-205 -231 0
-205 -232 0
-205 -233 0
-205 -234 0
-205 -235 0
-205 -236 0
-205 -237 0
-205 -238 0
-205 -239 0
-205 -240 0
-205 -241 0
-205 -242 0
-205 -243 0
-205 -244 0
-205 -245 0
-205 -246 0
-205 -247 0
-205 -248 0
-205 -249 0
-205 -250 0
-205 -251 0
-205 -252 0
-205 -253 0
-205 -254 0
-205 -255 0
-205 -256 0
-205 -257 0
-205 -258 0
-205 -259 0
-205 -260 0
-206 -207 0
-206 -208 0
-206 -209 0
-206 -210 0
-206 -211 0
-206 -212 0
-206 -213 0
-206 -214 0
-206 -215 0
-206 -216 0
-206 -217 0
-206 -218 0
-206 -219 0
-206 -220 0
-206 -221 0
-206 -222 0
-206 -223 0
-206 -224 0
-206 -225 0
-206 -226 0
-206 -227 0
-206 -228 0
-206 -229 0
-206 -230 0
-206 -231 0
-206 -232 0
-206 -233 0
-206 -234 0
-206 -235 0
-206 -236 0
-206 -237 0
-206 -238 0
-206 -239 0
-206 -240 0
-206 -241 0
-206 -242 0
-206 -243 0
-206 -244 0
-206 -245 0
-206 -246 0
-206 -247 0
-206 -248 0
-206 -249 0
-206 -250 0
-206 -251 0
-206 -252 0
-206 -253 0
-206 -254 0
-206 -255 0
-206 -256 0
-206 -257 0
-206 -258 0
-206 -259 0
-206 -260 0
-207 -208 0
-207 -209 0
-207 -210 0
-207 -211 0
-207 -212 0
-207 -213 0
-207 -214 0
-207 -215 0
-207 -216 0
-207 -217 0
-207 -218 0
-207 -219 0
-207 -220 0
-207 -221 0
-207 -222 0
-207 -223 0
-207 -224 0
-207 -225 0
-207 -226 0
-207 -227 0
-207 -228 0
-207 -229 0
-207 -230 0
-207 -231 0
-207 -232 0
-207 -233 0
-207 -234 0
-207 -235 0
-207 -236 0
-207 -237 0
-207 -238 0
-207 -239 0
-207 -240 0
-207 -241 0
-207 -242 0
-207 -243 0
-207 -244 0
-207 -245 0
-207 -246 0
-207 -247 0
-207 -248 0
-207 -249 0
-207 -250 0
-207 -251 0
-207 -252 0
-207 -253 0
-207 -254 0
-207 -255 0
-207 -256 0
-207 -257 0
-207 -258 0
-207 -259 0
-207 -260 0
-208 -209 0
-208 -210 0
-208 -211 0
-208 -212 0
-208 -213 0
-208 -214 0
-208 -215 0
-208 -216 0
-208 -217 0
-208 -218 0
-208 -219 0
-208 -220 0
-208 -221 0
-208 -222 0
-208 -223 0
-208 -224 0
-208 -225 0
-208 -226 0
-208 -227 0
-208 -228 0
-208 -229 0
-208 -230 0
-208 -231 0
-208 -232 0
-208 -233 0
-208 -234 0
-208 -235 0
-208 -236 0
-208 -237 0
-208 -238 0
-208 -239 0
-208 -240 0
-208 -241 0
-208 -242 0
-208 -243 0
-208 -244 0
-208 -245 0
-208 -246 0
-208 -247 0
-208 -248 0
-208 -249 0
-208 -250 0
-208 -251 0
-208 -252 0
-208 -253 0
-208 -254 0
-208 -255 0
-208 -256 0
-208 -257 0
-208 -258 0
-208 -259 0
-208 -260 0
-209 -210 0
-209 -211 0
-209 -212 0
-209 -213 0
-209 -214 0
-209 -215 0
-209 -216 0
-209 -217 0
-209 -218 0
-209 -219 0
-209 -220 0
-209 -221 0
-209 -222 0
-209 -223 0
-209 -224 0
-209 -225 0
-209 -226 0
-209 -227 0
-209 -228 0
-209 -229 0
-209 -230 0
-209 -231 0
-209 -232 0
-209 -233 0
-209 -234 0
-209 -235 0
-209 -236 0
-209 -237 0
-209 -238 0
-209 -239 0
-209 -240 0
-209 -241 0
-209 -242 0
-209 -243 0
-209 -244 0
-209 -245 0
-209 -246 0
-209 -247 0
-209 -248 0
-209 -249 0
-209 -250 0
-209 -251 0
-209 -252 0
-209 -253 0
-209 -254 0
-209 -255 0
-209 -256 0
-209 -257 0
-209 -258 0
-209 -259 0
-209 -260 0
-210 -211 0
-210 -212 0
-210 -213 0
-210 -214 0
-210 -215 0
-210 -216 0
-210 -217 0
-210 -218 0
-210 -219 0
-210 -220 0
-210 -221 0
-210 -222 0
-210 -223 0
-210 -224 0
-210 -225 0
-210 -226 0
-210 -227 0
-210 -228 0
-210 -229 0
-210 -230 0
-210 -231 0
-210 -232 0
-210 -233 0
-210 -234 0
-210 -235 0
-210 -236 0
-210 -237 0
-210 -238 0
-210 -239 0
-210 -240 0
-210 -241 0
-210 -242 0
-210 -243 0
-210 -244 0
-210 -245 0
-210 -246 0
-210 -247 0
-210 -248 0
-210 -249 0
-210 -250 0
-210 -251 0
-210 -252 0
-210 -253 0
-210 -254 0
-210 -255 0
-210 -256 0
-210 -257 0
-210 -258 0
-210 -259 0
-210 -260 0
-211 -212 0
-211 -213 0
-211 -214 0
-211 -215 0
-211 -216 0
-211 -217 0
-211 -218 0
-211 -219 0
-211 -220 0
-211 -221 0
-211 -222 0
-211 -223 0
-211 -224 0
-211 -225 0
-211 -226 0
-211 -227 0
-211 -228 0
-211 -229 0
-211 -230 0
-211 -231 0
-211 -232 0
-211 -233 0
-211 -234 0
-211 -235 0
-211 -236 0
-211 -237 0
-211 -238 0
-211 -239 0
-211 -240 0
-211 -241 0
-211 -242 0
-211 -243 0
-211 -244 0
-211 -245 0
-211 -246 0
-211 -247 0
-211 -248 0
-211 -249 0
-211 -250 0
-211 -251 0
-211 -252 0
-211 -253 0
-211 -254 0
-211 -255 0
-211 -256 0
-211 -257 0
-211 -258 0
-211 -259 0
-211 -260 0
-212 -213 0
-212 -214 0
-212 -215 0
-212 -216 0
-212 -217 0
-212 -218 0
-212 -219 0
-212 -220 0
-212 -221 0
-212 -222 0
-212 -223 0
-212 -224 0
-212 -225 0
-212 -226 0
-212 -227 0
-212 -228 0
-212 -229 0
-212 -230 0
-212 -231 0
-212 -232 0
-212 -233 0
-212 -234 0
-212 -235 0
-212 -236 0
-212 -237 0
-212 -238 0
-212 -239 0
-212 -240 0
-212 -241 0
-212 -242 0
-212 -243 0
-212 -244 0
-212 -245 0
-212 -246 0
-212 -247 0
-212 -248 0
-212 -249 0
-212 -250 0
-212 -251 0
-212 -252 0
-212 -253 0
-212 -254 0
-212 -255 0
-212 -256 0
-212 -257 0
-212 -258 0
-212 -259 0
-212 -260 0
-213 -214 0
-213 -215 0
-213 -216 0
-213 -217 0
-213 -218 0
-213 -219 0
-213 -220 0
-213 -221 0
-213 -222 0
-213 -223 0
-213 -224 0
-213 -225 0
-213 -226 0
-213 -227 0
-213 -228 0
-213 -229 0
-213 -230 0
-213 -231 0
-213 -232 0
-213 -233 0
-213 -234 0
-213 -235 0
-213 -236 0
-213 -237 0
-213 -238 0
-213 -239 0
-213 -240 0
-213 -241 0
-213 -242 0
-213 -243 0
-213 -244 0
-213 -245 0
-213 -246 0
-213 -247 0
-213 -248 0
-213 -249 0
-213 -250 0
-213 -251 0
-213 -252 0
-213 -253 0
-213 -254 0
-213 -255 0
-213 -256 0
-213 -257 0
-213 -258 0
-213 -259 0
-213 -260 0
-214 -215 0
-214 -216 0
-214 -217 0
-214 -218 0
-214 -219 0
-214 -220 0
-214 -221 0
-214 -222 0
-214 -223 0
-214 -224 0
-214 -225 0
-214 -226 0
-214 -227 0
-214 -228 0
-214 -229 0
-214 -230 0
-214 -231 0
-214 -232 0
-214 -233 0
-214 -234 0
-214 -235 0
-214 -236 0
-214 -237 0
-214 -238 0
-214 -239 0
-214 -240 0
-214 -241 0
-214 -242 0
-214 -243 0
-214 -244 0
-214 -245 0
-214 -246 0
-214 -247 0
-214 -248 0
-214 -249 0
-214 -250 0
-214 -251 0
-214 -252 0
-214 -253 0
-214 -254 0
-214 -255 0
-214 -256 0
-214 -257 0
-214 -258 0
-214 -259 0
-214 -260 0
-215 -216 0
-215 -217 0
-215 -218 0
-215 -219 0
-215 -220 0
-215 -221 0
-215 -222 0
-215 -223 0
-215 -224 0
-215 -225 0
-215 -226 0
-215 -227 0
-215 -228 0
-215 -229 0
-215 -230 0
-215 -231 0
-215 -232 0
-215 -233 0
-215 -234 0
-215 -235 0
-215 -236 0
-215 -237 0
-215 -238 0
-215 -239 0
-215 -240 0
-215 -241 0
-215 -242 0
-215 -243 0
-215 -244 0
-215 -245 0
-215 -246 0
-215 -247 0
-215 -248 0
-215 -249 0
-215 -250 0
-215 -251 0
-215 -252 0
-215 -253 0
-215 -254 0
-215 -255 0
-215 -256 0
-215 -257 0
-215 -258 0
-215 -259 0
-215 -260 0
-216 -217 0
-216 -218 0
-216 -219 0
-216 -220 0
-216 -221 0
-216 -222 0
-216 -223 0
-216 -224 0
-216 -225 0
-216 -226 0
-216 -227 0
-216 -228 0
-216 -229 0
-216 -230 0
-216 -231 0
-216 -232 0
-216 -233 0
-216 -234 0
-216 -235 0
-216 -236 0
-216 -237 0
-216 -238 0
-216 -239 0
-216 -240 0
-216 -241 0
-216 -242 0
-216 -243 0
-216 -244 0
-216 -245 0
-216 -246 0
-216 -247 0
-216 -248 0
-216 -249 0
-216 -250 0
-216 -251 0
-216 -252 0
-216 -253 0
-216 -254 0
-216 -255 0
-216 -256 0
-216 -257 0
-216 -258 0
-216 -259 0
-216 -260 0
-217 -218 0
-217 -219 0
-217 -220 0
-217 -221 0
-217 -222 0
-217 -223 0
-217 -224 0
-217 -225 0
-217 -226 0
-217 -227 0
-217 -228 0
-217 -229 0
-217 -230 0
-217 -231 0
-217 -232 0
-217 -233 0
-217 -234 0
-217 -235 0
-217 -236 0
-217 -237 0
-217 -238 0
-217 -239 0
-217 -240 0
-217 -241 0
-217 -242 0
-217 -243 0
-217 -244 0
-217 -245 0
-217 -246 0
-217 -247 0
-217 -248 0
-217 -249 0
-217 -250 0
-217 -251 0
-217 -252 0
-217 -253 0
-217 -254 0
-217 -255 0
-217 -256 0
-217 -257 0
-217 -258 0
-217 -259 0
-217 -260 0
-218 -219 0
-218 -220 0
-218 -221 0
-218 -222 0
-218 -223 0
-218 -224 0
-218 -225 0
-218 -226 0
-218 -227 0
-218 -228 0
-218 -229 0
-218 -230 0
-218 -231 0
-218 -232 0
-218 -233 0
-218 -234 0
-218 -235 0
-218 -236 0
-218 -237 0
-218 -238 0
-218 -239 0
-218 -240 0
-218 -241 0
-218 -242 0
-218 -243 0
-218 -244 0
-218 -245 0
-218 -246 0
-218 -247 0
-218 -248 0
-218 -249 0
-218 -250 0
-218 -251 0
-218 -252 0
-218 -253 0
-218 -254 0
-218 -255 0
-218 -256 0
-218 -257 0
-218 -258 0
-218 -259 0
-218 -260 0
-219 -220 0
-219 -221 0
-219 -222 0
-219 -223 0
-219 -224 0
-219 -225 0
-219 -226 0
-219 -227 0
-219 -228 0
-219 -229 0
-219 -230 0
-219 -231 0
-219 -232 0
-219 -233 0
-219 -234 0
-219 -235 0
-219 -236 0
-219 -237 0
-219 -238 0
-219 -239 0
-219 -240 0
-219 -241 0
-219 -242 0
-219 -243 0
-219 -244 0
-219 -245 0
-219 -246 0
-219 -247 0
-219 -248 0
-219 -249 0
-219 -250 0
-219 -251 0
-219 -252 0
-219 -253 0
-219 -254 0
-219 -255 0
-219 -256 0
-219 -257 0
-219 -258 0
-219 -259 0
-219 -260 0
-220 -221 0
-220 -222 0
-220 -223 0
-220 -224 0
-220 -225 0
-220 -226 0
-220 -227 0
-220 -228 0
-220 -229 0
-220 -230 0
-220 -231 0
-220 -232 0
-220 -233 0
-220 -234 0
-220 -235 0
-220 -236 0
-220 -237 0
-220 -238 0
-220 -239 0
-220 -240 0
-220 -241 0
-220 -242 0
-220 -243 0
-220 -244 0
-220 -245 0
-220 -246 0
-220 -247 0
-220 -248 0
-220 -249 0
-220 -250 0
-220 -251 0
-220 -252 0
-220 -253 0
-220 -254 0
-220 -255 0
-220 -256 0
-220 -257 0
-220 -258 0
-220 -259 0
-220 -260 0
-221 -222 0
-221 -223 0
-221 -224 0
-221 -225 0
-221 -226 0
-221 -227 0
-221 -228 0
-221 -229 0
-221 -230 0
-221 -231 0
-221 -232 0
-221 -233 0
-221 -234 0
-221 -235 0
-221 -236 0
-221 -237 0
-221 -238 0
-221 -239 0
-221 -240 0
-221 -241 0
-221 -242 0
-221 -243 0
-221 -244 0
-221 -245 0
-221 -246 0
-221 -247 0
-221 -248 0
-221 -249 0
-221 -250 0
-221 -251 0
-221 -252 0
-221 -253 0
-221 -254 0
-221 -255 0
-221 -256 0
-221 -257 0
-221 -258 0
-221 -259 0
-221 -260 0
-222 -223 0
-222 -224 0
-222 -225 0
-222 -226 0
-222 -227 0
-222 -228 0
-222 -229 0
-222 -230 0
-222 -231 0
-222 -232 0
-222 -233 0
-222 -234 0
-222 -235 0
-222 -236 0
-222 -237 0
-222 -238 0
-222 -239 0
-222 -240 0
-222 -241 0
-222 -242 0
-222 -243 0
-222 -244 0
-222 -245 0
-222 -246 0
-222 -247 0
-222 -248 0
-222 -249 0
-222 -250 0
-222 -251 0
-222 -252 0
-222 -253 0
-222 -254 0
-222 -255 0
-222 -256 0
-222 -257 0
-222 -258 0
-222 -259 0
-222 -260 0
-223 -224 0
-223 -225 0
-223 -226 0
-223 -227 0
-223 -228 0
-223 -229 0
-223 -230 0
-223 -231 0
-223 -232 0
-223 -233 0
-223 -234 0
-223 -235 0
-223 -236 0
-223 -237 0
-223 -238 0
-223 -239 0
-223 -240 0
-223 -241 0
-223 -242 0
-223 -243 0
-223 -244 0
-223 -245 0
-223 -246 0
-223 -247 0
-223 -248 0
-223 -249 0
-223 -250 0
-223 -251 0
-223 -252 0
-223 -253 0
-223 -254 0
-223 -255 0
-223 -256 0
-223 -257 0
-223 -258 0
-223 -259 0
-223 -260 0
-224 -225 0
-224 -226 0
-224 -227 0
-224 -228 0
-224 -229 0
-224 -230 0
-224 -231 0
-224 -232 0
-224 -233 0
-224 -234 0
-224 -235 0
-224 -236 0
-224 -237 0
-224 -238 0
-224 -239 0
-224 -240 0
-224 -241 0
-224 -242 0
-224 -243 0
-224 -244 0
-224 -245 0
-224 -246 0
-224 -247 0
-224 -248 0
-224 -249 0
-224 -250 0
-224 -251 0
-224 -252 0
-224 -253 0
-224 -254 0
-224 -255 0
-224 -256 0
-224 -257 0
-224 -258 0
-224 -259 0
-224 -260 0
-225 -226 0
-225 -227 0
-225 -228 0
-225 -229 0
-225 -230 0
-225 -231 0
-225 -232 0
-225 -233 0
-225 -234 0
-225 -235 0
-225 -236 0
-225 -237 0
-225 -238 0
-225 -239 0
-225 -240 0
-225 -241 0
-225 -242 0
-225 -243 0
-225 -244 0
-225 -245 0
-225 -246 0
-225 -247 0
-225 -248 0
-225 -249 0
-225 -250 0
-225 -251 0
-225 -252 0
-225 -253 0
-225 -254 0
-225 -255 0
-225 -256 0
-225 -257 0
-225 -258 0
-225 -259 0
-225 -260 0
-226 -227 0
-226 -228 0
-226 -229 0
-226 -230 0
-226 -231 0
-226 -232 0
-226 -233 0
-226 -234 0
-226 -235 0
-226 -236 0
-226 -237 0
-226 -238 0
-226 -239 0
-226 -240 0
-226 -241 0
-226 -242 0
-226 -243 0
-226 -244 0
-226 -245 0
-226 -246 0
-226 -247 0
-226 -248 0
-226 -249 0
-226 -250 0
-226 -251 0
-226 -252 0
-226 -253 0
-226 -254 0
-226 -255 0
-226 -256 0
-226 -257 0
-226 -258 0
-226 -259 0
-226 -260 0
-227 -228 0
-227 -229 0
-227 -230 0
-227 -231 0
-227 -232 0
-227 -233 0
-227 -234 0
-227 -235 0
-227 -236 0
-227 -237 0
-227 -238 0
-227 -239 0
-227 -240 0
-227 -241 0
-227 -242 0
-227 -243 0
-227 -244 0
-227 -245 0
-227 -246 0
-227 -247 0
-227 -248 0
-227 -249 0
-227 -250 0
-227 -251 0
-227 -252 0
-227 -253 0
-227 -254 0
-227 -255 0
-227 -256 0
-227 -257 0
-227 -258 0
-227 -259 0
-227 -260 0
-228 -229 0
-228 -230 0
-228 -231 0
-228 -232 0
-228 -233 0
-228 -234 0
-228 -235 0
-228 -236 0
-228 -237 0
-228 -238 0
-228 -239 0
-228 -240 0
-228 -241 0
-228 -242 0
-228 -243 0
-228 -244 0
-228 -245 0
-228 -246 0
-228 -247 0
-228 -248 0
-228 -249 0
-228 -250 0
-228 -251 0
-228 -252 0
-228 -253 0
-228 -254 0
-228 -255 0
-228 -256 0
-228 -257 0
-228 -258 0
-228 -259 0
-228 -260 0
-229 -230 0
-229 -231 0
-229 -232 0
-229 -233 0
-229 -234 0
-229 -235 0
-229 -236 0
-229 -237 0
-229 -238 0
-229 -239 0
-229 -240 0
-229 -241 0
-229 -242 0
-229 -243 0
-229 -244 0
-229 -245 0
-229 -246 0
-229 -247 0
-229 -248 0
-229 -249 0
-229 -250 0
-229 -251 0
-229 -252 0
-229 -253 0
-229 -254 0
-229 -255 0
-229 -256 0
-229 -257 0
-229 -258 0
-229 -259 0
-229 -260 0
-230 -231 0
-230 -232 0
-230 -233 0
-230 -234 0
-230 -235 0
-230 -236 0
-230 -237 0
-230 -238 0
-230 -239 0
-230 -240 0
-230 -241 0
-230 -242 0
-230 -243 0
-230 -244 0
-230 -245 0
-230 -246 0
-230 -247 0
-230 -248 0
-230 -249 0
-230 -250 0
-230 -251 0
-230 -252 0
-230 -253 0
-230 -254 0
-230 -255 0
-230 -256 0
-230 -257 0
-230 -258 0
-230 -259 0
-230 -260 0
-231 -232 0
-231 -233 0
-231 -234 0
-231 -235 0
-231 -236 0
-231 -237 0
-231 -238 0
-231 -239 0
-231 -240 0
-231 -241 0
-231 -242 0
-231 -243 0
-231 -244 0
-231 -245 0
-231 -246 0
-231 -247 0
-231 -248 0
-231 -249 0
-231 -250 0
-231 -251 0
-231 -252 0
-231 -253 0
-231 -254 0
-231 -255 0
-231 -256 0
-231 -257 0
-231 -258 0
-231 -259 0
-231 -260 0
-232 -233 0
-232 -234 0
-232 -235 0
-232 -236 0
-232 -237 0
-232 -238 0
-232 -239 0
-232 -240 0
-232 -241 0
-232 -242 0
-232 -243 0
-232 -244 0
-232 -245 0
-232 -246 0
-232 -247 0
-232 -248 0
-232 -249 0
-232 -250 0
-232 -251 0
-232 -252 0
-232 -253 0
-232 -254 0
-232 -255 0
-232 -256 0
-232 -257 0
-232 -258 0
-232 -259 0
-232 -260 0
-233 -234 0
-233 -235 0
-233 -236 0
-233 -237 0
-233 -238 0
-233 -239 0
-233 -240 0
-233 -241 0
-233 -242 0
-233 -243 0
-233 -244 0
-233 -245 0
-233 -246 0
-233 -247 0
-233 -248 0
-233 -249 0
-233 -250 0
-233 -251 0
-233 -252 0
-233 -253 0
-233 -254 0
-233 -255 0
-233 -256 0
-233 -257 0
-233 -258 0
-233 -259 0
-233 -260 0
-234 -235 0
-234 -236 0
-234 -237 0
-234 -238 0
-234 -239 0
-234 -240 0
-234 -241 0
-234 -242 0
-234 -243 0
-234 -244 0
-234 -245 0
-234 -246 0
-234 -247 0
-234 -248 0
-234 -249 0
-234 -250 0
-234 -251 0
-234 -252 0
-234 -253 0
-234 -254 0
-234 -255 0
-234 -256 0
-234 -257 0
-234 -258 0
-234 -259 0
-234 -260 0
-235 -236 0
-235 -237 0
-235 -238 0
-235 -239 0
-235 -240 0
-235 -241 0
-235 -242 0
-235 -243 0
-235 -244 0
-235 -245 0
-235 -246 0
-235 -247 0
-235 -248 0
-235 -249 0
-235 -250 0
-235 -251 0
-235 -252 0
-235 -253 0
-235 -254 0
-235 -255 0
-235 -256 0
-235 -257 0
-235 -258 0
-235 -259 0
-235 -260 0
-236 -237 0
-236 -238 0
-236 -239 0
-236 -240 0
-236 -241 0
-236 -242 0
-236 -243 0
-236 -244 0
-236 -245 0
-236 -246 0
-236 -247 0
-236 -248 0
-236 -249 0
-236 -250 0
-236 -251 0
-236 -252 0
-236 -253 0
-236 -254 0
-236 -255 0
-236 -256 0
-236 -257 0
-236 -258 0
-236 -259 0
-236 -260 0
-237 -238 0
-237 -239 0
-237 -240 0
-237 -241 0
-237 -242 0
-237 -243 0
-237 -244 0
-237 -245 0
-237 -246 0
-237 -247 0
-237 -248 0
-237 -249 0
-237 -250 0
-237 -251 0
-237 -252 0
-237 -253 0
-237 -254 0
-237 -255 0
-237 -256 0
-237 -257 0
-237 -258 0
-237 -259 0
-237 -260 0
-238 -239 0
-238 -240 0
-238 -241 0
-238 -242 0
-238 -243 0
-238 -244 0
-238 -245 0
-238 -246 0
-238 -247 0
-238 -248 0
-238 -249 0
-238 -250 0
-238 -251 0
-238 -252 0
-238 -253 0
-238 -254 0
-238 -255 0
-238 -256 0
-238 -257 0
-238 -258 0
-238 -259 0
-238 -260 0
-239 -240 0
-239 -241 0
-239 -242 0
-239 -243 0
-239 -244 0
-239 -245 0
-239 -246 0
-239 -247 0
-239 -248 0
-239 -249 0
-239 -250 0
-239 -251 0
-239 -252 0
-239 -253 0
-239 -254 0
-239 -255 0
-239 -256 0
-239 -257 0
-239 -258 0
-239 -259 0
-239 -260 0
-240 -241 0
-240 -242 0
-240 -243 0
-240 -244 0
-240 -245 0
-240 -246 0
-240 -247 0
-240 -248 0
-240 -249 0
-240 -250 0
-240 -251 0
-240 -252 0
-240 -253 0
-240 -254 0
-240 -255 0
-240 -256 0
-240 -257 0
-240 -258 0
-240 -259 0
-240 -260 0
-241 -242 0
-241 -243 0
-241 -244 0
-241 -245 0
-241 -246 0
-241 -247 0
-241 -248 0
-241 -249 0
-241 -250 0
-241 -251 0
-241 -252 0
-241 -253 0
-241 -254 0
-241 -255 0
-241 -256 0
-241 -257 0
-241 -258 0
-241 -259 0
-241 -260 0
-242 -243 0
-242 -244 0
-242 -245 0
-242 -246 0
-242 -247 0
-242 -248 0
-242 -249 0
-242 -250 0
-242 -251 0
-242 -252 0
-242 -253 0
-242 -254 0
-242 -255 0
-242 -256 0
-242 -257 0
-242 -258 0
-242 -259 0
-242 -260 0
-243 -244 0
-243 -245 0
-243 -246 0
-243 -247 0
-243 -248 0
-243 -249 0
-243 -250 0
-243 -251 0
-243 -252 0
-243 -253 0
-243 -254 0
-243 -255 0
-243 -256 0
-243 -257 0
-243 -258 0
-243 -259 0
-243 -260 0
-244 -245 0
-244 -246 0
-244 -247 0
-244 -248 0
-244 -249 0
-244 -250 0
-244 -251 0
-244 -252 0
-244 -253 0
-244 -254 0
-244 -255 0
-244 -256 0
-244 -257 0
-244 -258 0
-244 -259 0
-244 -260 0
-245 -246 0
-245 -247 0
-245 -248 0
-245 -249 0
-245 -250 0
-245 -251 0
-245 -252 0
-245 -253 0
-245 -254 0
-245 -255 0
-245 -256 0
-245 -257 0
-245 -258 0
-245 -259 0
-245 -260 0
-246 -247 0
-246 -248 0
-246 -249 0
-246 -250 0
-246 -251 0
-246 -252 0
-246 -253 0
-246 -254 0
-246 -255 0
-246 -256 0
-246 -257 0
-246 -258 0
-246 -259 0
-246 -260 0
-247 -248 0
-247 -249 0
-247 -250 0
-247 -251 0
-247 -252 0
-247 -253 0
-247 -254 0
-247 -255 0
-247 -256 0
-247 -257 0
-247 -258 0
-247 -259 0
-247 -260 0
-248 -249 0
-248 -250 0
-248 -251 0
-248 -252 0
-248 -253 0
-248 -254 0
-248 -255 0
-248 -256 0
-248 -257 0
-248 -258 0
-248 -259 0
-248 -260 0
-249 -250 0
-249 -251 0
-249 -252 0
-249 -253 0
-249 -254 0
-249 -255 0
-249 -256 0
-249 -257 0
-249 -258 0
-249 -259 0
-249 -260 0
-250 -251 0
-250 -252 0
-250 -253 0
-250 -254 0
-250 -255 0
-250 -256 0
-250 -257 0
-250 -258 0
-250 -259 0
-250 -260 0
-251 -252 0
-251 -253 0
-251 -254 0
-251 -255 0
-251 -256 0
-251 -257 0
-251 -258 0
-251 -259 0
-251 -260 0
-252 -253 0
-252 -254 0
-252 -255 0
-252 -256 0
-252 -257 0
-252 -258 0
-252 -259 0
-252 -260 0
-253 -254 0
-253 -255 0
-253 -256 0
-253 -257 0
-253 -258 0
-253 -259 0
-253 -260 0
-254 -255 0
-254 -256 0
-254 -257 0
-254 -258 0
-254 -259 0
-254 -260 0
-255 -256 0
-255 -257 0
-255 -258 0
-255 -259 0
-255 -260 0
-256 -257 0
-256 -258 0
-256 -259 0
-256 -260 0
-257 -258 0
-257 -259 0
-257 -260 0
-258 -259 0
-258 -260 0
-259 -260 0
-201 -33 0
-201 -34 0
-201 -35 0
-201 36 0
-201 -37 0
-201 -38 0
-201 -39 0
-201 40 0
-201 -41 0
-201 -42 0
-201 -43 0
-201 44 0
-201 -45 0
-201 -46 0
-201 -47 0
-201 48 0
-201 -49 0
-201 -50 0
-201 -51 0
-201 52 0
-201 -53 0
-201 -54 0
-201 -55 0
-201 56 0
-201 -57 0
-201 -58 0
-201 -59 0
-201 60 0
-201 -61 0
-201 -62 0
-201 -63 0
-201 64 0
-202 -33 0
-202 34 0
-202 -35 0
-202 -36 0
-202 -37 0
-202 38 0
-202 -39 0
-202 -40 0
-202 -41 0
-202 42 0
-202 -43 0
-202 -44 0
-202 -45 0
-202 46 0
-202 -47 0
-202 -48 0
-202 -49 0
-202 50 0
-202 -51 0
-202 -52 0
-202 -53 0
-202 54 0
-202 -55 0
-202 -56 0
-202 -57 0
-202 58 0
-202 -59 0
-202 -60 0
-202 -61 0
-202 62 0
-202 -63 0
-202 -64 0
-203 -33 0
-203 -34 0
-203 35 0
-203 -36 0
-203 -37 0
-203 -38 0
-203 39 0
-203 -40 0
-203 -41 0
-203 -42 0
-203 43 0
-203 -44 0
-203 -45 0
-203 -46 0
-203 47 0
-203 -48 0
-203 -49 0
-203 -50 0
-203 51 0
-203 -52 0
-203 -53 0
-203 -54 0
-203 55 0
-203 -56 0
-203 -57 0
-203 -58 0
-203 59 0
-203 -60 0
-203 -61 0
-203 -62 0
-203 63 0
-203 -64 0
-204 33 0
-204 -34 0
-204 -35 0
-204 -36 0
-204 37 0
-204 -38 0
-204 -39 0
-204 -40 0
-204 41 0
-204 -42 0
-204 -43 0
-204 -44 0
-204 45 0
-204 -46 0
-204 -47 0
-204 -48 0
-204 49 0
-204 -50 0
-204 -51 0
-204 -52 0
-204 53 0
-204 -54 0
-204 -55 0
-204 -56 0
-204 57 0
-204 -58 0
-204 -59 0
-204 -60 0
-204 61 0
-204 -62 0
-204 -63 0
-204 -64 0
-205 -33 0
-205 -34 0
-205 -35 0
-205 -36 0
-205 -37 0
-205 38 0
-205 -39 0
-205 40 0
-205 -41 0
-205 -42 0
-205 -43 0
-205 -44 0
-205 -45 0
-205 46 0
-205 -47 0
-205 48 0
-205 -49 0
-205 -50 0
-205 -51 0
-205 -52 0
-205 -53 0
-205 54 0
-205 -55 0
-205 56 0
-205 -57 0
-205 -58 0
-205 -59 0
-205 -60 0
-205 -61 0
-205 62 0
-205 -63 0
-205 64 0
-206 -33 0
-206 34 0
-206 -35 0
-206 36 0
-206 -37 0
-206 -38 0
-206 -39 0
-206 -40 0
-206 -41 0
-206 42 0
-206 -43 0
-206 44 0
-206 -45 0
-206 -46 0
-206 -47 0
-206 -48 0
-206 -49 0
-206 50 0
-206 -51 0
-206 52 0
-206 -53 0
-206 -54 0
-206 -55 0
-206 -56 0
-206 -57 0
-206 58 0
-206 -59 0
-206 60 0
-206 -61 0
-206 -62 0
-206 -63 0
-206 -64 0
-207 -33 0
-207 -34 0
-207 -35 0
-207 -36 0
-207 37 0
-207 -38 0
-207 39 0
-207 -40 0
-207 -41 0
-207 -42 0
-207 -43 0
-207 -44 0
-207 45 0
-207 -46 0
-207 47 0
-207 -48 0
-207 -49 0
-207 -50 0
-207 -51 0
-207 -52 0
-207 53 0
-207 -54 0
-207 55 0
-207 -56 0
-207 -57 0
-207 -58 0
-207 -59 0
-207 -60 0
-207 61 0
-207 -62 0
-207 63 0
-207 -64 0
-208 33 0
-208 -34 0
-208 35 0
-208 -36 0
-208 -37 0
-208 -38 0
-208 -39 0
-208 -40 0
-208 41 0
-208 -42 0
-208 43 0
-208 -44 0
-208 -45 0
-208 -46 0
-208 -47 0
-208 -48 0
-208 49 0
-208 -50 0
-208 51 0
-208 -52 0
-208 -53 0
-208 -54 0
-208 -55 0
-208 -56 0
-208 57 0
-208 -58 0
-208 59 0
-208 -60 0
-208 -61 0
-208 -62 0
-208 -63 0
-208 -64 0
-209 -33 0
-209 -34 0
-209 -35 0
-209 -36 0
-209 -37 0
-209 -38 0
-209 -39 0
-209 -40 0
-209 -41 0
-209 42 0
-209 -43 0
-209 44 0
-209 -45 0
-209 46 0
-209 -47 0
-209 48 0
-209 -49 0
-209 -50 0
-209 -51 0
-209 -52 0
-209 -53 0
-209 -54 0
-209 -55 0
-209 -56 0
-209 -57 0
-209 58 0
-209 -59 0
-209 60 0
-209 -61 0
-209 62 0
-209 -63 0
-209 64 0
-210 -33 0
-210 34 0
-210 -35 0
-210 36 0
-210 -37 0
-210 38 0
-210 -39 0
-210 40 0
-210 -41 0
-210 -42 0
-210 -43 0
-210 -44 0
-210 -45 0
-210 -46 0
-210 -47 0
-210 -48 0
-210 -49 0
-210 50 0
-210 -51 0
-210 52 0
-210 -53 0
-210 54 0
-210 -55 0
-210 56 0
-210 -57 0
-210 -58 0
-210 -59 0
-210 -60 0
-210 -61 0
-210 -62 0
-210 -63 0
-210 -64 0
-211 -33 0
-211 -34 0
-211 -35 0
-211 -36 0
-211 -37 0
-211 -38 0
-211 -39 0
-211 -40 0
-211 41 0
-211 -42 0
-211 43 0
-211 -44 0
-211 45 0
-211 -46 0
-211 47 0
-211 -48 0
-211 -49 0
-211 -50 0
-211 -51 0
-211 -52 0
-211 -53 0
-211 -54 0
-211 -55 0
-211 -56 0
-211 57 0
-211 -58 0
-211 59 0
-211 -60 0
-211 61 0
-211 -62 0
-211 63 0
-211 -64 0
-212 33 0
-212 -34 0
-212 35 0
-212 -36 0
-212 37 0
-212 -38 0
-212 39 0
-212 -40 0
-212 -41 0
-212 -42 0
-212 -43 0
-212 -44 0
-212 -45 0
-212 -46 0
-212 -47 0
-212 -48 0
-212 49 0
-212 -50 0
-212 51 0
-212 -52 0
-212 53 0
-212 -54 0
-212 55 0
-212 -56 0
-212 -57 0
-212 -58 0
-212 -59 0
-212 -60 0
-212 -61 0
-212 -62 0
-212 -63 0
-212 -64 0
-213 -33 0
-213 -34 0
-213 -35 0
-213 -36 0
-213 -37 0
-213 -38 0
-213 -39 0
-213 -40 0
-213 -41 0
-213 -42 0
-213 -43 0
-213 -44 0
-213 -45 0
-213 -46 0
-213 -47 0
-213 -48 0
-213 -49 0
-213 50 0
-213 -51 0
-213 52 0
-213 -53 0
-213 54 0
-213 -55 0
-213 56 0
-213 -57 0
-213 58 0
-213 -59 0
-213 60 0
-213 -61 0
-213 62 0
-213 -63 0
-213 64 0
-214 -33 0
-214 34 0
-214 -35 0
-214 36 0
-214 -37 0
-214 38 0
-214 -39 0
-214 40 0
-214 -41 0
-214 42 0
-214 -43 0
-214 44 0
-214 -45 0
-214 46 0
-214 -47 0
-214 48 0
-214 -49 0
-214 -50 0
-214 -51 0
-214 -52 0
-214 -53 0
-214 -54 0
-214 -55 0
-214 -56 0
-214 -57 0
-214 -58 0
-214 -59 0
-214 -60 0
-214 -61 0
-214 -62 0
-214 -63 0
-214 -64 0
-215 -33 0
-215 -34 0
-215 -35 0
-215 -36 0
-215 -37 0
-215 -38 0
-215 -39 0
-215 -40 0
-215 -41 0
-215 -42 0
-215 -43 0
-215 -44 0
-215 -45 0
-215 -46 0
-215 -47 0
-215 -48 0
-215 49 0
-215 -50 0
-215 51 0
-215 -52 0
-215 53 0
-215 -54 0
-215 55 0
-215 -56 0
-215 57 0
-215 -58 0
-215 59 0
-215 -60 0
-215 61 0
-215 -62 0
-215 63 0
-215 -64 0
-216 33 0
-216 -34 0
-216 35 0
-216 -36 0
-216 37 0
-216 -38 0
-216 39 0
-216 -40 0
-216 41 0
-216 -42 0
-216 43 0
-216 -44 0
-216 45 0
-216 -46 0
-216 47 0
-216 -48 0
-216 -49 0
-216 -50 0
-216 -51 0
-216 -52 0
-216 -53 0
-216 -54 0
-216 -55 0
-216 -56 0
-216 -57 0
-216 -58 0
-216 -59 0
-216 -60 0
-216 -61 0
-216 -62 0
-216 -63 0
-216 -64 0
-217 -33 0
-217 -34 2 0
-217 34 -2 0
-217 -35 0
-217 -36 4 0
-217 36 -4 0
-217 -37 0
-217 -38 6 0
-217 38 -6 0
-217 -39 0
-217 -40 8 0
-217 40 -8 0
-217 -41 0
-217 -42 10 0
-217 42 -10 0
-217 -43 0
-217 -44 12 0
-217 44 -12 0
-217 -45 0
-217 -46 14 0
-217 46 -14 0
-217 -47 0
-217 -48 16 0
-217 48 -16 0
-217 -49 0
-217 -50 18 0
-217 50 -18 0
-217 -51 0
-217 -52 20 0
-217 52 -20 0
-217 -53 0
-217 -54 22 0
-217 54 -22 0
-217 -55 0
-217 -56 24 0
-217 56 -24 0
-217 -57 0
-217 -58 26 0
-217 58 -26 0
-217 -59 0
-217 -60 28 0
-217 60 -28 0
-217 -61 0
-217 -62 30 0
-217 62 -30 0
-217 -63 0
-217 -64 32 0
-217 64 -32 0
-218 -33 0
-218 -34 -2 0
-218 34 2 0
-218 -35 0
-218 -36 -4 0
-218 36 4 0
-218 -37 0
-218 -38 -6 0
-218 38 6 0
-218 -39 0
-218 -40 -8 0
-218 40 8 0
-218 -41 0
-218 -42 -10 0
-218 42 10 0
-218 -43 0
-218 -44 -12 0
-218 44 12 0
-218 -45 0
-218 -46 -14 0
-218 46 14 0
-218 -47 0
-218 -48 -16 0
-218 48 16 0
-218 -49 0
-218 -50 -18 0
-218 50 18 0
-218 -51 0
-218 -52 -20 0
-218 52 20 0
-218 -53 0
-218 -54 -22 0
-218 54 22 0
-218 -55 0
-218 -56 -24 0
-218 56 24 0
-218 -57 0
-218 -58 -26 0
-218 58 26 0
-218 -59 0
-218 -60 -28 0
-218 60 28 0
-218 -61 0
-218 -62 -30 0
-218 62 30 0
-218 -63 0
-218 -64 -32 0
-218 64 32 0
-219 -33 1 0
-219 33 -1 0
-219 -34 0
-219 -35 3 0
-219 35 -3 0
-219 -36 0
-219 -37 5 0
-219 37 -5 0
-219 -38 0
-219 -39 7 0
-219 39 -7 0
-219 -40 0
-219 -41 9 0
-219 41 -9 0
-219 -42 0
-219 -43 11 0
-219 43 -11 0
-219 -44 0
-219 -45 13 0
-219 45 -13 0
-219 -46 0
-219 -47 15 0
-219 47 -15 0
-219 -48 0
-219 -49 17 0
-219 49 -17 0
-219 -50 0
-219 -51 19 0
-219 51 -19 0
-219 -52 0
-219 -53 21 0
-219 53 -21 0
-219 -54 0
-219 -55 23 0
-219 55 -23 0
-219 -56 0
-219 -57 25 0
-219 57 -25 0
-219 -58 0
-219 -59 27 0
-219 59 -27 0
-219 -60 0
-219 -61 29 0
-219 61 -29 0
-219 -62 0
-219 -63 31 0
-219 63 -31 0
-219 -64 0
-220 -33 -1 0
-220 33 1 0
-220 -34 0
-220 -35 -3 0
-220 35 3 0
-220 -36 0
-220 -37 -5 0
-220 37 5 0
-220 -38 0
-220 -39 -7 0
-220 39 7 0
-220 -40 0
-220 -41 -9 0
-220 41 9 0
-220 -42 0
-220 -43 -11 0
-220 43 11 0
-220 -44 0
-220 -45 -13 0
-220 45 13 0
-220 -46 0
-220 -47 -15 0
-220 47 15 0
-220 -48 0
-220 -49 -17 0
-220 49 17 0
-220 -50 0
-220 -51 -19 0
-220 51 19 0
-220 -52 0
-220 -53 -21 0
-220 53 21 0
-220 -54 0
-220 -55 -23 0
-220 55 23 0
-220 -56 0
-220 -57 -25 0
-220 57 25 0
-220 -58 0
-220 -59 -27 0
-220 59 27 0
-220 -60 0
-220 -61 -29 0
-220 61 29 0
-220 -62 0
-220 -63 -31 0
-220 63 31 0
-220 -64 0
-221 -33 0
-221 -34 0
-221 -35 0
-221 -36 0
-221 -37 0
-221 -38 0
-221 39 0
-221 40 0
-221 -41 0
-221 -42 0
-221 -43 0
-221 -44 0
-221 -45 0
-221 -46 0
-221 47 0
-221 48 0
-221 -49 0
-221 -50 0
-221 -51 0
-221 -52 0
-221 -53 0
-221 -54 0
-221 55 0
-221 56 0
-221 -57 0
-221 -58 0
-221 -59 0
-221 -60 0
-221 -61 0
-221 -62 0
-221 63 0
-221 64 0
-222 -33 0
-222 -34 0
-222 35 0
-222 36 0
-222 -37 0
-222 -38 0
-222 -39 0
-222 -40 0
-222 -41 0
-222 -42 0
-222 43 0
-222 44 0
-222 -45 0
-222 -46 0
-222 -47 0
-222 -48 0
-222 -49 0
-222 -50 0
-222 51 0
-222 52 0
-222 -53 0
-222 -54 0
-222 -55 0
-222 -56 0
-222 -57 0
-222 -58 0
-222 59 0
-222 60 0
-222 -61 0
-222 -62 0
-222 -63 0
-222 -64 0
-223 -33 0
-223 -34 0
-223 -35 0
-223 -36 0
-223 37 0
-223 38 0
-223 -39 0
-223 -40 0
-223 -41 0
-223 -42 0
-223 -43 0
-223 -44 0
-223 45 0
-223 46 0
-223 -47 0
-223 -48 0
-223 -49 0
-223 -50 0
-223 -51 0
-223 -52 0
-223 53 0
-223 54 0
-223 -55 0
-223 -56 0
-223 -57 0
-223 -58 0
-223 -59 0
-223 -60 0
-223 61 0
-223 62 0
-223 -63 0
-223 -64 0
-224 33 0
-224 34 0
-224 -35 0
-224 -36 0
-224 -37 0
-224 -38 0
-224 -39 0
-224 -40 0
-224 41 0
-224 42 0
-224 -43 0
-224 -44 0
-224 -45 0
-224 -46 0
-224 -47 0
-224 -48 0
-224 49 0
-224 50 0
-224 -51 0
-224 -52 0
-224 -53 0
-224 -54 0
-224 -55 0
-224 -56 0
-224 57 0
-224 58 0
-224 -59 0
-224 -60 0
-224 -61 0
-224 -62 0
-224 -63 0
-224 -64 0
-225 -33 0
-225 -34 0
-225 -35 0
-225 -36 0
-225 -37 0
-225 -38 0
-225 -39 0
-225 -40 0
-225 -41 0
-225 -42 0
-225 43 0
-225 44 0
-225 -45 0
-225 -46 0
-225 47 0
-225 48 0
-225 -49 0
-225 -50 0
-225 -51 0
-225 -52 0
-225 -53 0
-225 -54 0
-225 -55 0
-225 -56 0
-225 -57 0
-225 -58 0
-225 59 0
-225 60 0
-225 -61 0
-225 -62 0
-225 63 0
-225 64 0
-226 -33 0
-226 -34 0
-226 35 0
-226 36 0
-226 -37 0
-226 -38 0
-226 39 0
-226 40 0
-226 -41 0
-226 -42 0
-226 -43 0
-226 -44 0
-226 -45 0
-226 -46 0
-226 -47 0
-226 -48 0
-226 -49 0
-226 -50 0
-226 51 0
-226 52 0
-226 -53 0
-226 -54 0
-226 55 0
-226 56 0
-226 -57 0
-226 -58 0
-226 -59 0
-226 -60 0
-226 -61 0
-226 -62 0
-226 -63 0
-226 -64 0
-227 -33 0
-227 -34 0
-227 -35 0
-227 -36 0
-227 -37 0
-227 -38 0
-227 -39 0
-227 -40 0
-227 41 0
-227 42 0
-227 -43 0
-227 -44 0
-227 45 0
-227 46 0
-227 -47 0
-227 -48 0
-227 -49 0
-227 -50 0
-227 -51 0
-227 -52 0
-227 -53 0
-227 -54 0
-227 -55 0
-227 -56 0
-227 57 0
-227 58 0
-227 -59 0
-227 -60 0
-227 61 0
-227 62 0
-227 -63 0
-227 -64 0
-228 33 0
-228 34 0
-228 -35 0
-228 -36 0
-228 37 0
-228 38 0
-228 -39 0
-228 -40 0
-228 -41 0
-228 -42 0
-228 -43 0
-228 -44 0
-228 -45 0
-228 -46 0
-228 -47 0
-228 -48 0
-228 49 0
-228 50 0
-228 -51 0
-228 -52 0
-228 53 0
-228 54 0
-228 -55 0
-228 -56 0
-228 -57 0
-228 -58 0
-228 -59 0
-228 -60 0
-228 -61 0
-228 -62 0
-228 -63 0
-228 -64 0
-229 -33 0
-229 -34 0
-229 -35 0
-229 -36 0
-229 -37 0
-229 -38 0
-229 -39 0
-229 -40 0
-229 -41 0
-229 -42 0
-229 -43 0
-229 -44 0
-229 -45 0
-229 -46 0
-229 -47 0
-229 -48 0
-229 -49 0
-229 -50 0
-229 51 0
-229 52 0
-229 -53 0
-229 -54 0
-229 55 0
-229 56 0
-229 -57 0
-229 -58 0
-229 59 0
-229 60 0
-229 -61 0
-229 -62 0
-229 63 0
-229 64 0
-230 -33 0
-230 -34 0
-230 35 0
-230 36 0
-230 -37 0
-230 -38 0
-230 39 0
-230 40 0
-230 -41 0
-230 -42 0
-230 43 0
-230 44 0
-230 -45 0
-230 -46 0
-230 47 0
-230 48 0
-230 -49 0
-230 -50 0
-230 -51 0
-230 -52 0
-230 -53 0
-230 -54 0
-230 -55 0
-230 -56 0
-230 -57 0
-230 -58 0
-230 -59 0
-230 -60 0
-230 -61 0
-230 -62 0
-230 -63 0
-230 -64 0
-231 -33 0
-231 -34 0
-231 -35 0
-231 -36 0
-231 -37 0
-231 -38 0
-231 -39 0
-231 -40 0
-231 -41 0
-231 -42 0
-231 -43 0
-231 -44 0
-231 -45 0
-231 -46 0
-231 -47 0
-231 -48 0
-231 49 0
-231 50 0
-231 -51 0
-231 -52 0
-231 53 0
-231 54 0
-231 -55 0
-231 -56 0
-231 57 0
-231 58 0
-231 -59 0
-231 -60 0
-231 61 0
-231 62 0
-231 -63 0
-231 -64 0
-232 33 0
-232 34 0
-232 -35 0
-232 -36 0
-232 37 0
-232 38 0
-232 -39 0
-232 -40 0
-232 41 0
-232 42 0
-232 -43 0
-232 -44 0
-232 45 0
-232 46 0
-232 -47 0
-232 -48 0
-232 -49 0
-232 -50 0
-232 -51 0
-232 -52 0
-232 -53 0
-232 -54 0
-232 -55 0
-232 -56 0
-232 -57 0
-232 -58 0
-232 -59 0
-232 -60 0
-232 -61 0
-232 -62 0
-232 -63 0
-232 -64 0
-233 -33 0
-233 -34 0
-233 -35 3 0
-233 35 -3 0
-233 -36 4 0
-233 36 -4 0
-233 -37 0
-233 -38 0
-233 -39 7 0
-233 39 -7 0
-233 -40 8 0
-233 40 -8 0
-233 -41 0
-233 -42 0
-233 -43 11 0
-233 43 -11 0
-233 -44 12 0
-233 44 -12 0
-233 -45 0
-233 -46 0
-233 -47 15 0
-233 47 -15 0
-233 -48 16 0
-233 48 -16 0
-233 -49 0
-233 -50 0
-233 -51 19 0
-233 51 -19 0
-233 -52 20 0
-233 52 -20 0
-233 -53 0
-233 -54 0
-233 -55 23 0
-233 55 -23 0
-233 -56 24 0
-233 56 -24 0
-233 -57 0
-233 -58 0
-233 -59 27 0
-233 59 -27 0
-233 -60 28 0
-233 60 -28 0
-233 -61 0
-233 -62 0
-233 -63 31 0
-233 63 -31 0
-233 -64 32 0
-233 64 -32 0
-234 -33 0
-234 -34 0
-234 -35 -3 0
-234 35 3 0
-234 -36 -4 0
-234 36 4 0
-234 -37 0
-234 -38 0
-234 -39 -7 0
-234 39 7 0
-234 -40 -8 0
-234 40 8 0
-234 -41 0
-234 -42 0
-234 -43 -11 0
-234 43 11 0
-234 -44 -12 0
-234 44 12 0
-234 -45 0
-234 -46 0
-234 -47 -15 0
-234 47 15 0
-234 -48 -16 0
-234 48 16 0
-234 -49 0
-234 -50 0
-234 -51 -19 0
-234 51 19 0
-234 -52 -20 0
-234 52 20 0
-234 -53 0
-234 -54 0
-234 -55 -23 0
-234 55 23 0
-234 -56 -24 0
-234 56 24 0
-234 -57 0
-234 -58 0
-234 -59 -27 0
-234 59 27 0
-234 -60 -28 0
-234 60 28 0
-234 -61 0
-234 -62 0
-234 -63 -31 0
-234 63 31 0
-234 -64 -32 0
-234 64 32 0
-235 -33 1 0
-235 33 -1 0
-235 -34 2 0
-235 34 -2 0
-235 -35 0
-235 -36 0
-235 -37 5 0
-235 37 -5 0
-235 -38 6 0
-235 38 -6 0
-235 -39 0
-235 -40 0
-235 -41 9 0
-235 41 -9 0
-235 -42 10 0
-235 42 -10 0
-235 -43 0
-235 -44 0
-235 -45 13 0
-235 45 -13 0
-235 -46 14 0
-235 46 -14 0
-235 -47 0
-235 -48 0
-235 -49 17 0
-235 49 -17 0
-235 -50 18 0
-235 50 -18 0
-235 -51 0
-235 -52 0
-235 -53 21 0
-235 53 -21 0
-235 -54 22 0
-235 54 -22 0
-235 -55 0
-235 -56 0
-235 -57 25 0
-235 57 -25 0
-235 -58 26 0
-235 58 -26 0
-235 -59 0
-235 -60 0
-235 -61 29 0
-235 61 -29 0
-235 -62 30 0
-235 62 -30 0
-235 -63 0
-235 -64 0
-236 -33 -1 0
-236 33 1 0
-236 -34 -2 0
-236 34 2 0
-236 -35 0
-236 -36 0
-236 -37 -5 0
-236 37 5 0
-236 -38 -6 0
-236 38 6 0
-236 -39 0
-236 -40 0
-236 -41 -9 0
-236 41 9 0
-236 -42 -10 0
-236 42 10 0
-236 -43 0
-236 -44 0
-236 -45 -13 0
-236 45 13 0
-236 -46 -14 0
-236 46 14 0
-236 -47 0
-236 -48 0
-236 -49 -17 0
-236 49 17 0
-236 -50 -18 0
-236 50 18 0
-236 -51 0
-236 -52 0
-236 -53 -21 0
-236 53 21 0
-236 -54 -22 0
-236 54 22 0
-236 -55 0
-236 -56 0
-236 -57 -25 0
-236 57 25 0
-236 -58 -26 0
-236 58 26 0
-236 -59 0
-236 -60 0
-236 -61 -29 0
-236 61 29 0
-236 -62 -30 0
-236 62 30 0
-236 -63 0
-236 -64 0
-237 -33 0
-237 -34 0
-237 -35 0
-237 -36 0
-237 -37 0
-237 -38 0
-237 -39 0
-237 -40 0
-237 -41 0
-237 -42 0
-237 -43 0
-237 -44 0
-237 45 0
-237 46 0
-237 47 0
-237 48 0
-237 -49 0
-237 -50 0
-237 -51 0
-237 -52 0
-237 -53 0
-237 -54 0
-237 -55 0
-237 -56 0
-237 -57 0
-237 -58 0
-237 -59 0
-237 -60 0
-237 61 0
-237 62 0
-237 63 0
-237 64 0
-238 -33 0
-238 -34 0
-238 -35 0
-238 -36 0
-238 37 0
-238 38 0
-238 39 0
-238 40 0
-238 -41 0
-238 -42 0
-238 -43 0
-238 -44 0
-238 -45 0
-238 -46 0
-238 -47 0
-238 -48 0
-238 -49 0
-238 -50 0
-238 -51 0
-238 -52 0
-238 53 0
-238 54 0
-238 55 0
-238 56 0
-238 -57 0
-238 -58 0
-238 -59 0
-238 -60 0
-238 -61 0
-238 -62 0
-238 -63 0
-238 -64 0
-239 -33 0
-239 -34 0
-239 -35 0
-239 -36 0
-239 -37 0
-239 -38 0
-239 -39 0
-239 -40 0
-239 41 0
-239 42 0
-239 43 0
-239 44 0
-239 -45 0
-239 -46 0
-239 -47 0
-239 -48 0
-239 -49 0
-239 -50 0
-239 -51 0
-239 -52 0
-239 -53 0
-239 -54 0
-239 -55 0
-239 -56 0
-239 57 0
-239 58 0
-239 59 0
-239 60 0
-239 -61 0
-239 -62 0
-239 -63 0
-239 -64 0
-240 33 0
-240 34 0
-240 35 0
-240 36 0
-240 -37 0
-240 -38 0
-240 -39 0
-240 -40 0
-240 -41 0
-240 -42 0
-240 -43 0
-240 -44 0
-240 -45 0
-240 -46 0
-240 -47 0
-240 -48 0
-240 49 0
-240 50 0
-240 51 0
-240 52 0
-240 -53 0
-240 -54 0
-240 -55 0
-240 -56 0
-240 -57 0
-240 -58 0
-240 -59 0
-240 -60 0
-240 -61 0
-240 -62 0
-240 -63 0
-240 -64 0
-241 -33 0
-241 -34 0
-241 -35 0
-241 -36 0
-241 -37 0
-241 -38 0
-241 -39 0
-241 -40 0
-241 -41 0
-241 -42 0
-241 -43 0
-241 -44 0
-241 -45 0
-241 -46 0
-241 -47 0
-241 -48 0
-241 -49 0
-241 -50 0
-241 -51 0
-241 -52 0
-241 53 0
-241 54 0
-241 55 0
-241 56 0
-241 -57 0
-241 -58 0
-241 -59 0
-241 -60 0
-241 61 0
-241 62 0
-241 63 0
-241 64 0
-242 -33 0
-242 -34 0
-242 -35 0
-242 -36 0
-242 37 0
-242 38 0
-242 39 0
-242 40 0
-242 -41 0
-242 -42 0
-242 -43 0
-242 -44 0
-242 45 0
-242 46 0
-242 47 0
-242 48 0
-242 -49 0
-242 -50 0
-242 -51 0
-242 -52 0
-242 -53 0
-242 -54 0
-242 -55 0
-242 -56 0
-242 -57 0
-242 -58 0
-242 -59 0
-242 -60 0
-242 -61 0
-242 -62 0
-242 -63 0
-242 -64 0
-243 -33 0
-243 -34 0
-243 -35 0
-243 -36 0
-243 -37 0
-243 -38 0
-243 -39 0
-243 -40 0
-243 -41 0
-243 -42 0
-243 -43 0
-243 -44 0
-243 -45 0
-243 -46 0
-243 -47 0
-243 -48 0
-243 49 0
-243 50 0
-243 51 0
-243 52 0
-243 -53 0
-243 -54 0
-243 -55 0
-243 -56 0
-243 57 0
-243 58 0
-243 59 0
-243 60 0
-243 -61 0
-243 -62 0
-243 -63 0
-243 -64 0
-244 33 0
-244 34 0
-244 35 0
-244 36 0
-244 -37 0
-244 -38 0
-244 -39 0
-244 -40 0
-244 41 0
-244 42 0
-244 43 0
-244 44 0
-244 -45 0
-244 -46 0
-244 -47 0
-244 -48 0
-244 -49 0
-244 -50 0
-244 -51 0
-244 -52 0
-244 -53 0
-244 -54 0
-244 -55 0
-244 -56 0
-244 -57 0
-244 -58 0
-244 -59 0
-244 -60 0
-244 -61 0
-244 -62 0
-244 -63 0
-244 -64 0
-245 -33 0
-245 -34 0
-245 -35 0
-245 -36 0
-245 -37 5 0
-245 37 -5 0
-245 -38 6 0
-245 38 -6 0
-245 -39 7 0
-245 39 -7 0
-245 -40 8 0
-245 40 -8 0
-245 -41 0
-245 -42 0
-245 -43 0
-245 -44 0
-245 -45 13 0
-245 45 -13 0
-245 -46 14 0
-245 46 -14 0
-245 -47 15 0
-245 47 -15 0
-245 -48 16 0
-245 48 -16 0
-245 -49 0
-245 -50 0
-245 -51 0
-245 -52 0
-245 -53 21 0
-245 53 -21 0
-245 -54 22 0
-245 54 -22 0
-245 -55 23 0
-245 55 -23 0
-245 -56 24 0
-245 56 -24 0
-245 -57 0
-245 -58 0
-245 -59 0
-245 -60 0
-245 -61 29 0
-245 61 -29 0
-245 -62 30 0
-245 62 -30 0
-245 -63 31 0
-245 63 -31 0
-245 -64 32 0
-245 64 -32 0
-246 -33 0
-246 -34 0
-246 -35 0
-246 -36 0
-246 -37 -5 0
-246 37 5 0
-246 -38 -6 0
-246 38 6 0
-246 -39 -7 0
-246 39 7 0
-246 -40 -8 0
-246 40 8 0
-246 -41 0
-246 -42 0
-246 -43 0
-246 -44 0
-246 -45 -13 0
-246 45 13 0
-246 -46 -14 0
-246 46 14 0
-246 -47 -15 0
-246 47 15 0
-246 -48 -16 0
-246 48 16 0
-246 -49 0
-246 -50 0
-246 -51 0
-246 -52 0
-246 -53 -21 0
-246 53 21 0
-246 -54 -22 0
-246 54 22 0
-246 -55 -23 0
-246 55 23 0
-246 -56 -24 0
-246 56 24 0
-246 -57 0
-246 -58 0
-246 -59 0
-246 -60 0
-246 -61 -29 0
-246 61 29 0
-246 -62 -30 0
-246 62 30 0
-246 -63 -31 0
-246 63 31 0
-246 -64 -32 0
-246 64 32 0
-247 -33 1 0
-247 33 -1 0
-247 -34 2 0
-247 34 -2 0
-247 -35 3 0
-247 35 -3 0
-247 -36 4 0
-247 36 -4 0
-247 -37 0
-247 -38 0
-247 -39 0
-247 -40 0
-247 -41 9 0
-247 41 -9 0
-247 -42 10 0
-247 42 -10 0
-247 -43 11 0
-247 43 -11 0
-247 -44 12 0
-247 44 -12 0
-247 -45 0
-247 -46 0
-247 -47 0
-247 -48 0
-247 -49 17 0
-247 49 -17 0
-247 -50 18 0
-247 50 -18 0
-247 -51 19 0
-247 51 -19 0
-247 -52 20 0
-247 52 -20 0
-247 -53 0
-247 -54 0
-247 -55 0
-247 -56 0
-247 -57 25 0
-247 57 -25 0
-247 -58 26 0
-247 58 -26 0
-247 -59 27 0
-247 59 -27 0
-247 -60 28 0
-247 60 -28 0
-247 -61 0
-247 -62 0
-247 -63 0
-247 -64 0
-248 -33 -1 0
-248 33 1 0
-248 -34 -2 0
-248 34 2 0
-248 -35 -3 0
-248 35 3 0
-248 -36 -4 0
-248 36 4 0
-248 -37 0
-248 -38 0
-248 -39 0
-248 -40 0
-248 -41 -9 0
-248 41 9 0
-248 -42 -10 0
-248 42 10 0
-248 -43 -11 0
-248 43 11 0
-248 -44 -12 0
-248 44 12 0
-248 -45 0
-248 -46 0
-248 -47 0
-248 -48 0
-248 -49 -17 0
-248 49 17 0
-248 -50 -18 0
-248 50 18 0
-248 -51 -19 0
-248 51 19 0
-248 -52 -20 0
-248 52 20 0
-248 -53 0
-248 -54 0
-248 -55 0
-248 -56 0
-248 -57 -25 0
-248 57 25 0
-248 -58 -26 0
-248 58 26 0
-248 -59 -27 0
-248 59 27 0
-248 -60 -28 0
-248 60 28 0
-248 -61 0
-248 -62 0
-248 -63 0
-248 -64 0
-249 -33 0
-249 -34 0
-249 -35 0
-249 -36 0
-249 -37 0
-249 -38 0
-249 -39 0
-249 -40 0
-249 -41 0
-249 -42 0
-249 -43 0
-249 -44 0
-249 -45 0
-249 -46 0
-249 -47 0
-249 -48 0
-249 -49 0
-249 -50 0
-249 -51 0
-249 -52 0
-249 -53 0
-249 -54 0
-249 -55 0
-249 -56 0
-249 57 0
-249 58 0
-249 59 0
-249 60 0
-249 61 0
-249 62 0
-249 63 0
-249 64 0
-250 -33 0
-250 -34 0
-250 -35 0
-250 -36 0
-250 -37 0
-250 -38 0
-250 -39 0
-250 -40 0
-250 41 0
-250 42 0
-250 43 0
-250 44 0
-250 45 0
-250 46 0
-250 47 0
-250 48 0
-250 -49 0
-250 -50 0
-250 -51 0
-250 -52 0
-250 -53 0
-250 -54 0
-250 -55 0
-250 -56 0
-250 -57 0
-250 -58 0
-250 -59 0
-250 -60 0
-250 -61 0
-250 -62 0
-250 -63 0
-250 -64 0
-251 -33 0
-251 -34 0
-251 -35 0
-251 -36 0
-251 -37 0
-251 -38 0
-251 -39 0
-251 -40 0
-251 -41 0
-251 -42 0
-251 -43 0
-251 -44 0
-251 -45 0
-251 -46 0
-251 -47 0
-251 -48 0
-251 49 0
-251 50 0
-251 51 0
-251 52 0
-251 53 0
-251 54 0
-251 55 0
-251 56 0
-251 -57 0
-251 -58 0
-251 -59 0
-251 -60 0
-251 -61 0
-251 -62 0
-251 -63 0
-251 -64 0
-252 33 0
-252 34 0
-252 35 0
-252 36 0
-252 37 0
-252 38 0
-252 39 0
-252 40 0
-252 -41 0
-252 -42 0
-252 -43 0
-252 -44 0
-252 -45 0
-252 -46 0
-252 -47 0
-252 -48 0
-252 -49 0
-252 -50 0
-252 -51 0
-252 -52 0
-252 -53 0
-252 -54 0
-252 -55 0
-252 -56 0
-252 -57 0
-252 -58 0
-252 -59 0
-252 -60 0
-252 -61 0
-252 -62 0
-252 -63 0
-252 -64 0
-253 -33 0
-253 -34 0
-253 -35 0
-253 -36 0
-253 -37 0
-253 -38 0
-253 -39 0
-253 -40 0
-253 -41 9 0
-253 41 -9 0
-253 -42 10 0
-253 42 -10 0
-253 -43 11 0
-253 43 -11 0
-253 -44 12 0
-253 44 -12 0
-253 -45 13 0
-253 45 -13 0
-253 -46 14 0
-253 46 -14 0
-253 -47 15 0
-253 47 -15 0
-253 -48 16 0
-253 48 -16 0
-253 -49 0
-253 -50 0
-253 -51 0
-253 -52 0
-253 -53 0
-253 -54 0
-253 -55 0
-253 -56 0
-253 -57 25 0
-253 57 -25 0
-253 -58 26 0
-253 58 -26 0
-253 -59 27 0
-253 59 -27 0
-253 -60 28 0
-253 60 -28 0
-253 -61 29 0
-253 61 -29 0
-253 -62 30 0
-253 62 -30 0
-253 -63 31 0
-253 63 -31 0
-253 -64 32 0
-253 64 -32 0
-254 -33 0
-254 -34 0
-254 -35 0
-254 -36 0
-254 -37 0
-254 -38 0
-254 -39 0
-254 -40 0
-254 -41 -9 0
-254 41 9 0
-254 -42 -10 0
-254 42 10 0
-254 -43 -11 0
-254 43 11 0
-254 -44 -12 0
-254 44 12 0
-254 -45 -13 0
-254 45 13 0
-254 -46 -14 0
-254 46 14 0
-254 -47 -15 0
-254 47 15 0
-254 -48 -16 0
-254 48 16 0
-254 -49 0
-254 -50 0
-254 -51 0
-254 -52 0
-254 -53 0
-254 -54 0
-254 -55 0
-254 -56 0
-254 -57 -25 0
-254 57 25 0
-254 -58 -26 0
-254 58 26 0
-254 -59 -27 0
-254 59 27 0
-254 -60 -28 0
-254 60 28 0
-254 -61 -29 0
-254 61 29 0
-254 -62 -30 0
-254 62 30 0
-254 -63 -31 0
-254 63 31 0
-254 -64 -32 0
-254 64 32 0
-255 -33 1 0
-255 33 -1 0
-255 -34 2 0
-255 34 -2 0
-255 -35 3 0
-255 35 -3 0
-255 -36 4 0
-255 36 -4 0
-255 -37 5 0
-255 37 -5 0
-255 -38 6 0
-255 38 -6 0
-255 -39 7 0
-255 39 -7 0
-255 -40 8 0
-255 40 -8 0
-255 -41 0
-255 -42 0
-255 -43 0
-255 -44 0
-255 -45 0
-255 -46 0
-255 -47 0
-255 -48 0
-255 -49 17 0
-255 49 -17 0
-255 -50 18 0
-255 50 -18 0
-255 -51 19 0
-255 51 -19 0
-255 -52 20 0
-255 52 -20 0
-255 -53 21 0
-255 53 -21 0
-255 -54 22 0
-255 54 -22 0
-255 -55 23 0
-255 55 -23 0
-255 -56 24 0
-255 56 -24 0
-255 -57 0
-255 -58 0
-255 -59 0
-255 -60 0
-255 -61 0
-255 -62 0
-255 -63 0
-255 -64 0
-256 -33 -1 0
-256 33 1 0
-256 -34 -2 0
-256 34 2 0
-256 -35 -3 0
-256 35 3 0
-256 -36 -4 0
-256 36 4 0
-256 -37 -5 0
-256 37 5 0
-256 -38 -6 0
-256 38 6 0
-256 -39 -7 0
-256 39 7 0
-256 -40 -8 0
-256 40 8 0
-256 -41 0
-256 -42 0
-256 -43 0
-256 -44 0
-256 -45 0
-256 -46 0
-256 -47 0
-256 -48 0
-256 -49 -17 0
-256 49 17 0
-256 -50 -18 0
-256 50 18 0
-256 -51 -19 0
-256 51 19 0
-256 -52 -20 0
-256 52 20 0
-256 -53 -21 0
-256 53 21 0
-256 -54 -22 0
-256 54 22 0
-256 -55 -23 0
-256 55 23 0
-256 -56 -24 0
-256 56 24 0
-256 -57 0
-256 -58 0
-256 -59 0
-256 -60 0
-256 -61 0
-256 -62 0
-256 -63 0
-256 -64 0
-257 -33 0
-257 -34 0
-257 -35 0
-257 -36 0
-257 -37 0
-257 -38 0
-257 -39 0
-257 -40 0
-257 -41 0
-257 -42 0
-257 -43 0
-257 -44 0
-257 -45 0
-257 -46 0
-257 -47 0
-257 -48 0
-257 -49 17 0
-257 49 -17 0
-257 -50 18 0
-257 50 -18 0
-257 -51 19 0
-257 51 -19 0
-257 -52 20 0
-257 52 -20 0
-257 -53 21 0
-257 53 -21 0
-257 -54 22 0
-257 54 -22 0
-257 -55 23 0
-257 55 -23 0
-257 -56 24 0
-257 56 -24 0
-257 -57 25 0
-257 57 -25 0
-257 -58 26 0
-257 58 -26 0
-257 -59 27 0
-257 59 -27 0
-257 -60 28 0
-257 60 -28 0
-257 -61 29 0
-257 61 -29 0
-257 -62 30 0
-257 62 -30 0
-257 -63 31 0
-257 63 -31 0
-257 -64 32 0
-257 64 -32 0
-258 -33 0
-258 -34 0
-258 -35 0
-258 -36 0
-258 -37 0
-258 -38 0
-258 -39 0
-258 -40 0
-258 -41 0
-258 -42 0
-258 -43 0
-258 -44 0
-258 -45 0
-258 -46 0
-258 -47 0
-258 -48 0
-258 -49 -17 0
-258 49 17 0
-258 -50 -18 0
-258 50 18 0
-258 -51 -19 0
-258 51 19 0
-258 -52 -20 0
-258 52 20 0
-258 -53 -21 0
-258 53 21 0
-258 -54 -22 0
-258 54 22 0
-258 -55 -23 0
-258 55 23 0
-258 -56 -24 0
-258 56 24 0
-258 -57 -25 0
-258 57 25 0
-258 -58 -26 0
-258 58 26 0
-258 -59 -27 0
-258 59 27 0
-258 -60 -28 0
-258 60 28 0
-258 -61 -29 0
-258 61 29 0
-258 -62 -30 0
-258 62 30 0
-258 -63 -31 0
-258 63 31 0
-258 -64 -32 0
-258 64 32 0
-259 -33 1 0
-259 33 -1 0
-259 -34 2 0
-259 34 -2 0
-259 -35 3 0
-259 35 -3 0
-259 -36 4 0
-259 36 -4 0
-259 -37 5 0
-259 37 -5 0
-259 -38 6 0
-259 38 -6 0
-259 -39 7 0
-259 39 -7 0
-259 -40 8 0
-259 40 -8 0
-259 -41 9 0
-259 41 -9 0
-259 -42 10 0
-259 42 -10 0
-259 -43 11 0
-259 43 -11 0
-259 -44 12 0
-259 44 -12 0
-259 -45 13 0
-259 45 -13 0
-259 -46 14 0
-259 46 -14 0
-259 -47 15 0
-259 47 -15 0
-259 -48 16 0
-259 48 -16 0
-259 -49 0
-259 -50 0
-259 -51 0
-259 -52 0
-259 -53 0
-259 -54 0
-259 -55 0
-259 -56 0
-259 -57 0
-259 -58 0
-259 -59 0
-259 -60 0
-259 -61 0
-259 -62 0
-259 -63 0
-259 -64 0
-260 -33 -1 0
-260 33 1 0
-260 -34 -2 0
-260 34 2 0
-260 -35 -3 0
-260 35 3 0
-260 -36 -4 0
-260 36 4 0
-260 -37 -5 0
-260 37 5 0
-260 -38 -6 0
-260 38 6 0
-260 -39 -7 0
-260 39 7 0
-260 -40 -8 0
-260 40 8 0
-260 -41 -9 0
-260 41 9 0
-260 -42 -10 0
-260 42 10 0
-260 -43 -11 0
-260 43 11 0
-260 -44 -12 0
-260 44 12 0
-260 -45 -13 0
-260 45 13 0
-260 -46 -14 0
-260 46 14 0
-260 -47 -15 0
-260 47 15 0
-260 -48 -16 0
-260 48 16 0
-260 -49 0
-260 -50 0
-260 -51 0
-260 -52 0
-260 -53 0
-260 -54 0
-260 -55 0
-260 -56 0
-260 -57 0
-260 -58 0
-260 -59 0
-260 -60 0
-260 -61 0
-260 -62 0
-260 -63 0
-260 -64 0
261 262 263 264 265 266 267 268 269 270 271 272 273 274 275 276 277 278 279 280 281 282 283 284 285 286 287 288 289 290 291 292 293 294 295 296 297 298 299 300 301 302 303 304 305 306 307 308 309 310 311 312 313 314 315 316 317 318 319 320 321 322 323 324 325 326 327 328 329 330 331 332 333 334 335 336 337 338 339 340 341 342 343 344 0
-261 -262 0
-261 -263 0
-261 -264 0
-261 -265 0
-261 -266 0
-261 -267 0
-261 -268 0
-261 -269 0
-261 -270 0
-261 -271 0
-261 -272 0
-261 -273 0
-261 -274 0
-261 -275 0
-261 -276 0
-261 -277 0
-261 -278 0
-261 -279 0
-261 -280 0
-261 -281 0
-261 -282 0
-261 -283 0
-261 -284 0
-261 -285 0
-261 -286 0
-261 -287 0
-261 -288 0
-261 -289 0
-261 -290 0
-261 -291 0
-261 -292 0
-261 -293 0
-261 -294 0
-261 -295 0
-261 -296 0
-261 -297 0
-261 -298 0
-261 -299 0
-261 -300 0
-261 -301 0
-261 -302 0
-261 -303 0
-261 -304 0
-261 -305 0
-261 -306 0
-261 -307 0
-261 -308 0
-261 -309 0
-261 -310 0
-261 -311 0
-261 -312 0
-261 -313 0
-261 -314 0
-261 -315 0
-261 -316 0
-261 -317 0
-261 -318 0
-261 -319 0
-261 -320 0
-261 -321 0
-261 -322 0
-261 -323 0
-261 -324 0
-261 -325 0
-261 -326 0
-261 -327 0
-261 -328 0
-261 -329 0
-261 -330 0
-261 -331 0
-261 -332 0
-261 -333 0
-261 -334 0
-261 -335 0
-261 -336 0
-261 -337 0
-261 -338 0
-261 -339 0
-261 -340 0
-261 -341 0
-261 -342 0
-261 -343 0
-261 -344 0
-262 -263 0
-262 -264 0
-262 -265 0
-262 -266 0
-262 -267 0
-262 -268 0
-262 -269 0
-262 -270 0
-262 -271 0
-262 -272 0
-262 -273 0
-262 -274 0
-262 -275 0
-262 -276 0
-262 -277 0
-262 -278 0
-262 -279 0
-262 -280 0
-262 -281 0
-262 -282 0
-262 -283 0
-262 -284 0
-262 -285 0
-262 -286 0
-262 -287 0
-262 -288 0
-262 -289 0
-262 -290 0
-262 -291 0
-262 -292 0
-262 -293 0
-262 -294 0
-262 -295 0
-262 -296 0
-262 -297 0
-262 -298 0
-262 -299 0
-262 -300 0
-262 -301 0
-262 -302 0
-262 -303 0
-262 -304 0
-262 -305 0
-262 -306 0
-262 -307 0
-262 -308 0
-262 -309 0
-262 -310 0
-262 -311 0
-262 -312 0
-262 -313 0
-262 -314 0
-262 -315 0
-262 -316 0
-262 -317 0
-262 -318 0
-262 -319 0
-262 -320 0
-262 -321 0
-262 -322 0
-262 -323 0
-262 -324 0
-262 -325 0
-262 -326 0
-262 -327 0
-262 -328 0
-262 -329 0
-262 -330 0
-262 -331 0
-262 -332 0
-262 -333 0
-262 -334 0
-262 -335 0
-262 -336 0
-262 -337 0
-262 -338 0
-262 -339 0
-262 -340 0
-262 -341 0
-262 -342 0
-262 -343 0
-262 -344 0
-263 -264 0
-263 -265 0
-263 -266 0
-263 -267 0
-263 -268 0
-263 -269 0
-263 -270 0
-263 -271 0
-263 -272 0
-263 -273 0
-263 -274 0
-263 -275 0
-263 -276 0
-263 -277 0
-263 -278 0
-263 -279 0
-263 -280 0
-263 -281 0
-263 -282 0
-263 -283 0
-263 -284 0
-263 -285 0
-263 -286 0
-263 -287 0
-263 -288 0
-263 -289 0
-263 -290 0
-263 -291 0
-263 -292 0
-263 -293 0
-263 -294 0
-263 -295 0
-263 -296 0
-263 -297 0
-263 -298 0
-263 -299 0
-263 -300 0
-263 -301 0
-263 -302 0
-263 -303 0
-263 -304 0
-263 -305 0
-263 -306 0
-263 -307 0
-263 -308 0
-263 -309 0
-263 -310 0
-263 -311 0
-263 -312 0
-263 -313 0
-263 -314 0
-263 -315 0
-263 -316 0
-263 -317 0
-263 -318 0
-263 -319 0
-263 -320 0
-263 -321 0
-263 -322 0
-263 -323 0
-263 -324 0
-263 -325 0
-263 -326 0
-263 -327 0
-263 -328 0
-263 -329 0
-263 -330 0
-263 -331 0
-263 -332 0
-263 -333 0
-263 -334 0
-263 -335 0
-263 -336 0
-263 -337 0
-263 -338 0
-263 -339 0
-263 -340 0
-263 -341 0
-263 -342 0
-263 -343 0
-263 -344 0
-264 -265 0
-264 -266 0
-264 -267 0
-264 -268 0
-264 -269 0
-264 -270 0
-264 -271 0
-264 -272 0
-264 -273 0
-264 -274 0
-264 -275 0
-264 -276 0
-264 -277 0
-264 -278 0
-264 -279 0
-264 -280 0
-264 -281 0
-264 -282 0
-264 -283 0
-264 -284 0
-264 -285 0
-264 -286 0
-264 -287 0
-264 -288 0
-264 -289 0
-264 -290 0
-264 -291 0
-264 -292 0
-264 -293 0
-264 -294 0
-264 -295 0
-264 -296 0
-264 -297 0
-264 -298 0
-264 -299 0
-264 -300 0
-264 -301 0
-264 -302 0
-264 -303 0
-264 -304 0
-264 -305 0
-264 -306 0
-264 -307 0
-264 -308 0
-264 -309 0
-264 -310 0
-264 -311 0
-264 -312 0
-264 -313 0
-264 -314 0
-264 -315 0
-264 -316 0
-264 -317 0
-264 -318 0
-264 -319 0
-264 -320 0
-264 -321 0
-264 -322 0
-264 -323 0
-264 -324 0
-264 -325 0
-264 -326 0
-264 -327 0
-264 -328 0
-264 -329 0
-264 -330 0
-264 -331 0
-264 -332 0
-264 -333 0
-264 -334 0
-264 -335 0
-264 -336 0
-264 -337 0
-264 -338 0
-264 -339 0
-264 -340 0
-264 -341 0
-264 -342 0
-264 -343 0
-264 -344 0
-265 -266 0
-265 -267 0
-265 -268 0
-265 -269 0
-265 -270 0
-265 -271 0
-265 -272 0
-265 -273 0
-265 -274 0
-265 -275 0
-265 -276 0
-265 -277 0
-265 -278 0
-265 -279 0
-265 -280 0
-265 -281 0
-265 -282 0
-265 -283 0
-265 -284 0
-265 -285 0
-265 -286 0
-265 -287 0
-265 -288 0
-265 -289 0
-265 -290 0
-265 -291 0
-265 -292 0
-265 -293 0
-265 -294 0
-265 -295 0
-265 -296 0
-265 -297 0
-265 -298 0
-265 -299 0
-265 -300 0
-265 -301 0
-265 -302 0
-265 -303 0
-265 -304 0
-265 -305 0
-265 -306 0
-265 -307 0
-265 -308 0
-265 -309 0
-265 -310 0
-265 -311 0
-265 -312 0
-265 -313 0
-265 -314 0
-265 -315 0
-265 -316 0
-265 -317 0
-265 -318 0
-265 -319 0
-265 -320 0
-265 -321 0
-265 -322 0
-265 -323 0
-265 -324 0
-265 -325 0
-265 -326 0
-265 -327 0
-265 -328 0
-265 -329 0
-265 -330 0
-265 -331 0
-265 -332 0
-265 -333 0
-265 -334 0
-265 -335 0
-265 -336 0
-265 -337 0
-265 -338 0
-265 -339 0
-265 -340 0
-265 -341 0
-265 -342 0
-265 -343 0
-265 -344 0
-266 -267 0
-266 -268 0
-266 -269 0
-266 -270 0
-266 -271 0
-266 -272 0
-266 -273 0
-266 -274 0
-266 -275 0
-266 -276 0
-266 -277 0
-266 -278 0
-266 -279 0
-266 -280 0
-266 -281 0
-266 -282 0
-266 -283 0
-266 -284 0
-266 -285 0
-266 -286 0
-266 -287 0
-266 -288 0
-266 -289 0
-266 -290 0
-266 -291 0
-266 -292 0
-266 -293 0
-266 -294 0
-266 -295 0
-266 -296 0
-266 -297 0
-266 -298 0
-266 -299 0
-266 -300 0
-266 -301 0
-266 -302 0
-266 -303 0
-266 -304 0
-266 -305 0
-266 -306 0
-266 -307 0
-266 -308 0
-266 -309 0
-266 -310 0
-266 -311 0
-266 -312 0
-266 -313 0
-266 -314 0
-266 -315 0
-266 -316 0
-266 -317 0
-266 -318 0
-266 -319 0
-266 -320 0
-266 -321 0
-266 -322 0
-266 -323 0
-266 -324 0
-266 -325 0
-266 -326 0
-266 -327 0
-266 -328 0
-266 -329 0
-266 -330 0
-266 -331 0
-266 -332 0
-266 -333 0
-266 -334 0
-266 -335 0
-266 -336 0
-266 -337 0
-266 -338 0
-266 -339 0
-266 -340 0
-266 -341 0
-266 -342 0
-266 -343 0
-266 -344 0
-267 -268 0
-267 -269 0
-267 -270 0
-267 -271 0
-267 -272 0
-267 -273 0
-267 -274 0
-267 -275 0
-267 -276 0
-267 -277 0
-267 -278 0
-267 -279 0
-267 -280 0
-267 -281 0
-267 -282 0
-267 -283 0
-267 -284 0
-267 -285 0
-267 -286 0
-267 -287 0
-267 -288 0
-267 -289 0
-267 -290 0
-267 -291 0
-267 -292 0
-267 -293 0
-267 -294 0
-267 -295 0
-267 -296 0
-267 -297 0
-267 -298 0
-267 -299 0
-267 -300 0
-267 -301 0
-267 -302 0
-267 -303 0
-267 -304 0
-267 -305 0
-267 -306 0
-267 -307 0
-267 -308 0
-267 -309 0
-267 -310 0
-267 -311 0
-267 -312 0
-267 -313 0
-267 -314 0
-267 -315 0
-267 -316 0
-267 -317 0
-267 -318 0
-267 -319 0
-267 -320 0
-267 -321 0
-267 -322 0
-267 -323 0
-267 -324 0
-267 -325 0
-267 -326 0
-267 -327 0
-267 -328 0
-267 -329 0
-267 -330 0
-267 -331 0
-267 -332 0
-267 -333 0
-267 -334 0
-267 -335 0
-267 -336 0
-267 -337 0
-267 -338 0
-267 -339 0
-267 -340 0
-267 -341 0
-267 -342 0
-267 -343 0
-267 -344 0
-268 -269 0
-268 -270 0
-268 -271 0
-268 -272 0
-268 -273 0
-268 -274 0
-268 -275 0
-268 -276 0
-268 -277 0
-268 -278 0
-268 -279 0
-268 -280 0
-268 -281 0
-268 -282 0
-268 -283 0
-268 -284 0
-268 -285 0
-268 -286 0
-268 -287 0
-268 -288 0
-268 -289 0
-268 -290 0
-268 -291 0
-268 -292 0
-268 -293 0
-268 -294 0
-268 -295 0
-268 -296 0
-268 -297 0
-268 -298 0
-268 -299 0
-268 -300 0
-268 -301 0
-268 -302 0
-268 -303 0
-268 -304 0
-268 -305 0
-268 -306 0
-268 -307 0
-268 -308 0
-268 -309 0
-268 -310 0
-268 -311 0
-268 -312 0
-268 -313 0
-268 -314 0
-268 -315 0
-268 -316 0
-268 -317 0
-268 -318 0
-268 -319 0
-268 -320 0
-268 -321 0
-268 -322 0
-268 -323 0
-268 -324 0
-268 -325 0
-268 -326 0
-268 -327 0
-268 -328 0
-268 -329 0
-268 -330 0
-268 -331 0
-268 -332 0
-268 -333 0
-268 -334 0
-268 -335 0
-268 -336 0
-268 -337 0
-268 -338 0
-268 -339 0
-268 -340 0
-268 -341 0
-268 -342 0
-268 -343 0
-268 -344 0
-269 -270 0
-269 -271 0
-269 -272 0
-269 -273 0
-269 -274 0
-269 -275 0
-269 -276 0
-269 -277 0
-269 -278 0
-269 -279 0
-269 -280 0
-269 -281 0
-269 -282 0
-269 -283 0
-269 -284 0
-269 -285 0
-269 -286 0
-269 -287 0
-269 -288 0
-269 -289 0
-269 -290 0
-269 -291 0
-269 -292 0
-269 -293 0
-269 -294 0
-269 -295 0
-269 -296 0
-269 -297 0
-269 -298 0
-269 -299 0
-269 -300 0
-269 -301 0
-269 -302 0
-269 -303 0
-269 -304 0
-269 -305 0
-269 -306 0
-269 -307 0
-269 -308 0
-269 -309 0
-269 -310 0
-269 -311 0
-269 -312 0
-269 -313 0
-269 -314 0
-269 -315 0
-269 -316 0
-269 -317 0
-269 -318 0
-269 -319 0
-269 -320 0
-269 -321 0
-269 -322 0
-269 -323 0
-269 -324 0
-269 -325 0
-269 -326 0
-269 -327 0
-269 -328 0
-269 -329 0
-269 -330 0
-269 -331 0
-269 -332 0
-269 -333 0
-269 -334 0
-269 -335 0
-269 -336 0
-269 -337 0
-269 -338 0
-269 -339 0
-269 -340 0
-269 -341 0
-269 -342 0
-269 -343 0
-269 -344 0
-270 -271 0
-270 -272 0
-270 -273 0
-270 -274 0
-270 -275 0
-270 -276 0
-270 -277 0
-270 -278 0
-270 -279 0
-270 -280 0
-270 -281 0
-270 -282 0
-270 -283 0
-270 -284 0
-270 -285 0
-270 -286 0
-270 -287 0
-270 -288 0
-270 -289 0
-270 -290 0
-270 -291 0
-270 -292 0
-270 -293 0
-270 -294 0
-270 -295 0
-270 -296 0
-270 -297 0
-270 -298 0
-270 -299 0
-270 -300 0
-270 -301 0
-270 -302 0
-270 -303 0
-270 -304 0
-270 -305 0
-270 -306 0
-270 -307 0
-270 -308 0
-270 -309 0
-270 -310 0
-270 -311 0
-270 -312 0
-270 -313 0
-270 -314 0
-270 -315 0
-270 -316 0
-270 -317 0
-270 -318 0
-270 -319 0
-270 -320 0
-270 -321 0
-270 -322 0
-270 -323 0
-270 -324 0
-270 -325 0
-270 -326 0
-270 -327 0
-270 -328 0
-270 -329 0
-270 -330 0
-270 -331 0
-270 -332 0
-270 -333 0
-270 -334 0
-270 -335 0
-270 -336 0
-270 -337 0
-270 -338 0
-270 -339 0
-270 -340 0
-270 -341 0
-270 -342 0
-270 -343 0
-270 -344 0
-271 -272 0
-271 -273 0
-271 -274 0
-271 -275 0
-271 -276 0
-271 -277 0
-271 -278 0
-271 -279 0
-271 -280 0
-271 -281 0
-271 -282 0
-271 -283 0
-271 -284 0
-271 -285 0
-271 -286 0
-271 -287 0
-271 -288 0
-271 -289 0
-271 -290 0
-271 -291 0
-271 -292 0
-271 -293 0
-271 -294 0
-271 -295 0
-271 -296 0
-271 -297 0
-271 -298 0
-271 -299 0
-271 -300 0
-271 -301 0
-271 -302 0
-271 -303 0
-271 -304 0
-271 -305 0
-271 -306 0
-271 -307 0
-271 -308 0
-271 -309 0
-271 -310 0
-271 -311 0
-271 -312 0
-271 -313 0
-271 -314 0
-271 -315 0
-271 -316 0
-271 -317 0
-271 -318 0
-271 -319 0
-271 -320 0
-271 -321 0
-271 -322 0
-271 -323 0
-271 -324 0
-271 -325 0
-271 -326 0
-271 -327 0
-271 -328 0
-271 -329 0
-271 -330 0
-271 -331 0
-271 -332 0
-271 -333 0
-271 -334 0
-271 -335 0
-271 -336 0
-271 -337 0
-271 -338 0
-271 -339 0
-271 -340 0
-271 -341 0
-271 -342 0
-271 -343 0
-271 -344 0
-272 -273 0
-272 -274 0
-272 -275 0
-272 -276 0
-272 -277 0
-272 -278 0
-272 -279 0
-272 -280 0
-272 -281 0
-272 -282 0
-272 -283 0
-272 -284 0
-272 -285 0
-272 -286 0
-272 -287 0
-272 -288 0
-272 -289 0
-272 -290 0
-272 -291 0
-272 -292 0
-272 -293 0
-272 -294 0
-272 -295 0
-272 -296 0
-272 -297 0
-272 -298 0
-272 -299 0
-272 -300 0
-272 -301 0
-272 -302 0
-272 -303 0
-272 -304 0
-272 -305 0
-272 -306 0
-272 -307 0
-272 -308 0
-272 -309 0
-272 -310 0
-272 -311 0
-272 -312 0
-272 -313 0
-272 -314 0
-272 -315 0
-272 -316 0
-272 -317 0
-272 -318 0
-272 -319 0
-272 -320 0
-272 -321 0
-272 -322 0
-272 -323 0
-272 -324 0
-272 -325 0
-272 -326 0
-272 -327 0
-272 -328 0
-272 -329 0
-272 -330 0
-272 -331 0
-272 -332 0
-272 -333 0
-272 -334 0
-272 -335 0
-272 -336 0
-272 -337 0
-272 -338 0
-272 -339 0
-272 -340 0
-272 -341 0
-272 -342 0
-272 -343 0
-272 -344 0
-273 -274 0
-273 -275 0
-273 -276 0
-273 -277 0
-273 -278 0
-273 -279 0
-273 -280 0
-273 -281 0
-273 -282 0
-273 -283 0
-273 -284 0
-273 -285 0
-273 -286 0
-273 -287 0
-273 -288 0
-273 -289 0
-273 -290 0
-273 -291 0
-273 -292 0
-273 -293 0
-273 -294 0
-273 -295 0
-273 -296 0
-273 -297 0
-273 -298 0
-273 -299 0
-273 -300 0
-273 -301 0
-273 -302 0
-273 -303 0
-273 -304 0
-273 -305 0
-273 -306 0
-273 -307 0
-273 -308 0
-273 -309 0
-273 -310 0
-273 -311 0
-273 -312 0
-273 -313 0
-273 -314 0
-273 -315 0
-273 -316 0
-273 -317 0
-273 -318 0
-273 -319 0
-273 -320 0
-273 -321 0
-273 -322 0
-273 -323 0
-273 -324 0
-273 -325 0
-273 -326 0
-273 -327 0
-273 -328 0
-273 -329 0
-273 -330 0
-273 -331 0
-273 -332 0
-273 -333 0
-273 -334 0
-273 -335 0
-273 -336 0
-273 -337 0
-273 -338 0
-273 -339 0
-273 -340 0
-273 -341 0
-273 -342 0
-273 -343 0
-273 -344 0
-274 -275 0
-274 -276 0
-274 -277 0
-274 -278 0
-274 -279 0
-274 -280 0
-274 -281 0
-274 -282 0
-274 -283 0
-274 -284 0
-274 -285 0
-274 -286 0
-274 -287 0
-274 -288 0
-274 -289 0
-274 -290 0
-274 -291 0
-274 -292 0
-274 -293 0
-274 -294 0
-274 -295 0
-274 -296 0
-274 -297 0
-274 -298 0
-274 -299 0
-274 -300 0
-274 -301 0
-274 -302 0
-274 -303 0
-274 -304 0
-274 -305 0
-274 -306 0
-274 -307 0
-274 -308 0
-274 -309 0
-274 -310 0
-274 -311 0
-274 -312 0
-274 -313 0
-274 -314 0
-274 -315 0
-274 -316 0
-274 -317 0
-274 -318 0
-274 -319 0
-274 -320 0
-274 -321 0
-274 -322 0
-274 -323 0
-274 -324 0
-274 -325 0
-274 -326 0
-274 -327 0
-274 -328 0
-274 -329 0
-274 -330 0
-274 -331 0
-274 -332 0
-274 -333 0
-274 -334 0
-274 -335 0
-274 -336 0
-274 -337 0
-274 -338 0
-274 -339 0
-274 -340 0
-274 -341 0
-274 -342 0
-274 -343 0
-274 -344 0
-275 -276 0
-275 -277 0
-275 -278 0
-275 -279 0
-275 -280 0
-275 -281 0
-275 -282 0
-275 -283 0
-275 -284 0
-275 -285 0
-275 -286 0
-275 -287 0
-275 -288 0
-275 -289 0
-275 -290 0
-275 -291 0
-275 -292 0
-275 -293 0
-275 -294 0
-275 -295 0
-275 -296 0
-275 -297 0
-275 -298 0
-275 -299 0
-275 -300 0
-275 -301 0
-275 -302 0
-275 -303 0
-275 -304 0
-275 -305 0
-275 -306 0
-275 -307 0
-275 -308 0
-275 -309 0
-275 -310 0
-275 -311 0
-275 -312 0
-275 -313 0
-275 -314 0
-275 -315 0
-275 -316 0
-275 -317 0
-275 -318 0
-275 -319 0
-275 -320 0
-275 -321 0
-275 -322 0
-275 -323 0
-275 -324 0
-275 -325 0
-275 -326 0
-275 -327 0
-275 -328 0
-275 -329 0
-275 -330 0
-275 -331 0
-275 -332 0
-275 -333 0
-275 -334 0
-275 -335 0
-275 -336 0
-275 -337 0
-275 -338 0
-275 -339 0
-275 -340 0
-275 -341 0
-275 -342 0
-275 -343 0
-275 -344 0
-276 -277 0
-276 -278 0
-276 -279 0
-276 -280 0
-276 -281 0
-276 -282 0
-276 -283 0
-276 -284 0
-276 -285 0
-276 -286 0
-276 -287 0
-276 -288 0
-276 -289 0
-276 -290 0
-276 -291 0
-276 -292 0
-276 -293 0
-276 -294 0
-276 -295 0
-276 -296 0
-276 -297 0
-276 -298 0
-276 -299 0
-276 -300 0
-276 -301 0
-276 -302 0
-276 -303 0
-276 -304 0
-276 -305 0
-276 -306 0
-276 -307 0
-276 -308 0
-276 -309 0
-276 -310 0
-276 -311 0
-276 -312 0
-276 -313 0
-276 -314 0
-276 -315 0
-276 -316 0
-276 -317 0
-276 -318 0
-276 -319 0
-276 -320 0
-276 -321 0
-276 -322 0
-276 -323 0
-276 -324 0
-276 -325 0
-276 -326 0
-276 -327 0
-276 -328 0
-276 -329 0
-276 -330 0
-276 -331 0
-276 -332 0
-276 -333 0
-276 -334 0
-276 -335 0
-276 -336 0
-276 -337 0
-276 -338 0
-276 -339 0
-276 -340 0
-276 -341 0
-276 -342 0
-276 -343 0
-276 -344 0
-277 -278 0
-277 -279 0
-277 -280 0
-277 -281 0
-277 -282 0
-277 -283 0
-277 -284 0
-277 -285 0
-277 -286 0
-277 -287 0
-277 -288 0
-277 -289 0
-277 -290 0
-277 -291 0
-277 -292 0
-277 -293 0
-277 -294 0
-277 -295 0
-277 -296 0
-277 -297 0
-277 -298 0
-277 -299 0
-277 -300 0
-277 -301 0
-277 -302 0
-277 -303 0
-277 -304 0
-277 -305 0
-277 -306 0
-277 -307 0
-277 -308 0
-277 -309 0
-277 -310 0
-277 -311 0
-277 -312 0
-277 -313 0
-277 -314 0
-277 -315 0
-277 -316 0
-277 -317 0
-277 -318 0
-277 -319 0
-277 -320 0
-277 -321 0
-277 -322 0
-277 -323 0
-277 -324 0
-277 -325 0
-277 -326 0
-277 -327 0
-277 -328 0
-277 -329 0
-277 -330 0
-277 -331 0
-277 -332 0
-277 -333 0
-277 -334 0
-277 -335 0
-277 -336 0
-277 -337 0
-277 -338 0
-277 -339 0
-277 -340 0
-277 -341 0
-277 -342 0
-277 -343 0
-277 -344 0
-278 -279 0
-278 -280 0
-278 -281 0
-278 -282 0
-278 -283 0
-278 -284 0
-278 -285 0
-278 -286 0
-278 -287 0
-278 -288 0
-278 -289 0
-278 -290 0
-278 -291 0
-278 -292 0
-278 -293 0
-278 -294 0
-278 -295 0
-278 -296 0
-278 -297 0
-278 -298 0
-278 -299 0
-278 -300 0
-278 -301 0
-278 -302 0
-278 -303 0
-278 -304 0
-278 -305 0
-278 -306 0
-278 -307 0
-278 -308 0
-278 -309 0
-278 -310 0
-278 -311 0
-278 -312 0
-278 -313 0
-278 -314 0
-278 -315 0
-278 -316 0
-278 -317 0
-278 -318 0
-278 -319 0
-278 -320 0
-278 -321 0
-278 -322 0
-278 -323 0
-278 -324 0
-278 -325 0
-278 -326 0
-278 -327 0
-278 -328 0
-278 -329 0
-278 -330 0
-278 -331 0
-278 -332 0
-278 -333 0
-278 -334 0
-278 -335 0
-278 -336 0
-278 -337 0
-278 -338 0
-278 -339 0
-278 -340 0
-278 -341 0
-278 -342 0
-278 -343 0
-278 -344 0
-279 -280 0
-279 -281 0
-279 -282 0
-279 -283 0
-279 -284 0
-279 -285 0
-279 -286 0
-279 -287 0
-279 -288 0
-279 -289 0
-279 -290 0
-279 -291 0
-279 -292 0
-279 -293 0
-279 -294 0
-279 -295 0
-279 -296 0
-279 -297 0
-279 -298 0
-279 -299 0
-279 -300 0
-279 -301 0
-279 -302 0
-279 -303 0
-279 -304 0
-279 -305 0
-279 -306 0
-279 -307 0
-279 -308 0
-279 -309 0
-279 -310 0
-279 -311 0
-279 -312 0
-279 -313 0
-279 -314 0
-279 -315 0
-279 -316 0
-279 -317 0
-279 -318 0
-279 -319 0
-279 -320 0
-279 -321 0
-279 -322 0
-279 -323 0
-279 -324 0
-279 -325 0
-279 -326 0
-279 -327 0
-279 -328 0
-279 -329 0
-279 -330 0
-279 -331 0
-279 -332 0
-279 -333 0
-279 -334 0
-279 -335 0
-279 -336 0
-279 -337 0
-279 -338 0
-279 -339 0
-279 -340 0
-279 -341 0
-279 -342 0
-279 -343 0
-279 -344 0
-280 -281 0
-280 -282 0
-280 -283 0
-280 -284 0
-280 -285 0
-280 -286 0
-280 -287 0
-280 -288 0
-280 -289 0
-280 -290 0
-280 -291 0
-280 -292 0
-280 -293 0
-280 -294 0
-280 -295 0
-280 -296 0
-280 -297 0
-280 -298 0
-280 -299 0
-280 -300 0
-280 -301 0
-280 -302 0
-280 -303 0
-280 -304 0
-280 -305 0
-280 -306 0
-280 -307 0
-280 -308 0
-280 -309 0
-280 -310 0
-280 -311 0
-280 -312 0
-280 -313 0
-280 -314 0
-280 -315 0
-280 -316 0
-280 -317 0
-280 -318 0
-280 -319 0
-280 -320 0
-280 -321 0
-280 -322 0
-280 -323 0
-280 -324 0
-280 -325 0
-280 -326 0
-280 -327 0
-280 -328 0
-280 -329 0
-280 -330 0
-280 -331 0
-280 -332 0
-280 -333 0
-280 -334 0
-280 -335 0
-280 -336 0
-280 -337 0
-280 -338 0
-280 -339 0
-280 -340 0
-280 -341 0
-280 -342 0
-280 -343 0
-280 -344 0
-281 -282 0
-281 -283 0
-281 -284 0
-281 -285 0
-281 -286 0
-281 -287 0
-281 -288 0
-281 -289 0
-281 -290 0
-281 -291 0
-281 -292 0
-281 -293 0
-281 -294 0
-281 -295 0
-281 -296 0
-281 -297 0
-281 -298 0
-281 -299 0
-281 -300 0
-281 -301 0
-281 -302 0
-281 -303 0
-281 -304 0
-281 -305 0
-281 -306 0
-281 -307 0
-281 -308 0
-281 -309 0
-281 -310 0
-281 -311 0
-281 -312 0
-281 -313 0
-281 -314 0
-281 -315 0
-281 -316 0
-281 -317 0
-281 -318 0
-281 -319 0
-281 -320 0
-281 -321 0
-281 -322 0
-281 -323 0
-281 -324 0
-281 -325 0
-281 -326 0
-281 -327 0
-281 -328 0
-281 -329 0
-281 -330 0
-281 -331 0
-281 -332 0
-281 -333 0
-281 -334 0
-281 -335 0
-281 -336 0
-281 -337 0
-281 -338 0
-281 -339 0
-281 -340 0
-281 -341 0
-281 -342 0
-281 -343 0
-281 -344 0
-282 -283 0
-282 -284 0
-282 -285 0
-282 -286 0
-282 -287 0
-282 -288 0
-282 -289 0
-282 -290 0
-282 -291 0
-282 -292 0
-282 -293 0
-282 -294 0
-282 -295 0
-282 -296 0
-282 -297 0
-282 -298 0
-282 -299 0
-282 -300 0
-282 -301 0
-282 -302 0
-282 -303 0
-282 -304 0
-282 -305 0
-282 -306 0
-282 -307 0
-282 -308 0
-282 -309 0
-282 -310 0
-282 -311 0
-282 -312 0
-282 -313 0
-282 -314 0
-282 -315 0
-282 -316 0
-282 -317 0
-282 -318 0
-282 -319 0
-282 -320 0
-282 -321 0
-282 -322 0
-282 -323 0
-282 -324 0
-282 -325 0
-282 -326 0
-282 -327 0
-282 -328 0
-282 -329 0
-282 -330 0
-282 -331 0
-282 -332 0
-282 -333 0
-282 -334 0
-282 -335 0
-282 -336 0
-282 -337 0
-282 -338 0
-282 -339 0
-282 -340 0
-282 -341 0
-282 -342 0
-282 -343 0
-282 -344 0
-283 -284 0
-283 -285 0
-283 -286 0
-283 -287 0
-283 -288 0
-283 -289 0
-283 -290 0
-283 -291 0
-283 -292 0
-283 -293 0
-283 -294 0
-283 -295 0
-283 -296 0
-283 -297 0
-283 -298 0
-283 -299 0
-283 -300 0
-283 -301 0
-283 -302 0
-283 -303 0
-283 -304 0
-283 -305 0
-283 -306 0
-283 -307 0
-283 -308 0
-283 -309 0
-283 -310 0
-283 -311 0
-283 -312 0
-283 -313 0
-283 -314 0
-283 -315 0
-283 -316 0
-283 -317 0
-283 -318 0
-283 -319 0
-283 -320 0
-283 -321 0
-283 -322 0
-283 -323 0
-283 -324 0
-283 -325 0
-283 -326 0
-283 -327 0
-283 -328 0
-283 -329 0
-283 -330 0
-283 -331 0
-283 -332 0
-283 -333 0
-283 -334 0
-283 -335 0
-283 -336 0
-283 -337 0
-283 -338 0
-283 -339 0
-283 -340 0
-283 -341 0
-283 -342 0
-283 -343 0
-283 -344 0
-284 -285 0
-284 -286 0
-284 -287 0
-284 -288 0
-284 -289 0
-284 -290 0
-284 -291 0
-284 -292 0
-284 -293 0
-284 -294 0
-284 -295 0
-284 -296 0
-284 -297 0
-284 -298 0
-284 -299 0
-284 -300 0
-284 -301 0
-284 -302 0
-284 -303 0
-284 -304 0
-284 -305 0
-284 -306 0
-284 -307 0
-284 -308 0
-284 -309 0
-284 -310 0
-284 -311 0
-284 -312 0
-284 -313 0
-284 -314 0
-284 -315 0
-284 -316 0
-284 -317 0
-284 -318 0
-284 -319 0
-284 -320 0
-284 -321 0
-284 -322 0
-284 -323 0
-284 -324 0
-284 -325 0
-284 -326 0
-284 -327 0
-284 -328 0
-284 -329 0
-284 -330 0
-284 -331 0
-284 -332 0
-284 -333 0
-284 -334 0
-284 -335 0
-284 -336 0
-284 -337 0
-284 -338 0
-284 -339 0
-284 -340 0
-284 -341 0
-284 -342 0
-284 -343 0
-284 -344 0
-285 -286 0
-285 -287 0
-285 -288 0
-285 -289 0
-285 -290 0
-285 -291 0
-285 -292 0
-285 -293 0
-285 -294 0
-285 -295 0
-285 -296 0
-285 -297 0
-285 -298 0
-285 -299 0
-285 -300 0
-285 -301 0
-285 -302 0
-285 -303 0
-285 -304 0
-285 -305 0
-285 -306 0
-285 -307 0
-285 -308 0
-285 -309 0
-285 -310 0
-285 -311 0
-285 -312 0
-285 -313 0
-285 -314 0
-285 -315 0
-285 -316 0
-285 -317 0
-285 -318 0
-285 -319 0
-285 -320 0
-285 -321 0
-285 -322 0
-285 -323 0
-285 -324 0
-285 -325 0
-285 -326 0
-285 -327 0
-285 -328 0
-285 -329 0
-285 -330 0
-285 -331 0
-285 -332 0
-285 -333 0
-285 -334 0
-285 -335 0
-285 -336 0
-285 -337 0
-285 -338 0
-285 -339 0
-285 -340 0
-285 -341 0
-285 -342 0
-285 -343 0
-285 -344 0
-286 -287 0
-286 -288 0
-286 -289 0
-286 -290 0
-286 -291 0
-286 -292 0
-286 -293 0
-286 -294 0
-286 -295 0
-286 -296 0
-286 -297 0
-286 -298 0
-286 -299 0
-286 -300 0
-286 -301 0
-286 -302 0
-286 -303 0
-286 -304 0
-286 -305 0
-286 -306 0
-286 -307 0
-286 -308 0
-286 -309 0
-286 -310 0
-286 -311 0
-286 -312 0
-286 -313 0
-286 -314 0
-286 -315 0
-286 -316 0
-286 -317 0
-286 -318 0
-286 -319 0
-286 -320 0
-286 -321 0
-286 -322 0
-286 -323 0
-286 -324 0
-286 -325 0
-286 -326 0
-286 -327 0
-286 -328 0
-286 -329 0
-286 -330 0
-286 -331 0
-286 -332 0
-286 -333 0
-286 -334 0
-286 -335 0
-286 -336 0
-286 -337 0
-286 -338 0
-286 -339 0
-286 -340 0
-286 -341 0
-286 -342 0
-286 -343 0
-286 -344 0
-287 -288 0
-287 -289 0
-287 -290 0
-287 -291 0
-287 -292 0
-287 -293 0
-287 -294 0
-287 -295 0
-287 -296 0
-287 -297 0
-287 -298 0
-287 -299 0
-287 -300 0
-287 -301 0
-287 -302 0
-287 -303 0
-287 -304 0
-287 -305 0
-287 -306 0
-287 -307 0
-287 -308 0
-287 -309 0
-287 -310 0
-287 -311 0
-287 -312 0
-287 -313 0
-287 -314 0
-287 -315 0
-287 -316 0
-287 -317 0
-287 -318 0
-287 -319 0
-287 -320 0
-287 -321 0
-287 -322 0
-287 -323 0
-287 -324 0
-287 -325 0
-287 -326 0
-287 -327 0
-287 -328 0
-287 -329 0
-287 -330 0
-287 -331 0
-287 -332 0
-287 -333 0
-287 -334 0
-287 -335 0
-287 -336 0
-287 -337 0
-287 -338 0
-287 -339 0
-287 -340 0
-287 -341 0
-287 -342 0
-287 -343 0
-287 -344 0
-288 -289 0
-288 -290 0
-288 -291 0
-288 -292 0
-288 -293 0
-288 -294 0
-288 -295 0
-288 -296 0
-288 -297 0
-288 -298 0
-288 -299 0
-288 -300 0
-288 -301 0
-288 -302 0
-288 -303 0
-288 -304 0
-288 -305 0
-288 -306 0
-288 -307 0
-288 -308 0
-288 -309 0
-288 -310 0
-288 -311 0
-288 -312 0
-288 -313 0
-288 -314 0
-288 -315 0
-288 -316 0
-288 -317 0
-288 -318 0
-288 -319 0
-288 -320 0
-288 -321 0
-288 -322 0
-288 -323 0
-288 -324 0
-288 -325 0
-288 -326 0
-288 -327 0
-288 -328 0
-288 -329 0
-288 -330 0
-288 -331 0
-288 -332 0
-288 -333 0
-288 -334 0
-288 -335 0
-288 -336 0
-288 -337 0
-288 -338 0
-288 -339 0
-288 -340 0
-288 -341 0
-288 -342 0
-288 -343 0
-288 -344 0
-289 -290 0
-289 -291 0
-289 -292 0
-289 -293 0
-289 -294 0
-289 -295 0
-289 -296 0
-289 -297 0
-289 -298 0
-289 -299 0
-289 -300 0
-289 -301 0
-289 -302 0
-289 -303 0
-289 -304 0
-289 -305 0
-289 -306 0
-289 -307 0
-289 -308 0
-289 -309 0
-289 -310 0
-289 -311 0
-289 -312 0
-289 -313 0
-289 -314 0
-289 -315 0
-289 -316 0
-289 -317 0
-289 -318 0
-289 -319 0
-289 -320 0
-289 -321 0
-289 -322 0
-289 -323 0
-289 -324 0
-289 -325 0
-289 -326 0
-289 -327 0
-289 -328 0
-289 -329 0
-289 -330 0
-289 -331 0
-289 -332 0
-289 -333 0
-289 -334 0
-289 -335 0
-289 -336 0
-289 -337 0
-289 -338 0
-289 -339 0
-289 -340 0
-289 -341 0
-289 -342 0
-289 -343 0
-289 -344 0
-290 -291 0
-290 -292 0
-290 -293 0
-290 -294 0
-290 -295 0
-290 -296 0
-290 -297 0
-290 -298 0
-290 -299 0
-290 -300 0
-290 -301 0
-290 -302 0
-290 -303 0
-290 -304 0
-290 -305 0
-290 -306 0
-290 -307 0
-290 -308 0
-290 -309 0
-290 -310 0
-290 -311 0
-290 -312 0
-290 -313 0
-290 -314 0
-290 -315 0
-290 -316 0
-290 -317 0
-290 -318 0
-290 -319 0
-290 -320 0
-290 -321 0
-290 -322 0
-290 -323 0
-290 -324 0
-290 -325 0
-290 -326 0
-290 -327 0
-290 -328 0
-290 -329 0
-290 -330 0
-290 -331 0
-290 -332 0
-290 -333 0
-290 -334 0
-290 -335 0
-290 -336 0
-290 -337 0
-290 -338 0
-290 -339 0
-290 -340 0
-290 -341 0
-290 -342 0
-290 -343 0
-290 -344 0
-291 -292 0
-291 -293 0
-291 -294 0
-291 -295 0
-291 -296 0
-291 -297 0
-291 -298 0
-291 -299 0
-291 -300 0
-291 -301 0
-291 -302 0
-291 -303 0
-291 -304 0
-291 -305 0
-291 -306 0
-291 -307 0
-291 -308 0
-291 -309 0
-291 -310 0
-291 -311 0
-291 -312 0
-291 -313 0
-291 -314 0
-291 -315 0
-291 -316 0
-291 -317 0
-291 -318 0
-291 -319 0
-291 -320 0
-291 -321 0
-291 -322 0
-291 -323 0
-291 -324 0
-291 -325 0
-291 -326 0
-291 -327 0
-291 -328 0
-291 -329 0
-291 -330 0
-291 -331 0
-291 -332 0
-291 -333 0
-291 -334 0
-291 -335 0
-291 -336 0
-291 -337 0
-291 -338 0
-291 -339 0
-291 -340 0
-291 -341 0
-291 -342 0
-291 -343 0
-291 -344 0
-292 -293 0
-292 -294 0
-292 -295 0
-292 -296 0
-292 -297 0
-292 -298 0
-292 -299 0
-292 -300 0
-292 -301 0
-292 -302 0
-292 -303 0
-292 -304 0
-292 -305 0
-292 -306 0
-292 -307 0
-292 -308 0
-292 -309 0
-292 -310 0
-292 -311 0
-292 -312 0
-292 -313 0
-292 -314 0
-292 -315 0
-292 -316 0
-292 -317 0
-292 -318 0
-292 -319 0
-292 -320 0
-292 -321 0
-292 -322 0
-292 -323 0
-292 -324 0
-292 -325 0
-292 -326 0
-292 -327 0
-292 -328 0
-292 -329 0
-292 -330 0
-292 -331 0
-292 -332 0
-292 -333 0
-292 -334 0
-292 -335 0
-292 -336 0
-292 -337 0
-292 -338 0
-292 -339 0
-292 -340 0
-292 -341 0
-292 -342 0
-292 -343 0
-292 -344 0
-293 -294 0
-293 -295 0
-293 -296 0
-293 -297 0
-293 -298 0
-293 -299 0
-293 -300 0
-293 -301 0
-293 -302 0
-293 -303 0
-293 -304 0
-293 -305 0
-293 -306 0
-293 -307 0
-293 -308 0
-293 -309 0
-293 -310 0
-293 -311 0
-293 -312 0
-293 -313 0
-293 -314 0
-293 -315 0
-293 -316 0
-293 -317 0
-293 -318 0
-293 -319 0
-293 -320 0
-293 -321 0
-293 -322 0
-293 -323 0
-293 -324 0
-293 -325 0
-293 -326 0
-293 -327 0
-293 -328 0
-293 -329 0
-293 -330 0
-293 -331 0
-293 -332 0
-293 -333 0
-293 -334 0
-293 -335 0
-293 -336 0
-293 -337 0
-293 -338 0
-293 -339 0
-293 -340 0
-293 -341 0
-293 -342 0
-293 -343 0
-293 -344 0
-294 -295 0
-294 -296 0
-294 -297 0
-294 -298 0
-294 -299 0
-294 -300 0
-294 -301 0
-294 -302 0
-294 -303 0
-294 -304 0
-294 -305 0
-294 -306 0
-294 -307 0
-294 -308 0
-294 -309 0
-294 -310 0
-294 -311 0
-294 -312 0
-294 -313 0
-294 -314 0
-294 -315 0
-294 -316 0
-294 -317 0
-294 -318 0
-294 -319 0
-294 -320 0
-294 -321 0
-294 -322 0
-294 -323 0
-294 -324 0
-294 -325 0
-294 -326 0
-294 -327 0
-294 -328 0
-294 -329 0
-294 -330 0
-294 -331 0
-294 -332 0
-294 -333 0
-294 -334 0
-294 -335 0
-294 -336 0
-294 -337 0
-294 -338 0
-294 -339 0
-294 -340 0
-294 -341 0
-294 -342 0
-294 -343 0
-294 -344 0
-295 -296 0
-295 -297 0
-295 -298 0
-295 -299 0
-295 -300 0
-295 -301 0
-295 -302 0
-295 -303 0
-295 -304 0
-295 -305 0
-295 -306 0
-295 -307 0
-295 -308 0
-295 -309 0
-295 -310 0
-295 -311 0
-295 -312 0
-295 -313 0
-295 -314 0
-295 -315 0
-295 -316 0
-295 -317 0
-295 -318 0
-295 -319 0
-295 -320 0
-295 -321 0
-295 -322 0
-295 -323 0
-295 -324 0
-295 -325 0
-295 -326 0
-295 -327 0
-295 -328 0
-295 -329 0
-295 -330 0
-295 -331 0
-295 -332 0
-295 -333 0
-295 -334 0
-295 -335 0
-295 -336 0
-295 -337 0
-295 -338 0
-295 -339 0
-295 -340 0
-295 -341 0
-295 -342 0
-295 -343 0
-295 -344 0
-296 -297 0
-296 -298 0
-296 -299 0
-296 -300 0
-296 -301 0
-296 -302 0
-296 -303 0
-296 -304 0
-296 -305 0
-296 -306 0
-296 -307 0
-296 -308 0
-296 -309 0
-296 -310 0
-296 -311 0
-296 -312 0
-296 -313 0
-296 -314 0
-296 -315 0
-296 -316 0
-296 -317 0
-296 -318 0
-296 -319 0
-296 -320 0
-296 -321 0
-296 -322 0
-296 -323 0
-296 -324 0
-296 -325 0
-296 -326 0
-296 -327 0
-296 -328 0
-296 -329 0
-296 -330 0
-296 -331 0
-296 -332 0
-296 -333 0
-296 -334 0
-296 -335 0
-296 -336 0
-296 -337 0
-296 -338 0
-296 -339 0
-296 -340 0
-296 -341 0
-296 -342 0
-296 -343 0
-296 -344 0
-297 -298 0
-297 -299 0
-297 -300 0
-297 -301 0
-297 -302 0
-297 -303 0
-297 -304 0
-297 -305 0
-297 -306 0
-297 -307 0
-297 -308 0
-297 -309 0
-297 -310 0
-297 -311 0
-297 -312 0
-297 -313 0
-297 -314 0
-297 -315 0
-297 -316 0
-297 -317 0
-297 -318 0
-297 -319 0
-297 -320 0
-297 -321 0
-297 -322 0
-297 -323 0
-297 -324 0
-297 -325 0
-297 -326 0
-297 -327 0
-297 -328 0
-297 -329 0
-297 -330 0
-297 -331 0
-297 -332 0
-297 -333 0
-297 -334 0
-297 -335 0
-297 -336 0
-297 -337 0
-297 -338 0
-297 -339 0
-297 -340 0
-297 -341 0
-297 -342 0
-297 -343 0
-297 -344 0
-298 -299 0
-298 -300 0
-298 -301 0
-298 -302 0
-298 -303 0
-298 -304 0
-298 -305 0
-298 -306 0
-298 -307 0
-298 -308 0
-298 -309 0
-298 -310 0
-298 -311 0
-298 -312 0
-298 -313 0
-298 -314 0
-298 -315 0
-298 -316 0
-298 -317 0
-298 -318 0
-298 -319 0
-298 -320 0
-298 -321 0
-298 -322 0
-298 -323 0
-298 -324 0
-298 -325 0
-298 -326 0
-298 -327 0
-298 -328 0
-298 -329 0
-298 -330 0
-298 -331 0
-298 -332 0
-298 -333 0
-298 -334 0
-298 -335 0
-298 -336 0
-298 -337 0
-298 -338 0
-298 -339 0
-298 -340 0
-298 -341 0
-298 -342 0
-298 -343 0
-298 -344 0
-299 -300 0
-299 -301 0
-299 -302 0
-299 -303 0
-299 -304 0
-299 -305 0
-299 -306 0
-299 -307 0
-299 -308 0
-299 -309 0
-299 -310 0
-299 -311 0
-299 -312 0
-299 -313 0
-299 -314 0
-299 -315 0
-299 -316 0
-299 -317 0
-299 -318 0
-299 -319 0
-299 -320 0
-299 -321 0
-299 -322 0
-299 -323 0
-299 -324 0
-299 -325 0
-299 -326 0
-299 -327 0
-299 -328 0
-299 -329 0
-299 -330 0
-299 -331 0
-299 -332 0
-299 -333 0
-299 -334 0
-299 -335 0
-299 -336 0
-299 -337 0
-299 -338 0
-299 -339 0
-299 -340 0
-299 -341 0
-299 -342 0
-299 -343 0
-299 -344 0
-300 -301 0
-300 -302 0
-300 -303 0
-300 -304 0
-300 -305 0
-300 -306 0
-300 -307 0
-300 -308 0
-300 -309 0
-300 -310 0
-300 -311 0
-300 -312 0
-300 -313 0
-300 -314 0
-300 -315 0
-300 -316 0
-300 -317 0
-300 -318 0
-300 -319 0
-300 -320 0
-300 -321 0
-300 -322 0
-300 -323 0
-300 -324 0
-300 -325 0
-300 -326 0
-300 -327 0
-300 -328 0
-300 -329 0
-300 -330 0
-300 -331 0
-300 -332 0
-300 -333 0
-300 -334 0
-300 -335 0
-300 -336 0
-300 -337 0
-300 -338 0
-300 -339 0
-300 -340 0
-300 -341 0
-300 -342 0
-300 -343 0
-300 -344 0
-301 -302 0
-301 -303 0
-301 -304 0
-301 -305 0
-301 -306 0
-301 -307 0
-301 -308 0
-301 -309 0
-301 -310 0
-301 -311 0
-301 -312 0
-301 -313 0
-301 -314 0
-301 -315 0
-301 -316 0
-301 -317 0
-301 -318 0
-301 -319 0
-301 -320 0
-301 -321 0
-301 -322 0
-301 -323 0
-301 -324 0
-301 -325 0
-301 -326 0
-301 -327 0
-301 -328 0
-301 -329 0
-301 -330 0
-301 -331 0
-301 -332 0
-301 -333 0
-301 -334 0
-301 -335 0
-301 -336 0
-301 -337 0
-301 -338 0
-301 -339 0
-301 -340 0
-301 -341 0
-301 -342 0
-301 -343 0
-301 -344 0
-302 -303 0
-302 -304 0
-302 -305 0
-302 -306 0
-302 -307 0
-302 -308 0
-302 -309 0
-302 -310 0
-302 -311 0
-302 -312 0
-302 -313 0
-302 -314 0
-302 -315 0
-302 -316 0
-302 -317 0
-302 -318 0
-302 -319 0
-302 -320 0
-302 -321 0
-302 -322 0
-302 -323 0
-302 -324 0
-302 -325 0
-302 -326 0
-302 -327 0
-302 -328 0
-302 -329 0
-302 -330 0
-302 -331 0
-302 -332 0
-302 -333 0
-302 -334 0
-302 -335 0
-302 -336 0
-302 -337 0
-302 -338 0
-302 -339 0
-302 -340 0
-302 -341 0
-302 -342 0
-302 -343 0
-302 -344 0
-303 -304 0
-303 -305 0
-303 -306 0
-303 -307 0
-303 -308 0
-303 -309 0
-303 -310 0
-303 -311 0
-303 -312 0
-303 -313 0
-303 -314 0
-303 -315 0
-303 -316 0
-303 -317 0
-303 -318 0
-303 -319 0
-303 -320 0
-303 -321 0
-303 -322 0
-303 -323 0
-303 -324 0
-303 -325 0
-303 -326 0
-303 -327 0
-303 -328 0
-303 -329 0
-303 -330 0
-303 -331 0
-303 -332 0
-303 -333 0
-303 -334 0
-303 -335 0
-303 -336 0
-303 -337 0
-303 -338 0
-303 -339 0
-303 -340 0
-303 -341 0
-303 -342 0
-303 -343 0
-303 -344 0
-304 -305 0
-304 -306 0
-304 -307 0
-304 -308 0
-304 -309 0
-304 -310 0
-304 -311 0
-304 -312 0
-304 -313 0
-304 -314 0
-304 -315 0
-304 -316 0
-304 -317 0
-304 -318 0
-304 -319 0
-304 -320 0
-304 -321 0
-304 -322 0
-304 -323 0
-304 -324 0
-304 -325 0
-304 -326 0
-304 -327 0
-304 -328 0
-304 -329 0
-304 -330 0
-304 -331 0
-304 -332 0
-304 -333 0
-304 -334 0
-304 -335 0
-304 -336 0
-304 -337 0
-304 -338 0
-304 -339 0
-304 -340 0
-304 -341 0
-304 -342 0
-304 -343 0
-304 -344 0
-305 -306 0
-305 -307 0
-305 -308 0
-305 -309 0
-305 -310 0
-305 -311 0
-305 -312 0
-305 -313 0
-305 -314 0
-305 -315 0
-305 -316 0
-305 -317 0
-305 -318 0
-305 -319 0
-305 -320 0
-305 -321 0
-305 -322 0
-305 -323 0
-305 -324 0
-305 -325 0
-305 -326 0
-305 -327 0
-305 -328 0
-305 -329 0
-305 -330 0
-305 -331 0
-305 -332 0
-305 -333 0
-305 -334 0
-305 -335 0
-305 -336 0
-305 -337 0
-305 -338 0
-305 -339 0
-305 -340 0
-305 -341 0
-305 -342 0
-305 -343 0
-305 -344 0
-306 -307 0
-306 -308 0
-306 -309 0
-306 -310 0
-306 -311 0
-306 -312 0
-306 -313 0
-306 -314 0
-306 -315 0
-306 -316 0
-306 -317 0
-306 -318 0
-306 -319 0
-306 -320 0
-306 -321 0
-306 -322 0
-306 -323 0
-306 -324 0
-306 -325 0
-306 -326 0
-306 -327 0
-306 -328 0
-306 -329 0
-306 -330 0
-306 -331 0
-306 -332 0
-306 -333 0
-306 -334 0
-306 -335 0
-306 -336 0
-306 -337 0
-306 -338 0
-306 -339 0
-306 -340 0
-306 -341 0
-306 -342 0
-306 -343 0
-306 -344 0
-307 -308 0
-307 -309 0
-307 -310 0
-307 -311 0
-307 -312 0
-307 -313 0
-307 -314 0
-307 -315 0
-307 -316 0
-307 -317 0
-307 -318 0
-307 -319 0
-307 -320 0
-307 -321 0
-307 -322 0
-307 -323 0
-307 -324 0
-307 -325 0
-307 -326 0
-307 -327 0
-307 -328 0
-307 -329 0
-307 -330 0
-307 -331 0
-307 -332 0
-307 -333 0
-307 -334 0
-307 -335 0
-307 -336 0
-307 -337 0
-307 -338 0
-307 -339 0
-307 -340 0
-307 -341 0
-307 -342 0
-307 -343 0
-307 -344 0
-308 -309 0
-308 -310 0
-308 -311 0
-308 -312 0
-308 -313 0
-308 -314 0
-308 -315 0
-308 -316 0
-308 -317 0
-308 -318 0
-308 -319 0
-308 -320 0
-308 -321 0
-308 -322 0
-308 -323 0
-308 -324 0
-308 -325 0
-308 -326 0
-308 -327 0
-308 -328 0
-308 -329 0
-308 -330 0
-308 -331 0
-308 -332 0
-308 -333 0
-308 -334 0
-308 -335 0
-308 -336 0
-308 -337 0
-308 -338 0
-308 -339 0
-308 -340 0
-308 -341 0
-308 -342 0
-308 -343 0
-308 -344 0
-309 -310 0
-309 -311 0
-309 -312 0
-309 -313 0
-309 -314 0
-309 -315 0
-309 -316 0
-309 -317 0
-309 -318 0
-309 -319 0
-309 -320 0
-309 -321 0
-309 -322 0
-309 -323 0
-309 -324 0
-309 -325 0
-309 -326 0
-309 -327 0
-309 -328 0
-309 -329 0
-309 -330 0
-309 -331 0
-309 -332 0
-309 -333 0
-309 -334 0
-309 -335 0
-309 -336 0
-309 -337 0
-309 -338 0
-309 -339 0
-309 -340 0
-309 -341 0
-309 -342 0
-309 -343 0
-309 -344 0
-310 -311 0
-310 -312 0
-310 -313 0
-310 -314 0
-310 -315 0
-310 -316 0
-310 -317 0
-310 -318 0
-310 -319 0
-310 -320 0
-310 -321 0
-310 -322 0
-310 -323 0
-310 -324 0
-310 -325 0
-310 -326 0
-310 -327 0
-310 -328 0
-310 -329 0
-310 -330 0
-310 -331 0
-310 -332 0
-310 -333 0
-310 -334 0
-310 -335 0
-310 -336 0
-310 -337 0
-310 -338 0
-310 -339 0
-310 -340 0
-310 -341 0
-310 -342 0
-310 -343 0
-310 -344 0
-311 -312 0
-311 -313 0
-311 -314 0
-311 -315 0
-311 -316 0
-311 -317 0
-311 -318 0
-311 -319 0
-311 -320 0
-311 -321 0
-311 -322 0
-311 -323 0
-311 -324 0
-311 -325 0
-311 -326 0
-311 -327 0
-311 -328 0
-311 -329 0
-311 -330 0
-311 -331 0
-311 -332 0
-311 -333 0
-311 -334 0
-311 -335 0
-311 -336 0
-311 -337 0
-311 -338 0
-311 -339 0
-311 -340 0
-311 -341 0
-311 -342 0
-311 -343 0
-311 -344 0
-312 -313 0
-312 -314 0
-312 -315 0
-312 -316 0
-312 -317 0
-312 -318 0
-312 -319 0
-312 -320 0
-312 -321 0
-312 -322 0
-312 -323 0
-312 -324 0
-312 -325 0
-312 -326 0
-312 -327 0
-312 -328 0
-312 -329 0
-312 -330 0
-312 -331 0
-312 -332 0
-312 -333 0
-312 -334 0
-312 -335 0
-312 -336 0
-312 -337 0
-312 -338 0
-312 -339 0
-312 -340 0
-312 -341 0
-312 -342 0
-312 -343 0
-312 -344 0
-313 -314 0
-313 -315 0
-313 -316 0
-313 -317 0
-313 -318 0
-313 -319 0
-313 -320 0
-313 -321 0
-313 -322 0
-313 -323 0
-313 -324 0
-313 -325 0
-313 -326 0
-313 -327 0
-313 -328 0
-313 -329 0
-313 -330 0
-313 -331 0
-313 -332 0
-313 -333 0
-313 -334 0
-313 -335 0
-313 -336 0
-313 -337 0
-313 -338 0
-313 -339 0
-313 -340 0
-313 -341 0
-313 -342 0
-313 -343 0
-313 -344 0
-314 -315 0
-314 -316 0
-314 -317 0
-314 -318 0
-314 -319 0
-314 -320 0
-314 -321 0
-314 -322 0
-314 -323 0
-314 -324 0
-314 -325 0
-314 -326 0
-314 -327 0
-314 -328 0
-314 -329 0
-314 -330 0
-314 -331 0
-314 -332 0
-314 -333 0
-314 -334 0
-314 -335 0
-314 -336 0
-314 -337 0
-314 -338 0
-314 -339 0
-314 -340 0
-314 -341 0
-314 -342 0
-314 -343 0
-314 -344 0
-315 -316 0
-315 -317 0
-315 -318 0
-315 -319 0
-315 -320 0
-315 -321 0
-315 -322 0
-315 -323 0
-315 -324 0
-315 -325 0
-315 -326 0
-315 -327 0
-315 -328 0
-315 -329 0
-315 -330 0
-315 -331 0
-315 -332 0
-315 -333 0
-315 -334 0
-315 -335 0
-315 -336 0
-315 -337 0
-315 -338 0
-315 -339 0
-315 -340 0
-315 -341 0
-315 -342 0
-315 -343 0
-315 -344 0
-316 -317 0
-316 -318 0
-316 -319 0
-316 -320 0
-316 -321 0
-316 -322 0
-316 -323 0
-316 -324 0
-316 -325 0
-316 -326 0
-316 -327 0
-316 -328 0
-316 -329 0
-316 -330 0
-316 -331 0
-316 -332 0
-316 -333 0
-316 -334 0
-316 -335 0
-316 -336 0
-316 -337 0
-316 -338 0
-316 -339 0
-316 -340 0
-316 -341 0
-316 -342 0
-316 -343 0
-316 -344 0
-317 -318 0
-317 -319 0
-317 -320 0
-317 -321 0
-317 -322 0
-317 -323 0
-317 -324 0
-317 -325 0
-317 -326 0
-317 -327 0
-317 -328 0
-317 -329 0
-317 -330 0
-317 -331 0
-317 -332 0
-317 -333 0
-317 -334 0
-317 -335 0
-317 -336 0
-317 -337 0
-317 -338 0
-317 -339 0
-317 -340 0
-317 -341 0
-317 -342 0
-317 -343 0
-317 -344 0
-318 -319 0
-318 -320 0
-318 -321 0
-318 -322 0
-318 -323 0
-318 -324 0
-318 -325 0
-318 -326 0
-318 -327 0
-318 -328 0
-318 -329 0
-318 -330 0
-318 -331 0
-318 -332 0
-318 -333 0
-318 -334 0
-318 -335 0
-318 -336 0
-318 -337 0
-318 -338 0
-318 -339 0
-318 -340 0
-318 -341 0
-318 -342 0
-318 -343 0
-318 -344 0
-319 -320 0
-319 -321 0
-319 -322 0
-319 -323 0
-319 -324 0
-319 -325 0
-319 -326 0
-319 -327 0
-319 -328 0
-319 -329 0
-319 -330 0
-319 -331 0
-319 -332 0
-319 -333 0
-319 -334 0
-319 -335 0
-319 -336 0
-319 -337 0
-319 -338 0
-319 -339 0
-319 -340 0
-319 -341 0
-319 -342 0
-319 -343 0
-319 -344 0
-320 -321 0
-320 -322 0
-320 -323 0
-320 -324 0
-320 -325 0
-320 -326 0
-320 -327 0
-320 -328 0
-320 -329 0
-320 -330 0
-320 -331 0
-320 -332 0
-320 -333 0
-320 -334 0
-320 -335 0
-320 -336 0
-320 -337 0
-320 -338 0
-320 -339 0
-320 -340 0
-320 -341 0
-320 -342 0
-320 -343 0
-320 -344 0
-321 -322 0
-321 -323 0
-321 -324 0
-321 -325 0
-321 -326 0
-321 -327 0
-321 -328 0
-321 -329 0
-321 -330 0
-321 -331 0
-321 -332 0
-321 -333 0
-321 -334 0
-321 -335 0
-321 -336 0
-321 -337 0
-321 -338 0
-321 -339 0
-321 -340 0
-321 -341 0
-321 -342 0
-321 -343 0
-321 -344 0
-322 -323 0
-322 -324 0
-322 -325 0
-322 -326 0
-322 -327 0
-322 -328 0
-322 -329 0
-322 -330 0
-322 -331 0
-322 -332 0
-322 -333 0
-322 -334 0
-322 -335 0
-322 -336 0
-322 -337 0
-322 -338 0
-322 -339 0
-322 -340 0
-322 -341 0
-322 -342 0
-322 -343 0
-322 -344 0
-323 -324 0
-323 -325 0
-323 -326 0
-323 -327 0
-323 -328 0
-323 -329 0
-323 -330 0
-323 -331 0
-323 -332 0
-323 -333 0
-323 -334 0
-323 -335 0
-323 -336 0
-323 -337 0
-323 -338 0
-323 -339 0
-323 -340 0
-323 -341 0
-323 -342 0
-323 -343 0
-323 -344 0
-324 -325 0
-324 -326 0
-324 -327 0
-324 -328 0
-324 -329 0
-324 -330 0
-324 -331 0
-324 -332 0
-324 -333 0
-324 -334 0
-324 -335 0
-324 -336 0
-324 -337 0
-324 -338 0
-324 -339 0
-324 -340 0
-324 -341 0
-324 -342 0
-324 -343 0
-324 -344 0
-325 -326 0
-325 -327 0
-325 -328 0
-325 -329 0
-325 -330 0
-325 -331 0
-325 -332 0
-325 -333 0
-325 -334 0
-325 -335 0
-325 -336 0
-325 -337 0
-325 -338 0
-325 -339 0
-325 -340 0
-325 -341 0
-325 -342 0
-325 -343 0
-325 -344 0
-326 -327 0
-326 -328 0
-326 -329 0
-326 -330 0
-326 -331 0
-326 -332 0
-326 -333 0
-326 -334 0
-326 -335 0
-326 -336 0
-326 -337 0
-326 -338 0
-326 -339 0
-326 -340 0
-326 -341 0
-326 -342 0
-326 -343 0
-326 -344 0
-327 -328 0
-327 -329 0
-327 -330 0
-327 -331 0
-327 -332 0
-327 -333 0
-327 -334 0
-327 -335 0
-327 -336 0
-327 -337 0
-327 -338 0
-327 -339 0
-327 -340 0
-327 -341 0
-327 -342 0
-327 -343 0
-327 -344 0
-328 -329 0
-328 -330 0
-328 -331 0
-328 -332 0
-328 -333 0
-328 -334 0
-328 -335 0
-328 -336 0
-328 -337 0
-328 -338 0
-328 -339 0
-328 -340 0
-328 -341 0
-328 -342 0
-328 -343 0
-328 -344 0
-329 -330 0
-329 -331 0
-329 -332 0
-329 -333 0
-329 -334 0
-329 -335 0
-329 -336 0
-329 -337 0
-329 -338 0
-329 -339 0
-329 -340 0
-329 -341 0
-329 -342 0
-329 -343 0
-329 -344 0
-330 -331 0
-330 -332 0
-330 -333 0
-330 -334 0
-330 -335 0
-330 -336 0
-330 -337 0
-330 -338 0
-330 -339 0
-330 -340 0
-330 -341 0
-330 -342 0
-330 -343 0
-330 -344 0
-331 -332 0
-331 -333 0
-331 -334 0
-331 -335 0
-331 -336 0
-331 -337 0
-331 -338 0
-331 -339 0
-331 -340 0
-331 -341 0
-331 -342 0
-331 -343 0
-331 -344 0
-332 -333 0
-332 -334 0
-332 -335 0
-332 -336 0
-332 -337 0
-332 -338 0
-332 -339 0
-332 -340 0
-332 -341 0
-332 -342 0
-332 -343 0
-332 -344 0
-333 -334 0
-333 -335 0
-333 -336 0
-333 -337 0
-333 -338 0
-333 -339 0
-333 -340 0
-333 -341 0
-333 -342 0
-333 -343 0
-333 -344 0
-334 -335 0
-334 -336 0
-334 -337 0
-334 -338 0
-334 -339 0
-334 -340 0
-334 -341 0
-334 -342 0
-334 -343 0
-334 -344 0
-335 -336 0
-335 -337 0
-335 -338 0
-335 -339 0
-335 -340 0
-335 -341 0
-335 -342 0
-335 -343 0
-335 -344 0
-336 -337 0
-336 -338 0
-336 -339 0
-336 -340 0
-336 -341 0
-336 -342 0
-336 -343 0
-336 -344 0
-337 -338 0
-337 -339 0
-337 -340 0
-337 -341 0
-337 -342 0
-337 -343 0
-337 -344 0
-338 -339 0
-338 -340 0
-338 -341 0
-338 -342 0
-338 -343 0
-338 -344 0
-339 -340 0
-339 -341 0
-339 -342 0
-339 -343 0
-339 -344 0
-340 -341 0
-340 -342 0
-340 -343 0
-340 -344 0
-341 -342 0
-341 -343 0
-341 -344 0
-342 -343 0
-342 -344 0
-343 -344 0
-261 -65 0
-261 -66 0
-261 -67 0
-261 68 0
-261 -69 0
-261 -70 0
-261 -71 0
-261 72 0
-261 -73 0
-261 -74 0
-261 -75 0
-261 76 0
-261 -77 0
-261 -78 0
-261 -79 0
-261 80 0
-261 -81 0
-261 -82 0
-261 -83 0
-261 84 0
-261 -85 0
-261 -86 0
-261 -87 0
-261 88 0
-261 -89 0
-261 -90 0
-261 -91 0
-261 92 0
-261 -93 0
-261 -94 0
-261 -95 0
-261 96 0
-262 -65 0
-262 66 0
-262 -67 0
-262 -68 0
-262 -69 0
-262 70 0
-262 -71 0
-262 -72 0
-262 -73 0
-262 74 0
-262 -75 0
-262 -76 0
-262 -77 0
-262 78 0
-262 -79 0
-262 -80 0
-262 -81 0
-262 82 0
-262 -83 0
-262 -84 0
-262 -85 0
-262 86 0
-262 -87 0
-262 -88 0
-262 -89 0
-262 90 0
-262 -91 0
-262 -92 0
-262 -93 0
-262 94 0
-262 -95 0
-262 -96 0
-263 -65 0
-263 -66 0
-263 67 0
-263 -68 0
-263 -69 0
-263 -70 0
-263 71 0
-263 -72 0
-263 -73 0
-263 -74 0
-263 75 0
-263 -76 0
-263 -77 0
-263 -78 0
-263 79 0
-263 -80 0
-263 -81 0
-263 -82 0
-263 83 0
-263 -84 0
-263 -85 0
-263 -86 0
-263 87 0
-263 -88 0
-263 -89 0
-263 -90 0
-263 91 0
-263 -92 0
-263 -93 0
-263 -94 0
-263 95 0
-263 -96 0
-264 65 0
-264 -66 0
-264 -67 0
-264 -68 0
-264 69 0
-264 -70 0
-264 -71 0
-264 -72 0
-264 73 0
-264 -74 0
-264 -75 0
-264 -76 0
-264 77 0
-264 -78 0
-264 -79 0
-264 -80 0
-264 81 0
-264 -82 0
-264 -83 0
-264 -84 0
-264 85 0
-264 -86 0
-264 -87 0
-264 -88 0
-264 89 0
-264 -90 0
-264 -91 0
-264 -92 0
-264 93 0
-264 -94 0
-264 -95 0
-264 -96 0
-265 -65 0
-265 -66 0
-265 -67 0
-265 -68 0
-265 -69 0
-265 70 0
-265 -71 0
-265 72 0
-265 -73 0
-265 -74 0
-265 -75 0
-265 -76 0
-265 -77 0
-265 78 0
-265 -79 0
-265 80 0
-265 -81 0
-265 -82 0
-265 -83 0
-265 -84 0
-265 -85 0
-265 86 0
-265 -87 0
-265 88 0
-265 -89 0
-265 -90 0
-265 -91 0
-265 -92 0
-265 -93 0
-265 94 0
-265 -95 0
-265 96 0
-266 -65 0
-266 66 0
-266 -67 0
-266 68 0
-266 -69 0
-266 -70 0
-266 -71 0
-266 -72 0
-266 -73 0
-266 74 0
-266 -75 0
-266 76 0
-266 -77 0
-266 -78 0
-266 -79 0
-266 -80 0
-266 -81 0
-266 82 0
-266 -83 0
-266 84 0
-266 -85 0
-266 -86 0
-266 -87 0
-266 -88 0
-266 -89 0
-266 90 0
-266 -91 0
-266 92 0
-266 -93 0
-266 -94 0
-266 -95 0
-266 -96 0
-267 -65 0
-267 -66 0
-267 -67 0
-267 -68 0
-267 69 0
-267 -70 0
-267 71 0
-267 -72 0
-267 -73 0
-267 -74 0
-267 -75 0
-267 -76 0
-267 77 0
-267 -78 0
-267 79 0
-267 -80 0
-267 -81 0
-267 -82 0
-267 -83 0
-267 -84 0
-267 85 0
-267 -86 0
-267 87 0
-267 -88 0
-267 -89 0
-267 -90 0
-267 -91 0
-267 -92 0
-267 93 0
-267 -94 0
-267 95 0
-267 -96 0
-268 65 0
-268 -66 0
-268 67 0
-268 -68 0
-268 -69 0
-268 -70 0
-268 -71 0
-268 -72 0
-268 73 0
-268 -74 0
-268 75 0
-268 -76 0
-268 -77 0
-268 -78 0
-268 -79 0
-268 -80 0
-268 81 0
-268 -82 0
-268 83 0
-268 -84 0
-268 -85 0
-268 -86 0
-268 -87 0
-268 -88 0
-268 89 0
-268 -90 0
-268 91 0
-268 -92 0
-268 -93 0
-268 -94 0
-268 -95 0
-268 -96 0
-269 -65 0
-269 -66 0
-269 -67 0
-269 -68 0
-269 -69 0
-269 -70 0
-269 -71 0
-269 -72 0
-269 -73 0
-269 74 0
-269 -75 0
-269 76 0
-269 -77 0
-269 78 0
-269 -79 0
-269 80 0
-269 -81 0
-269 -82 0
-269 -83 0
-269 -84 0
-269 -85 0
-269 -86 0
-269 -87 0
-269 -88 0
-269 -89 0
-269 90 0
-269 -91 0
-269 92 0
-269 -93 0
-269 94 0
-269 -95 0
-269 96 0
-270 -65 0
-270 66 0
-270 -67 0
-270 68 0
-270 -69 0
-270 70 0
-270 -71 0
-270 72 0
-270 -73 0
-270 -74 0
-270 -75 0
-270 -76 0
-270 -77 0
-270 -78 0
-270 -79 0
-270 -80 0
-270 -81 0
-270 82 0
-270 -83 0
-270 84 0
-270 -85 0
-270 86 0
-270 -87 0
-270 88 0
-270 -89 0
-270 -90 0
-270 -91 0
-270 -92 0
-270 -93 0
-270 -94 0
-270 -95 0
-270 -96 0
-271 -65 0
-271 -66 0
-271 -67 0
-271 -68 0
-271 -69 0
-271 -70 0
-271 -71 0
-271 -72 0
-271 73 0
-271 -74 0
-271 75 0
-271 -76 0
-271 77 0
-271 -78 0
-271 79 0
-271 -80 0
-271 -81 0
-271 -82 0
-271 -83 0
-271 -84 0
-271 -85 0
-271 -86 0
-271 -87 0
-271 -88 0
-271 89 0
-271 -90 0
-271 91 0
-271 -92 0
-271 93 0
-271 -94 0
-271 95 0
-271 -96 0
-272 65 0
-272 -66 0
-272 67 0
-272 -68 0
-272 69 0
-272 -70 0
-272 71 0
-272 -72 0
-272 -73 0
-272 -74 0
-272 -75 0
-272 -76 0
-272 -77 0
-272 -78 0
-272 -79 0
-272 -80 0
-272 81 0
-272 -82 0
-272 83 0
-272 -84 0
-272 85 0
-272 -86 0
-272 87 0
-272 -88 0
-272 -89 0
-272 -90 0
-272 -91 0
-272 -92 0
-272 -93 0
-272 -94 0
-272 -95 0
-272 -96 0
-273 -65 0
-273 -66 0
-273 -67 0
-273 -68 0
-273 -69 0
-273 -70 0
-273 -71 0
-273 -72 0
-273 -73 0
-273 -74 0
-273 -75 0
-273 -76 0
-273 -77 0
-273 -78 0
-273 -79 0
-273 -80 0
-273 -81 0
-273 82 0
-273 -83 0
-273 84 0
-273 -85 0
-273 86 0
-273 -87 0
-273 88 0
-273 -89 0
-273 90 0
-273 -91 0
-273 92 0
-273 -93 0
-273 94 0
-273 -95 0
-273 96 0
-274 -65 0
-274 66 0
-274 -67 0
-274 68 0
-274 -69 0
-274 70 0
-274 -71 0
-274 72 0
-274 -73 0
-274 74 0
-274 -75 0
-274 76 0
-274 -77 0
-274 78 0
-274 -79 0
-274 80 0
-274 -81 0
-274 -82 0
-274 -83 0
-274 -84 0
-274 -85 0
-274 -86 0
-274 -87 0
-274 -88 0
-274 -89 0
-274 -90 0
-274 -91 0
-274 -92 0
-274 -93 0
-274 -94 0
-274 -95 0
-274 -96 0
-275 -65 0
-275 -66 0
-275 -67 0
-275 -68 0
-275 -69 0
-275 -70 0
-275 -71 0
-275 -72 0
-275 -73 0
-275 -74 0
-275 -75 0
-275 -76 0
-275 -77 0
-275 -78 0
-275 -79 0
-275 -80 0
-275 81 0
-275 -82 0
-275 83 0
-275 -84 0
-275 85 0
-275 -86 0
-275 87 0
-275 -88 0
-275 89 0
-275 -90 0
-275 91 0
-275 -92 0
-275 93 0
-275 -94 0
-275 95 0
-275 -96 0
-276 65 0
-276 -66 0
-276 67 0
-276 -68 0
-276 69 0
-276 -70 0
-276 71 0
-276 -72 0
-276 73 0
-276 -74 0
-276 75 0
-276 -76 0
-276 77 0
-276 -78 0
-276 79 0
-276 -80 0
-276 -81 0
-276 -82 0
-276 -83 0
-276 -84 0
-276 -85 0
-276 -86 0
-276 -87 0
-276 -88 0
-276 -89 0
-276 -90 0
-276 -91 0
-276 -92 0
-276 -93 0
-276 -94 0
-276 -95 0
-276 -96 0
-277 -65 0
-277 -66 2 0
-277 66 -2 0
-277 -67 0
-277 -68 4 0
-277 68 -4 0
-277 -69 0
-277 -70 6 0
-277 70 -6 0
-277 -71 0
-277 -72 8 0
-277 72 -8 0
-277 -73 0
-277 -74 10 0
-277 74 -10 0
-277 -75 0
-277 -76 12 0
-277 76 -12 0
-277 -77 0
-277 -78 14 0
-277 78 -14 0
-277 -79 0
-277 -80 16 0
-277 80 -16 0
-277 -81 0
-277 -82 18 0
-277 82 -18 0
-277 -83 0
-277 -84 20 0
-277 84 -20 0
-277 -85 0
-277 -86 22 0
-277 86 -22 0
-277 -87 0
-277 -88 24 0
-277 88 -24 0
-277 -89 0
-277 -90 26 0
-277 90 -26 0
-277 -91 0
-277 -92 28 0
-277 92 -28 0
-277 -93 0
-277 -94 30 0
-277 94 -30 0
-277 -95 0
-277 -96 32 0
-277 96 -32 0
-278 -65 0
-278 -66 -2 0
-278 66 2 0
-278 -67 0
-278 -68 -4 0
-278 68 4 0
-278 -69 0
-278 -70 -6 0
-278 70 6 0
-278 -71 0
-278 -72 -8 0
-278 72 8 0
-278 -73 0
-278 -74 -10 0
-278 74 10 0
-278 -75 0
-278 -76 -12 0
-278 76 12 0
-278 -77 0
-278 -78 -14 0
-278 78 14 0
-278 -79 0
-278 -80 -16 0
-278 80 16 0
-278 -81 0
-278 -82 -18 0
-278 82 18 0
-278 -83 0
-278 -84 -20 0
-278 84 20 0
-278 -85 0
-278 -86 -22 0
-278 86 22 0
-278 -87 0
-278 -88 -24 0
-278 88 24 0
-278 -89 0
-278 -90 -26 0
-278 90 26 0
-278 -91 0
-278 -92 -28 0
-278 92 28 0
-278 -93 0
-278 -94 -30 0
-278 94 30 0
-278 -95 0
-278 -96 -32 0
-278 96 32 0
-279 -65 1 0
-279 65 -1 0
-279 -66 0
-279 -67 3 0
-279 67 -3 0
-279 -68 0
-279 -69 5 0
-279 69 -5 0
-279 -70 0
-279 -71 7 0
-279 71 -7 0
-279 -72 0
-279 -73 9 0
-279 73 -9 0
-279 -74 0
-279 -75 11 0
-279 75 -11 0
-279 -76 0
-279 -77 13 0
-279 77 -13 0
-279 -78 0
-279 -79 15 0
-279 79 -15 0
-279 -80 0
-279 -81 17 0
-279 81 -17 0
-279 -82 0
-279 -83 19 0
-279 83 -19 0
-279 -84 0
-279 -85 21 0
-279 85 -21 0
-279 -86 0
-279 -87 23 0
-279 87 -23 0
-279 -88 0
-279 -89 25 0
-279 89 -25 0
-279 -90 0
-279 -91 27 0
-279 91 -27 0
-279 -92 0
-279 -93 29 0
-279 93 -29 0
-279 -94 0
-279 -95 31 0
-279 95 -31 0
-279 -96 0
-280 -65 -1 0
-280 65 1 0
-280 -66 0
-280 -67 -3 0
-280 67 3 0
-280 -68 0
-280 -69 -5 0
-280 69 5 0
-280 -70 0
-280 -71 -7 0
-280 71 7 0
-280 -72 0
-280 -73 -9 0
-280 73 9 0
-280 -74 0
-280 -75 -11 0
-280 75 11 0
-280 -76 0
-280 -77 -13 0
-280 77 13 0
-280 -78 0
-280 -79 -15 0
-280 79 15 0
-280 -80 0
-280 -81 -17 0
-280 81 17 0
-280 -82 0
-280 -83 -19 0
-280 83 19 0
-280 -84 0
-280 -85 -21 0
-280 85 21 0
-280 -86 0
-280 -87 -23 0
-280 87 23 0
-280 -88 0
-280 -89 -25 0
-280 89 25 0
-280 -90 0
-280 -91 -27 0
-280 91 27 0
-280 -92 0
-280 -93 -29 0
-280 93 29 0
-280 -94 0
-280 -95 -31 0
-280 95 31 0
-280 -96 0
-281 -65 0
-281 -66 34 0
-281 66 -34 0
-281 -67 0
-281 -68 36 0
-281 68 -36 0
-281 -69 0
-281 -70 38 0
-281 70 -38 0
-281 -71 0
-281 -72 40 0
-281 72 -40 0
-281 -73 0
-281 -74 42 0
-281 74 -42 0
-281 -75 0
-281 -76 44 0
-281 76 -44 0
-281 -77 0
-281 -78 46 0
-281 78 -46 0
-281 -79 0
-281 -80 48 0
-281 80 -48 0
-281 -81 0
-281 -82 50 0
-281 82 -50 0
-281 -83 0
-281 -84 52 0
-281 84 -52 0
-281 -85 0
-281 -86 54 0
-281 86 -54 0
-281 -87 0
-281 -88 56 0
-281 88 -56 0
-281 -89 0
-281 -90 58 0
-281 90 -58 0
-281 -91 0
-281 -92 60 0
-281 92 -60 0
-281 -93 0
-281 -94 62 0
-281 94 -62 0
-281 -95 0
-281 -96 64 0
-281 96 -64 0
-282 -65 0
-282 -66 -34 0
-282 66 34 0
-282 -67 0
-282 -68 -36 0
-282 68 36 0
-282 -69 0
-282 -70 -38 0
-282 70 38 0
-282 -71 0
-282 -72 -40 0
-282 72 40 0
-282 -73 0
-282 -74 -42 0
-282 74 42 0
-282 -75 0
-282 -76 -44 0
-282 76 44 0
-282 -77 0
-282 -78 -46 0
-282 78 46 0
-282 -79 0
-282 -80 -48 0
-282 80 48 0
-282 -81 0
-282 -82 -50 0
-282 82 50 0
-282 -83 0
-282 -84 -52 0
-282 84 52 0
-282 -85 0
-282 -86 -54 0
-282 86 54 0
-282 -87 0
-282 -88 -56 0
-282 88 56 0
-282 -89 0
-282 -90 -58 0
-282 90 58 0
-282 -91 0
-282 -92 -60 0
-282 92 60 0
-282 -93 0
-282 -94 -62 0
-282 94 62 0
-282 -95 0
-282 -96 -64 0
-282 96 64 0
-283 -65 33 0
-283 65 -33 0
-283 -66 0
-283 -67 35 0
-283 67 -35 0
-283 -68 0
-283 -69 37 0
-283 69 -37 0
-283 -70 0
-283 -71 39 0
-283 71 -39 0
-283 -72 0
-283 -73 41 0
-283 73 -41 0
-283 -74 0
-283 -75 43 0
-283 75 -43 0
-283 -76 0
-283 -77 45 0
-283 77 -45 0
-283 -78 0
-283 -79 47 0
-283 79 -47 0
-283 -80 0
-283 -81 49 0
-283 81 -49 0
-283 -82 0
-283 -83 51 0
-283 83 -51 0
-283 -84 0
-283 -85 53 0
-283 85 -53 0
-283 -86 0
-283 -87 55 0
-283 87 -55 0
-283 -88 0
-283 -89 57 0
-283 89 -57 0
-283 -90 0
-283 -91 59 0
-283 91 -59 0
-283 -92 0
-283 -93 61 0
-283 93 -61 0
-283 -94 0
-283 -95 63 0
-283 95 -63 0
-283 -96 0
-284 -65 -33 0
-284 65 33 0
-284 -66 0
-284 -67 -35 0
-284 67 35 0
-284 -68 0
-284 -69 -37 0
-284 69 37 0
-284 -70 0
-284 -71 -39 0
-284 71 39 0
-284 -72 0
-284 -73 -41 0
-284 73 41 0
-284 -74 0
-284 -75 -43 0
-284 75 43 0
-284 -76 0
-284 -77 -45 0
-284 77 45 0
-284 -78 0
-284 -79 -47 0
-284 79 47 0
-284 -80 0
-284 -81 -49 0
-284 81 49 0
-284 -82 0
-284 -83 -51 0
-284 83 51 0
-284 -84 0
-284 -85 -53 0
-284 85 53 0
-284 -86 0
-284 -87 -55 0
-284 87 55 0
-284 -88 0
-284 -89 -57 0
-284 89 57 0
-284 -90 0
-284 -91 -59 0
-284 91 59 0
-284 -92 0
-284 -93 -61 0
-284 93 61 0
-284 -94 0
-284 -95 -63 0
-284 95 63 0
-284 -96 0
-285 -65 0
-285 -66 0
-285 -67 0
-285 -68 0
-285 -69 0
-285 -70 0
-285 71 0
-285 72 0
-285 -73 0
-285 -74 0
-285 -75 0
-285 -76 0
-285 -77 0
-285 -78 0
-285 79 0
-285 80 0
-285 -81 0
-285 -82 0
-285 -83 0
-285 -84 0
-285 -85 0
-285 -86 0
-285 87 0
-285 88 0
-285 -89 0
-285 -90 0
-285 -91 0
-285 -92 0
-285 -93 0
-285 -94 0
-285 95 0
-285 96 0
-286 -65 0
-286 -66 0
-286 67 0
-286 68 0
-286 -69 0
-286 -70 0
-286 -71 0
-286 -72 0
-286 -73 0
-286 -74 0
-286 75 0
-286 76 0
-286 -77 0
-286 -78 0
-286 -79 0
-286 -80 0
-286 -81 0
-286 -82 0
-286 83 0
-286 84 0
-286 -85 0
-286 -86 0
-286 -87 0
-286 -88 0
-286 -89 0
-286 -90 0
-286 91 0
-286 92 0
-286 -93 0
-286 -94 0
-286 -95 0
-286 -96 0
-287 -65 0
-287 -66 0
-287 -67 0
-287 -68 0
-287 69 0
-287 70 0
-287 -71 0
-287 -72 0
-287 -73 0
-287 -74 0
-287 -75 0
-287 -76 0
-287 77 0
-287 78 0
-287 -79 0
-287 -80 0
-287 -81 0
-287 -82 0
-287 -83 0
-287 -84 0
-287 85 0
-287 86 0
-287 -87 0
-287 -88 0
-287 -89 0
-287 -90 0
-287 -91 0
-287 -92 0
-287 93 0
-287 94 0
-287 -95 0
-287 -96 0
-288 65 0
-288 66 0
-288 -67 0
-288 -68 0
-288 -69 0
-288 -70 0
-288 -71 0
-288 -72 0
-288 73 0
-288 74 0
-288 -75 0
-288 -76 0
-288 -77 0
-288 -78 0
-288 -79 0
-288 -80 0
-288 81 0
-288 82 0
-288 -83 0
-288 -84 0
-288 -85 0
-288 -86 0
-288 -87 0
-288 -88 0
-288 89 0
-288 90 0
-288 -91 0
-288 -92 0
-288 -93 0
-288 -94 0
-288 -95 0
-288 -96 0
-289 -65 0
-289 -66 0
-289 -67 0
-289 -68 0
-289 -69 0
-289 -70 0
-289 -71 0
-289 -72 0
-289 -73 0
-289 -74 0
-289 75 0
-289 76 0
-289 -77 0
-289 -78 0
-289 79 0
-289 80 0
-289 -81 0
-289 -82 0
-289 -83 0
-289 -84 0
-289 -85 0
-289 -86 0
-289 -87 0
-289 -88 0
-289 -89 0
-289 -90 0
-289 91 0
-289 92 0
-289 -93 0
-289 -94 0
-289 95 0
-289 96 0
-290 -65 0
-290 -66 0
-290 67 0
-290 68 0
-290 -69 0
-290 -70 0
-290 71 0
-290 72 0
-290 -73 0
-290 -74 0
-290 -75 0
-290 -76 0
-290 -77 0
-290 -78 0
-290 -79 0
-290 -80 0
-290 -81 0
-290 -82 0
-290 83 0
-290 84 0
-290 -85 0
-290 -86 0
-290 87 0
-290 88 0
-290 -89 0
-290 -90 0
-290 -91 0
-290 -92 0
-290 -93 0
-290 -94 0
-290 -95 0
-290 -96 0
-291 -65 0
-291 -66 0
-291 -67 0
-291 -68 0
-291 -69 0
-291 -70 0
-291 -71 0
-291 -72 0
-291 73 0
-291 74 0
-291 -75 0
-291 -76 0
-291 77 0
-291 78 0
-291 -79 0
-291 -80 0
-291 -81 0
-291 -82 0
-291 -83 0
-291 -84 0
-291 -85 0
-291 -86 0
-291 -87 0
-291 -88 0
-291 89 0
-291 90 0
-291 -91 0
-291 -92 0
-291 93 0
-291 94 0
-291 -95 0
-291 -96 0
-292 65 0
-292 66 0
-292 -67 0
-292 -68 0
-292 69 0
-292 70 0
-292 -71 0
-292 -72 0
-292 -73 0
-292 -74 0
-292 -75 0
-292 -76 0
-292 -77 0
-292 -78 0
-292 -79 0
-292 -80 0
-292 81 0
-292 82 0
-292 -83 0
-292 -84 0
-292 85 0
-292 86 0
-292 -87 0
-292 -88 0
-292 -89 0
-292 -90 0
-292 -91 0
-292 -92 0
-292 -93 0
-292 -94 0
-292 -95 0
-292 -96 0
-293 -65 0
-293 -66 0
-293 -67 0
-293 -68 0
-293 -69 0
-293 -70 0
-293 -71 0
-293 -72 0
-293 -73 0
-293 -74 0
-293 -75 0
-293 -76 0
-293 -77 0
-293 -78 0
-293 -79 0
-293 -80 0
-293 -81 0
-293 -82 0
-293 83 0
-293 84 0
-293 -85 0
-293 -86 0
-293 87 0
-293 88 0
-293 -89 0
-293 -90 0
-293 91 0
-293 92 0
-293 -93 0
-293 -94 0
-293 95 0
-293 96 0
-294 -65 0
-294 -66 0
-294 67 0
-294 68 0
-294 -69 0
-294 -70 0
-294 71 0
-294 72 0
-294 -73 0
-294 -74 0
-294 75 0
-294 76 0
-294 -77 0
-294 -78 0
-294 79 0
-294 80 0
-294 -81 0
-294 -82 0
-294 -83 0
-294 -84 0
-294 -85 0
-294 -86 0
-294 -87 0
-294 -88 0
-294 -89 0
-294 -90 0
-294 -91 0
-294 -92 0
-294 -93 0
-294 -94 0
-294 -95 0
-294 -96 0
-295 -65 0
-295 -66 0
-295 -67 0
-295 -68 0
-295 -69 0
-295 -70 0
-295 -71 0
-295 -72 0
-295 -73 0
-295 -74 0
-295 -75 0
-295 -76 0
-295 -77 0
-295 -78 0
-295 -79 0
-295 -80 0
-295 81 0
-295 82 0
-295 -83 0
-295 -84 0
-295 85 0
-295 86 0
-295 -87 0
-295 -88 0
-295 89 0
-295 90 0
-295 -91 0
-295 -92 0
-295 93 0
-295 94 0
-295 -95 0
-295 -96 0
-296 65 0
-296 66 0
-296 -67 0
-296 -68 0
-296 69 0
-296 70 0
-296 -71 0
-296 -72 0
-296 73 0
-296 74 0
-296 -75 0
-296 -76 0
-296 77 0
-296 78 0
-296 -79 0
-296 -80 0
-296 -81 0
-296 -82 0
-296 -83 0
-296 -84 0
-296 -85 0
-296 -86 0
-296 -87 0
-296 -88 0
-296 -89 0
-296 -90 0
-296 -91 0
-296 -92 0
-296 -93 0
-296 -94 0
-296 -95 0
-296 -96 0
-297 -65 0
-297 -66 0
-297 -67 3 0
-297 67 -3 0
-297 -68 4 0
-297 68 -4 0
-297 -69 0
-297 -70 0
-297 -71 7 0
-297 71 -7 0
-297 -72 8 0
-297 72 -8 0
-297 -73 0
-297 -74 0
-297 -75 11 0
-297 75 -11 0
-297 -76 12 0
-297 76 -12 0
-297 -77 0
-297 -78 0
-297 -79 15 0
-297 79 -15 0
-297 -80 16 0
-297 80 -16 0
-297 -81 0
-297 -82 0
-297 -83 19 0
-297 83 -19 0
-297 -84 20 0
-297 84 -20 0
-297 -85 0
-297 -86 0
-297 -87 23 0
-297 87 -23 0
-297 -88 24 0
-297 88 -24 0
-297 -89 0
-297 -90 0
-297 -91 27 0
-297 91 -27 0
-297 -92 28 0
-297 92 -28 0
-297 -93 0
-297 -94 0
-297 -95 31 0
-297 95 -31 0
-297 -96 32 0
-297 96 -32 0
-298 -65 0
-298 -66 0
-298 -67 -3 0
-298 67 3 0
-298 -68 -4 0
-298 68 4 0
-298 -69 0
-298 -70 0
-298 -71 -7 0
-298 71 7 0
-298 -72 -8 0
-298 72 8 0
-298 -73 0
-298 -74 0
-298 -75 -11 0
-298 75 11 0
-298 -76 -12 0
-298 76 12 0
-298 -77 0
-298 -78 0
-298 -79 -15 0
-298 79 15 0
-298 -80 -16 0
-298 80 16 0
-298 -81 0
-298 -82 0
-298 -83 -19 0
-298 83 19 0
-298 -84 -20 0
-298 84 20 0
-298 -85 0
-298 -86 0
-298 -87 -23 0
-298 87 23 0
-298 -88 -24 0
-298 88 24 0
-298 -89 0
-298 -90 0
-298 -91 -27 0
-298 91 27 0
-298 -92 -28 0
-298 92 28 0
-298 -93 0
-298 -94 0
-298 -95 -31 0
-298 95 31 0
-298 -96 -32 0
-298 96 32 0
-299 -65 1 0
-299 65 -1 0
-299 -66 2 0
-299 66 -2 0
-299 -67 0
-299 -68 0
-299 -69 5 0
-299 69 -5 0
-299 -70 6 0
-299 70 -6 0
-299 -71 0
-299 -72 0
-299 -73 9 0
-299 73 -9 0
-299 -74 10 0
-299 74 -10 0
-299 -75 0
-299 -76 0
-299 -77 13 0
-299 77 -13 0
-299 -78 14 0
-299 78 -14 0
-299 -79 0
-299 -80 0
-299 -81 17 0
-299 81 -17 0
-299 -82 18 0
-299 82 -18 0
-299 -83 0
-299 -84 0
-299 -85 21 0
-299 85 -21 0
-299 -86 22 0
-299 86 -22 0
-299 -87 0
-299 -88 0
-299 -89 25 0
-299 89 -25 0
-299 -90 26 0
-299 90 -26 0
-299 -91 0
-299 -92 0
-299 -93 29 0
-299 93 -29 0
-299 -94 30 0
-299 94 -30 0
-299 -95 0
-299 -96 0
-300 -65 -1 0
-300 65 1 0
-300 -66 -2 0
-300 66 2 0
-300 -67 0
-300 -68 0
-300 -69 -5 0
-300 69 5 0
-300 -70 -6 0
-300 70 6 0
-300 -71 0
-300 -72 0
-300 -73 -9 0
-300 73 9 0
-300 -74 -10 0
-300 74 10 0
-300 -75 0
-300 -76 0
-300 -77 -13 0
-300 77 13 0
-300 -78 -14 0
-300 78 14 0
-300 -79 0
-300 -80 0
-300 -81 -17 0
-300 81 17 0
-300 -82 -18 0
-300 82 18 0
-300 -83 0
-300 -84 0
-300 -85 -21 0
-300 85 21 0
-300 -86 -22 0
-300 86 22 0
-300 -87 0
-300 -88 0
-300 -89 -25 0
-300 89 25 0
-300 -90 -26 0
-300 90 26 0
-300 -91 0
-300 -92 0
-300 -93 -29 0
-300 93 29 0
-300 -94 -30 0
-300 94 30 0
-300 -95 0
-300 -96 0
-301 -65 0
-301 -66 0
-301 -67 35 0
-301 67 -35 0
-301 -68 36 0
-301 68 -36 0
-301 -69 0
-301 -70 0
-301 -71 39 0
-301 71 -39 0
-301 -72 40 0
-301 72 -40 0
-301 -73 0
-301 -74 0
-301 -75 43 0
-301 75 -43 0
-301 -76 44 0
-301 76 -44 0
-301 -77 0
-301 -78 0
-301 -79 47 0
-301 79 -47 0
-301 -80 48 0
-301 80 -48 0
-301 -81 0
-301 -82 0
-301 -83 51 0
-301 83 -51 0
-301 -84 52 0
-301 84 -52 0
-301 -85 0
-301 -86 0
-301 -87 55 0
-301 87 -55 0
-301 -88 56 0
-301 88 -56 0
-301 -89 0
-301 -90 0
-301 -91 59 0
-301 91 -59 0
-301 -92 60 0
-301 92 -60 0
-301 -93 0
-301 -94 0
-301 -95 63 0
-301 95 -63 0
-301 -96 64 0
-301 96 -64 0
-302 -65 0
-302 -66 0
-302 -67 -35 0
-302 67 35 0
-302 -68 -36 0
-302 68 36 0
-302 -69 0
-302 -70 0
-302 -71 -39 0
-302 71 39 0
-302 -72 -40 0
-302 72 40 0
-302 -73 0
-302 -74 0
-302 -75 -43 0
-302 75 43 0
-302 -76 -44 0
-302 76 44 0
-302 -77 0
-302 -78 0
-302 -79 -47 0
-302 79 47 0
-302 -80 -48 0
-302 80 48 0
-302 -81 0
-302 -82 0
-302 -83 -51 0
-302 83 51 0
-302 -84 -52 0
-302 84 52 0
-302 -85 0
-302 -86 0
-302 -87 -55 0
-302 87 55 0
-302 -88 -56 0
-302 88 56 0
-302 -89 0
-302 -90 0
-302 -91 -59 0
-302 91 59 0
-302 -92 -60 0
-302 92 60 0
-302 -93 0
-302 -94 0
-302 -95 -63 0
-302 95 63 0
-302 -96 -64 0
-302 96 64 0
-303 -65 33 0
-303 65 -33 0
-303 -66 34 0
-303 66 -34 0
-303 -67 0
-303 -68 0
-303 -69 37 0
-303 69 -37 0
-303 -70 38 0
-303 70 -38 0
-303 -71 0
-303 -72 0
-303 -73 41 0
-303 73 -41 0
-303 -74 42 0
-303 74 -42 0
-303 -75 0
-303 -76 0
-303 -77 45 0
-303 77 -45 0
-303 -78 46 0
-303 78 -46 0
-303 -79 0
-303 -80 0
-303 -81 49 0
-303 81 -49 0
-303 -82 50 0
-303 82 -50 0
-303 -83 0
-303 -84 0
-303 -85 53 0
-303 85 -53 0
-303 -86 54 0
-303 86 -54 0
-303 -87 0
-303 -88 0
-303 -89 57 0
-303 89 -57 0
-303 -90 58 0
-303 90 -58 0
-303 -91 0
-303 -92 0
-303 -93 61 0
-303 93 -61 0
-303 -94 62 0
-303 94 -62 0
-303 -95 0
-303 -96 0
-304 -65 -33 0
-304 65 33 0
-304 -66 -34 0
-304 66 34 0
-304 -67 0
-304 -68 0
-304 -69 -37 0
-304 69 37 0
-304 -70 -38 0
-304 70 38 0
-304 -71 0
-304 -72 0
-304 -73 -41 0
-304 73 41 0
-304 -74 -42 0
-304 74 42 0
-304 -75 0
-304 -76 0
-304 -77 -45 0
-304 77 45 0
-304 -78 -46 0
-304 78 46 0
-304 -79 0
-304 -80 0
-304 -81 -49 0
-304 81 49 0
-304 -82 -50 0
-304 82 50 0
-304 -83 0
-304 -84 0
-304 -85 -53 0
-304 85 53 0
-304 -86 -54 0
-304 86 54 0
-304 -87 0
-304 -88 0
-304 -89 -57 0
-304 89 57 0
-304 -90 -58 0
-304 90 58 0
-304 -91 0
-304 -92 0
-304 -93 -61 0
-304 93 61 0
-304 -94 -62 0
-304 94 62 0
-304 -95 0
-304 -96 0
-305 -65 0
-305 -66 0
-305 -67 0
-305 -68 0
-305 -69 0
-305 -70 0
-305 -71 0
-305 -72 0
-305 -73 0
-305 -74 0
-305 -75 0
-305 -76 0
-305 77 0
-305 78 0
-305 79 0
-305 80 0
-305 -81 0
-305 -82 0
-305 -83 0
-305 -84 0
-305 -85 0
-305 -86 0
-305 -87 0
-305 -88 0
-305 -89 0
-305 -90 0
-305 -91 0
-305 -92 0
-305 93 0
-305 94 0
-305 95 0
-305 96 0
-306 -65 0
-306 -66 0
-306 -67 0
-306 -68 0
-306 69 0
-306 70 0
-306 71 0
-306 72 0
-306 -73 0
-306 -74 0
-306 -75 0
-306 -76 0
-306 -77 0
-306 -78 0
-306 -79 0
-306 -80 0
-306 -81 0
-306 -82 0
-306 -83 0
-306 -84 0
-306 85 0
-306 86 0
-306 87 0
-306 88 0
-306 -89 0
-306 -90 0
-306 -91 0
-306 -92 0
-306 -93 0
-306 -94 0
-306 -95 0
-306 -96 0
-307 -65 0
-307 -66 0
-307 -67 0
-307 -68 0
-307 -69 0
-307 -70 0
-307 -71 0
-307 -72 0
-307 73 0
-307 74 0
-307 75 0
-307 76 0
-307 -77 0
-307 -78 0
-307 -79 0
-307 -80 0
-307 -81 0
-307 -82 0
-307 -83 0
-307 -84 0
-307 -85 0
-307 -86 0
-307 -87 0
-307 -88 0
-307 89 0
-307 90 0
-307 91 0
-307 92 0
-307 -93 0
-307 -94 0
-307 -95 0
-307 -96 0
-308 65 0
-308 66 0
-308 67 0
-308 68 0
-308 -69 0
-308 -70 0
-308 -71 0
-308 -72 0
-308 -73 0
-308 -74 0
-308 -75 0
-308 -76 0
-308 -77 0
-308 -78 0
-308 -79 0
-308 -80 0
-308 81 0
-308 82 0
-308 83 0
-308 84 0
-308 -85 0
-308 -86 0
-308 -87 0
-308 -88 0
-308 -89 0
-308 -90 0
-308 -91 0
-308 -92 0
-308 -93 0
-308 -94 0
-308 -95 0
-308 -96 0
-309 -65 0
-309 -66 0
-309 -67 0
-309 -68 0
-309 -69 0
-309 -70 0
-309 -71 0
-309 -72 0
-309 -73 0
-309 -74 0
-309 -75 0
-309 -76 0
-309 -77 0
-309 -78 0
-309 -79 0
-309 -80 0
-309 -81 0
-309 -82 0
-309 -83 0
-309 -84 0
-309 85 0
-309 86 0
-309 87 0
-309 88 0
-309 -89 0
-309 -90 0
-309 -91 0
-309 -92 0
-309 93 0
-309 94 0
-309 95 0
-309 96 0
-310 -65 0
-310 -66 0
-310 -67 0
-310 -68 0
-310 69 0
-310 70 0
-310 71 0
-310 72 0
-310 -73 0
-310 -74 0
-310 -75 0
-310 -76 0
-310 77 0
-310 78 0
-310 79 0
-310 80 0
-310 -81 0
-310 -82 0
-310 -83 0
-310 -84 0
-310 -85 0
-310 -86 0
-310 -87 0
-310 -88 0
-310 -89 0
-310 -90 0
-310 -91 0
-310 -92 0
-310 -93 0
-310 -94 0
-310 -95 0
-310 -96 0
-311 -65 0
-311 -66 0
-311 -67 0
-311 -68 0
-311 -69 0
-311 -70 0
-311 -71 0
-311 -72 0
-311 -73 0
-311 -74 0
-311 -75 0
-311 -76 0
-311 -77 0
-311 -78 0
-311 -79 0
-311 -80 0
-311 81 0
-311 82 0
-311 83 0
-311 84 0
-311 -85 0
-311 -86 0
-311 -87 0
-311 -88 0
-311 89 0
-311 90 0
-311 91 0
-311 92 0
-311 -93 0
-311 -94 0
-311 -95 0
-311 -96 0
-312 65 0
-312 66 0
-312 67 0
-312 68 0
-312 -69 0
-312 -70 0
-312 -71 0
-312 -72 0
-312 73 0
-312 74 0
-312 75 0
-312 76 0
-312 -77 0
-312 -78 0
-312 -79 0
-312 -80 0
-312 -81 0
-312 -82 0
-312 -83 0
-312 -84 0
-312 -85 0
-312 -86 0
-312 -87 0
-312 -88 0
-312 -89 0
-312 -90 0
-312 -91 0
-312 -92 0
-312 -93 0
-312 -94 0
-312 -95 0
-312 -96 0
-313 -65 0
-313 -66 0
-313 -67 0
-313 -68 0
-313 -69 5 0
-313 69 -5 0
-313 -70 6 0
-313 70 -6 0
-313 -71 7 0
-313 71 -7 0
-313 -72 8 0
-313 72 -8 0
-313 -73 0
-313 -74 0
-313 -75 0
-313 -76 0
-313 -77 13 0
-313 77 -13 0
-313 -78 14 0
-313 78 -14 0
-313 -79 15 0
-313 79 -15 0
-313 -80 16 0
-313 80 -16 0
-313 -81 0
-313 -82 0
-313 -83 0
-313 -84 0
-313 -85 21 0
-313 85 -21 0
-313 -86 22 0
-313 86 -22 0
-313 -87 23 0
-313 87 -23 0
-313 -88 24 0
-313 88 -24 0
-313 -89 0
-313 -90 0
-313 -91 0
-313 -92 0
-313 -93 29 0
-313 93 -29 0
-313 -94 30 0
-313 94 -30 0
-313 -95 31 0
-313 95 -31 0
-313 -96 32 0
-313 96 -32 0
-314 -65 0
-314 -66 0
-314 -67 0
-314 -68 0
-314 -69 -5 0
-314 69 5 0
-314 -70 -6 0
-314 70 6 0
-314 -71 -7 0
-314 71 7 0
-314 -72 -8 0
-314 72 8 0
-314 -73 0
-314 -74 0
-314 -75 0
-314 -76 0
-314 -77 -13 0
-314 77 13 0
-314 -78 -14 0
-314 78 14 0
-314 -79 -15 0
-314 79 15 0
-314 -80 -16 0
-314 80 16 0
-314 -81 0
-314 -82 0
-314 -83 0
-314 -84 0
-314 -85 -21 0
-314 85 21 0
-314 -86 -22 0
-314 86 22 0
-314 -87 -23 0
-314 87 23 0
-314 -88 -24 0
-314 88 24 0
-314 -89 0
-314 -90 0
-314 -91 0
-314 -92 0
-314 -93 -29 0
-314 93 29 0
-314 -94 -30 0
-314 94 30 0
-314 -95 -31 0
-314 95 31 0
-314 -96 -32 0
-314 96 32 0
-315 -65 1 0
-315 65 -1 0
-315 -66 2 0
-315 66 -2 0
-315 -67 3 0
-315 67 -3 0
-315 -68 4 0
-315 68 -4 0
-315 -69 0
-315 -70 0
-315 -71 0
-315 -72 0
-315 -73 9 0
-315 73 -9 0
-315 -74 10 0
-315 74 -10 0
-315 -75 11 0
-315 75 -11 0
-315 -76 12 0
-315 76 -12 0
-315 -77 0
-315 -78 0
-315 -79 0
-315 -80 0
-315 -81 17 0
-315 81 -17 0
-315 -82 18 0
-315 82 -18 0
-315 -83 19 0
-315 83 -19 0
-315 -84 20 0
-315 84 -20 0
-315 -85 0
-315 -86 0
-315 -87 0
-315 -88 0
-315 -89 25 0
-315 89 -25 0
-315 -90 26 0
-315 90 -26 0
-315 -91 27 0
-315 91 -27 0
-315 -92 28 0
-315 92 -28 0
-315 -93 0
-315 -94 0
-315 -95 0
-315 -96 0
-316 -65 -1 0
-316 65 1 0
-316 -66 -2 0
-316 66 2 0
-316 -67 -3 0
-316 67 3 0
-316 -68 -4 0
-316 68 4 0
-316 -69 0
-316 -70 0
-316 -71 0
-316 -72 0
-316 -73 -9 0
-316 73 9 0
-316 -74 -10 0
-316 74 10 0
-316 -75 -11 0
-316 75 11 0
-316 -76 -12 0
-316 76 12 0
-316 -77 0
-316 -78 0
-316 -79 0
-316 -80 0
-316 -81 -17 0
-316 81 17 0
-316 -82 -18 0
-316 82 18 0
-316 -83 -19 0
-316 83 19 0
-316 -84 -20 0
-316 84 20 0
-316 -85 0
-316 -86 0
-316 -87 0
-316 -88 0
-316 -89 -25 0
-316 89 25 0
-316 -90 -26 0
-316 90 26 0
-316 -91 -27 0
-316 91 27 0
-316 -92 -28 0
-316 92 28 0
-316 -93 0
-316 -94 0
-316 -95 0
-316 -96 0
-317 -65 0
-317 -66 0
-317 -67 0
-317 -68 0
-317 -69 37 0
-317 69 -37 0
-317 -70 38 0
-317 70 -38 0
-317 -71 39 0
-317 71 -39 0
-317 -72 40 0
-317 72 -40 0
-317 -73 0
-317 -74 0
-317 -75 0
-317 -76 0
-317 -77 45 0
-317 77 -45 0
-317 -78 46 0
-317 78 -46 0
-317 -79 47 0
-317 79 -47 0
-317 -80 48 0
-317 80 -48 0
-317 -81 0
-317 -82 0
-317 -83 0
-317 -84 0
-317 -85 53 0
-317 85 -53 0
-317 -86 54 0
-317 86 -54 0
-317 -87 55 0
-317 87 -55 0
-317 -88 56 0
-317 88 -56 0
-317 -89 0
-317 -90 0
-317 -91 0
-317 -92 0
-317 -93 61 0
-317 93 -61 0
-317 -94 62 0
-317 94 -62 0
-317 -95 63 0
-317 95 -63 0
-317 -96 64 0
-317 96 -64 0
-318 -65 0
-318 -66 0
-318 -67 0
-318 -68 0
-318 -69 -37 0
-318 69 37 0
-318 -70 -38 0
-318 70 38 0
-318 -71 -39 0
-318 71 39 0
-318 -72 -40 0
-318 72 40 0
-318 -73 0
-318 -74 0
-318 -75 0
-318 -76 0
-318 -77 -45 0
-318 77 45 0
-318 -78 -46 0
-318 78 46 0
-318 -79 -47 0
-318 79 47 0
-318 -80 -48 0
-318 80 48 0
-318 -81 0
-318 -82 0
-318 -83 0
-318 -84 0
-318 -85 -53 0
-318 85 53 0
-318 -86 -54 0
-318 86 54 0
-318 -87 -55 0
-318 87 55 0
-318 -88 -56 0
-318 88 56 0
-318 -89 0
-318 -90 0
-318 -91 0
-318 -92 0
-318 -93 -61 0
-318 93 61 0
-318 -94 -62 0
-318 94 62 0
-318 -95 -63 0
-318 95 63 0
-318 -96 -64 0
-318 96 64 0
-319 -65 33 0
-319 65 -33 0
-319 -66 34 0
-319 66 -34 0
-319 -67 35 0
-319 67 -35 0
-319 -68 36 0
-319 68 -36 0
-319 -69 0
-319 -70 0
-319 -71 0
-319 -72 0
-319 -73 41 0
-319 73 -41 0
-319 -74 42 0
-319 74 -42 0
-319 -75 43 0
-319 75 -43 0
-319 -76 44 0
-319 76 -44 0
-319 -77 0
-319 -78 0
-319 -79 0
-319 -80 0
-319 -81 49 0
-319 81 -49 0
-319 -82 50 0
-319 82 -50 0
-319 -83 51 0
-319 83 -51 0
-319 -84 52 0
-319 84 -52 0
-319 -85 0
-319 -86 0
-319 -87 0
-319 -88 0
-319 -89 57 0
-319 89 -57 0
-319 -90 58 0
-319 90 -58 0
-319 -91 59 0
-319 91 -59 0
-319 -92 60 0
-319 92 -60 0
-319 -93 0
-319 -94 0
-319 -95 0
-319 -96 0
-320 -65 -33 0
-320 65 33 0
-320 -66 -34 0
-320 66 34 0
-320 -67 -35 0
-320 67 35 0
-320 -68 -36 0
-320 68 36 0
-320 -69 0
-320 -70 0
-320 -71 0
-320 -72 0
-320 -73 -41 0
-320 73 41 0
-320 -74 -42 0
-320 74 42 0
-320 -75 -43 0
-320 75 43 0
-320 -76 -44 0
-320 76 44 0
-320 -77 0
-320 -78 0
-320 -79 0
-320 -80 0
-320 -81 -49 0
-320 81 49 0
-320 -82 -50 0
-320 82 50 0
-320 -83 -51 0
-320 83 51 0
-320 -84 -52 0
-320 84 52 0
-320 -85 0
-320 -86 0
-320 -87 0
-320 -88 0
-320 -89 -57 0
-320 89 57 0
-320 -90 -58 0
-320 90 58 0
-320 -91 -59 0
-320 91 59 0
-320 -92 -60 0
-320 92 60 0
-320 -93 0
-320 -94 0
-320 -95 0
-320 -96 0
-321 -65 0
-321 -66 0
-321 -67 0
-321 -68 0
-321 -69 0
-321 -70 0
-321 -71 0
-321 -72 0
-321 -73 0
-321 -74 0
-321 -75 0
-321 -76 0
-321 -77 0
-321 -78 0
-321 -79 0
-321 -80 0
-321 -81 0
-321 -82 0
-321 -83 0
-321 -84 0
-321 -85 0
-321 -86 0
-321 -87 0
-321 -88 0
-321 89 0
-321 90 0
-321 91 0
-321 92 0
-321 93 0
-321 94 0
-321 95 0
-321 96 0
-322 -65 0
-322 -66 0
-322 -67 0
-322 -68 0
-322 -69 0
-322 -70 0
-322 -71 0
-322 -72 0
-322 73 0
-322 74 0
-322 75 0
-322 76 0
-322 77 0
-322 78 0
-322 79 0
-322 80 0
-322 -81 0
-322 -82 0
-322 -83 0
-322 -84 0
-322 -85 0
-322 -86 0
-322 -87 0
-322 -88 0
-322 -89 0
-322 -90 0
-322 -91 0
-322 -92 0
-322 -93 0
-322 -94 0
-322 -95 0
-322 -96 0
-323 -65 0
-323 -66 0
-323 -67 0
-323 -68 0
-323 -69 0
-323 -70 0
-323 -71 0
-323 -72 0
-323 -73 0
-323 -74 0
-323 -75 0
-323 -76 0
-323 -77 0
-323 -78 0
-323 -79 0
-323 -80 0
-323 81 0
-323 82 0
-323 83 0
-323 84 0
-323 85 0
-323 86 0
-323 87 0
-323 88 0
-323 -89 0
-323 -90 0
-323 -91 0
-323 -92 0
-323 -93 0
-323 -94 0
-323 -95 0
-323 -96 0
-324 65 0
-324 66 0
-324 67 0
-324 68 0
-324 69 0
-324 70 0
-324 71 0
-324 72 0
-324 -73 0
-324 -74 0
-324 -75 0
-324 -76 0
-324 -77 0
-324 -78 0
-324 -79 0
-324 -80 0
-324 -81 0
-324 -82 0
-324 -83 0
-324 -84 0
-324 -85 0
-324 -86 0
-324 -87 0
-324 -88 0
-324 -89 0
-324 -90 0
-324 -91 0
-324 -92 0
-324 -93 0
-324 -94 0
-324 -95 0
-324 -96 0
-325 -65 0
-325 -66 0
-325 -67 0
-325 -68 0
-325 -69 0
-325 -70 0
-325 -71 0
-325 -72 0
-325 -73 9 0
-325 73 -9 0
-325 -74 10 0
-325 74 -10 0
-325 -75 11 0
-325 75 -11 0
-325 -76 12 0
-325 76 -12 0
-325 -77 13 0
-325 77 -13 0
-325 -78 14 0
-325 78 -14 0
-325 -79 15 0
-325 79 -15 0
-325 -80 16 0
-325 80 -16 0
-325 -81 0
-325 -82 0
-325 -83 0
-325 -84 0
-325 -85 0
-325 -86 0
-325 -87 0
-325 -88 0
-325 -89 25 0
-325 89 -25 0
-325 -90 26 0
-325 90 -26 0
-325 -91 27 0
-325 91 -27 0
-325 -92 28 0
-325 92 -28 0
-325 -93 29 0
-325 93 -29 0
-325 -94 30 0
-325 94 -30 0
-325 -95 31 0
-325 95 -31 0
-325 -96 32 0
-325 96 -32 0
-326 -65 0
-326 -66 0
-326 -67 0
-326 -68 0
-326 -69 0
-326 -70 0
-326 -71 0
-326 -72 0
-326 -73 -9 0
-326 73 9 0
-326 -74 -10 0
-326 74 10 0
-326 -75 -11 0
-326 75 11 0
-326 -76 -12 0
-326 76 12 0
-326 -77 -13 0
-326 77 13 0
-326 -78 -14 0
-326 78 14 0
-326 -79 -15 0
-326 79 15 0
-326 -80 -16 0
-326 80 16 0
-326 -81 0
-326 -82 0
-326 -83 0
-326 -84 0
-326 -85 0
-326 -86 0
-326 -87 0
-326 -88 0
-326 -89 -25 0
-326 89 25 0
-326 -90 -26 0
-326 90 26 0
-326 -91 -27 0
-326 91 27 0
-326 -92 -28 0
-326 92 28 0
-326 -93 -29 0
-326 93 29 0
-326 -94 -30 0
-326 94 30 0
-326 -95 -31 0
-326 95 31 0
-326 -96 -32 0
-326 96 32 0
-327 -65 1 0
-327 65 -1 0
-327 -66 2 0
-327 66 -2 0
-327 -67 3 0
-327 67 -3 0
-327 -68 4 0
-327 68 -4 0
-327 -69 5 0
-327 69 -5 0
-327 -70 6 0
-327 70 -6 0
-327 -71 7 0
-327 71 -7 0
-327 -72 8 0
-327 72 -8 0
-327 -73 0
-327 -74 0
-327 -75 0
-327 -76 0
-327 -77 0
-327 -78 0
-327 -79 0
-327 -80 0
-327 -81 17 0
-327 81 -17 0
-327 -82 18 0
-327 82 -18 0
-327 -83 19 0
-327 83 -19 0
-327 -84 20 0
-327 84 -20 0
-327 -85 21 0
-327 85 -21 0
-327 -86 22 0
-327 86 -22 0
-327 -87 23 0
-327 87 -23 0
-327 -88 24 0
-327 88 -24 0
-327 -89 0
-327 -90 0
-327 -91 0
-327 -92 0
-327 -93 0
-327 -94 0
-327 -95 0
-327 -96 0
-328 -65 -1 0
-328 65 1 0
-328 -66 -2 0
-328 66 2 0
-328 -67 -3 0
-328 67 3 0
-328 -68 -4 0
-328 68 4 0
-328 -69 -5 0
-328 69 5 0
-328 -70 -6 0
-328 70 6 0
-328 -71 -7 0
-328 71 7 0
-328 -72 -8 0
-328 72 8 0
-328 -73 0
-328 -74 0
-328 -75 0
-328 -76 0
-328 -77 0
-328 -78 0
-328 -79 0
-328 -80 0
-328 -81 -17 0
-328 81 17 0
-328 -82 -18 0
-328 82 18 0
-328 -83 -19 0
-328 83 19 0
-328 -84 -20 0
-328 84 20 0
-328 -85 -21 0
-328 85 21 0
-328 -86 -22 0
-328 86 22 0
-328 -87 -23 0
-328 87 23 0
-328 -88 -24 0
-328 88 24 0
-328 -89 0
-328 -90 0
-328 -91 0
-328 -92 0
-328 -93 0
-328 -94 0
-328 -95 0
-328 -96 0
-329 -65 0
-329 -66 0
-329 -67 0
-329 -68 0
-329 -69 0
-329 -70 0
-329 -71 0
-329 -72 0
-329 -73 41 0
-329 73 -41 0
-329 -74 42 0
-329 74 -42 0
-329 -75 43 0
-329 75 -43 0
-329 -76 44 0
-329 76 -44 0
-329 -77 45 0
-329 77 -45 0
-329 -78 46 0
-329 78 -46 0
-329 -79 47 0
-329 79 -47 0
-329 -80 48 0
-329 80 -48 0
-329 -81 0
-329 -82 0
-329 -83 0
-329 -84 0
-329 -85 0
-329 -86 0
-329 -87 0
-329 -88 0
-329 -89 57 0
-329 89 -57 0
-329 -90 58 0
-329 90 -58 0
-329 -91 59 0
-329 91 -59 0
-329 -92 60 0
-329 92 -60 0
-329 -93 61 0
-329 93 -61 0
-329 -94 62 0
-329 94 -62 0
-329 -95 63 0
-329 95 -63 0
-329 -96 64 0
-329 96 -64 0
-330 -65 0
-330 -66 0
-330 -67 0
-330 -68 0
-330 -69 0
-330 -70 0
-330 -71 0
-330 -72 0
-330 -73 -41 0
-330 73 41 0
-330 -74 -42 0
-330 74 42 0
-330 -75 -43 0
-330 75 43 0
-330 -76 -44 0
-330 76 44 0
-330 -77 -45 0
-330 77 45 0
-330 -78 -46 0
-330 78 46 0
-330 -79 -47 0
-330 79 47 0
-330 -80 -48 0
-330 80 48 0
-330 -81 0
-330 -82 0
-330 -83 0
-330 -84 0
-330 -85 0
-330 -86 0
-330 -87 0
-330 -88 0
-330 -89 -57 0
-330 89 57 0
-330 -90 -58 0
-330 90 58 0
-330 -91 -59 0
-330 91 59 0
-330 -92 -60 0
-330 92 60 0
-330 -93 -61 0
-330 93 61 0
-330 -94 -62 0
-330 94 62 0
-330 -95 -63 0
-330 95 63 0
-330 -96 -64 0
-330 96 64 0
-331 -65 33 0
-331 65 -33 0
-331 -66 34 0
-331 66 -34 0
-331 -67 35 0
-331 67 -35 0
-331 -68 36 0
-331 68 -36 0
-331 -69 37 0
-331 69 -37 0
-331 -70 38 0
-331 70 -38 0
-331 -71 39 0
-331 71 -39 0
-331 -72 40 0
-331 72 -40 0
-331 -73 0
-331 -74 0
-331 -75 0
-331 -76 0
-331 -77 0
-331 -78 0
-331 -79 0
-331 -80 0
-331 -81 49 0
-331 81 -49 0
-331 -82 50 0
-331 82 -50 0
-331 -83 51 0
-331 83 -51 0
-331 -84 52 0
-331 84 -52 0
-331 -85 53 0
-331 85 -53 0
-331 -86 54 0
-331 86 -54 0
-331 -87 55 0
-331 87 -55 0
-331 -88 56 0
-331 88 -56 0
-331 -89 0
-331 -90 0
-331 -91 0
-331 -92 0
-331 -93 0
-331 -94 0
-331 -95 0
-331 -96 0
-332 -65 -33 0
-332 65 33 0
-332 -66 -34 0
-332 66 34 0
-332 -67 -35 0
-332 67 35 0
-332 -68 -36 0
-332 68 36 0
-332 -69 -37 0
-332 69 37 0
-332 -70 -38 0
-332 70 38 0
-332 -71 -39 0
-332 71 39 0
-332 -72 -40 0
-332 72 40 0
-332 -73 0
-332 -74 0
-332 -75 0
-332 -76 0
-332 -77 0
-332 -78 0
-332 -79 0
-332 -80 0
-332 -81 -49 0
-332 81 49 0
-332 -82 -50 0
-332 82 50 0
-332 -83 -51 0
-332 83 51 0
-332 -84 -52 0
-332 84 52 0
-332 -85 -53 0
-332 85 53 0
-332 -86 -54 0
-332 86 54 0
-332 -87 -55 0
-332 87 55 0
-332 -88 -56 0
-332 88 56 0
-332 -89 0
-332 -90 0
-332 -91 0
-332 -92 0
-332 -93 0
-332 -94 0
-332 -95 0
-332 -96 0
-333 -65 0
-333 -66 0
-333 -67 0
-333 -68 0
-333 -69 0
-333 -70 0
-333 -71 0
-333 -72 0
-333 -73 0
-333 -74 0
-333 -75 0
-333 -76 0
-333 -77 0
-333 -78 0
-333 -79 0
-333 -80 0
-333 -81 17 0
-333 81 -17 0
-333 -82 18 0
-333 82 -18 0
-333 -83 19 0
-333 83 -19 0
-333 -84 20 0
-333 84 -20 0
-333 -85 21 0
-333 85 -21 0
-333 -86 22 0
-333 86 -22 0
-333 -87 23 0
-333 87 -23 0
-333 -88 24 0
-333 88 -24 0
-333 -89 25 0
-333 89 -25 0
-333 -90 26 0
-333 90 -26 0
-333 -91 27 0
-333 91 -27 0
-333 -92 28 0
-333 92 -28 0
-333 -93 29 0
-333 93 -29 0
-333 -94 30 0
-333 94 -30 0
-333 -95 31 0
-333 95 -31 0
-333 -96 32 0
-333 96 -32 0
-334 -65 0
-334 -66 0
-334 -67 0
-334 -68 0
-334 -69 0
-334 -70 0
-334 -71 0
-334 -72 0
-334 -73 0
-334 -74 0
-334 -75 0
-334 -76 0
-334 -77 0
-334 -78 0
-334 -79 0
-334 -80 0
-334 -81 -17 0
-334 81 17 0
-334 -82 -18 0
-334 82 18 0
-334 -83 -19 0
-334 83 19 0
-334 -84 -20 0
-334 84 20 0
-334 -85 -21 0
-334 85 21 0
-334 -86 -22 0
-334 86 22 0
-334 -87 -23 0
-334 87 23 0
-334 -88 -24 0
-334 88 24 0
-334 -89 -25 0
-334 89 25 0
-334 -90 -26 0
-334 90 26 0
-334 -91 -27 0
-334 91 27 0
-334 -92 -28 0
-334 92 28 0
-334 -93 -29 0
-334 93 29 0
-334 -94 -30 0
-334 94 30 0
-334 -95 -31 0
-334 95 31 0
-334 -96 -32 0
-334 96 32 0
-335 -65 1 0
-335 65 -1 0
-335 -66 2 0
-335 66 -2 0
-335 -67 3 0
-335 67 -3 0
-335 -68 4 0
-335 68 -4 0
-335 -69 5 0
-335 69 -5 0
-335 -70 6 0
-335 70 -6 0
-335 -71 7 0
-335 71 -7 0
-335 -72 8 0
-335 72 -8 0
-335 -73 9 0
-335 73 -9 0
-335 -74 10 0
-335 74 -10 0
-335 -75 11 0
-335 75 -11 0
-335 -76 12 0
-335 76 -12 0
-335 -77 13 0
-335 77 -13 0
-335 -78 14 0
-335 78 -14 0
-335 -79 15 0
-335 79 -15 0
-335 -80 16 0
-335 80 -16 0
-335 -81 0
-335 -82 0
-335 -83 0
-335 -84 0
-335 -85 0
-335 -86 0
-335 -87 0
-335 -88 0
-335 -89 0
-335 -90 0
-335 -91 0
-335 -92 0
-335 -93 0
-335 -94 0
-335 -95 0
-335 -96 0
-336 -65 -1 0
-336 65 1 0
-336 -66 -2 0
-336 66 2 0
-336 -67 -3 0
-336 67 3 0
-336 -68 -4 0
-336 68 4 0
-336 -69 -5 0
-336 69 5 0
-336 -70 -6 0
-336 70 6 0
-336 -71 -7 0
-336 71 7 0
-336 -72 -8 0
-336 72 8 0
-336 -73 -9 0
-336 73 9 0
-336 -74 -10 0
-336 74 10 0
-336 -75 -11 0
-336 75 11 0
-336 -76 -12 0
-336 76 12 0
-336 -77 -13 0
-336 77 13 0
-336 -78 -14 0
-336 78 14 0
-336 -79 -15 0
-336 79 15 0
-336 -80 -16 0
-336 80 16 0
-336 -81 0
-336 -82 0
-336 -83 0
-336 -84 0
-336 -85 0
-336 -86 0
-336 -87 0
-336 -88 0
-336 -89 0
-336 -90 0
-336 -91 0
-336 -92 0
-336 -93 0
-336 -94 0
-336 -95 0
-336 -96 0
-337 -65 0
-337 -66 0
-337 -67 0
-337 -68 0
-337 -69 0
-337 -70 0
-337 -71 0
-337 -72 0
-337 -73 0
-337 -74 0
-337 -75 0
-337 -76 0
-337 -77 0
-337 -78 0
-337 -79 0
-337 -80 0
-337 -81 49 0
-337 81 -49 0
-337 -82 50 0
-337 82 -50 0
-337 -83 51 0
-337 83 -51 0
-337 -84 52 0
-337 84 -52 0
-337 -85 53 0
-337 85 -53 0
-337 -86 54 0
-337 86 -54 0
-337 -87 55 0
-337 87 -55 0
-337 -88 56 0
-337 88 -56 0
-337 -89 57 0
-337 89 -57 0
-337 -90 58 0
-337 90 -58 0
-337 -91 59 0
-337 91 -59 0
-337 -92 60 0
-337 92 -60 0
-337 -93 61 0
-337 93 -61 0
-337 -94 62 0
-337 94 -62 0
-337 -95 63 0
-337 95 -63 0
-337 -96 64 0
-337 96 -64 0
-338 -65 0
-338 -66 0
-338 -67 0
-338 -68 0
-338 -69 0
-338 -70 0
-338 -71 0
-338 -72 0
-338 -73 0
-338 -74 0
-338 -75 0
-338 -76 0
-338 -77 0
-338 -78 0
-338 -79 0
-338 -80 0
-338 -81 -49 0
-338 81 49 0
-338 -82 -50 0
-338 82 50 0
-338 -83 -51 0
-338 83 51 0
-338 -84 -52 0
-338 84 52 0
-338 -85 -53 0
-338 85 53 0
-338 -86 -54 0
-338 86 54 0
-338 -87 -55 0
-338 87 55 0
-338 -88 -56 0
-338 88 56 0
-338 -89 -57 0
-338 89 57 0
-338 -90 -58 0
-338 90 58 0
-338 -91 -59 0
-338 91 59 0
-338 -92 -60 0
-338 92 60 0
-338 -93 -61 0
-338 93 61 0
-338 -94 -62 0
-338 94 62 0
-338 -95 -63 0
-338 95 63 0
-338 -96 -64 0
-338 96 64 0
-339 -65 33 0
-339 65 -33 0
-339 -66 34 0
-339 66 -34 0
-339 -67 35 0
-339 67 -35 0
-339 -68 36 0
-339 68 -36 0
-339 -69 37 0
-339 69 -37 0
-339 -70 38 0
-339 70 -38 0
-339 -71 39 0
-339 71 -39 0
-339 -72 40 0
-339 72 -40 0
-339 -73 41 0
-339 73 -41 0
-339 -74 42 0
-339 74 -42 0
-339 -75 43 0
-339 75 -43 0
-339 -76 44 0
-339 76 -44 0
-339 -77 45 0
-339 77 -45 0
-339 -78 46 0
-339 78 -46 0
-339 -79 47 0
-339 79 -47 0
-339 -80 48 0
-339 80 -48 0
-339 -81 0
-339 -82 0
-339 -83 0
-339 -84 0
-339 -85 0
-339 -86 0
-339 -87 0
-339 -88 0
-339 -89 0
-339 -90 0
-339 -91 0
-339 -92 0
-339 -93 0
-339 -94 0
-339 -95 0
-339 -96 0
-340 -65 -33 0
-340 65 33 0
-340 -66 -34 0
-340 66 34 0
-340 -67 -35 0
-340 67 35 0
-340 -68 -36 0
-340 68 36 0
-340 -69 -37 0
-340 69 37 0
-340 -70 -38 0
-340 70 38 0
-340 -71 -39 0
-340 71 39 0
-340 -72 -40 0
-340 72 40 0
-340 -73 -41 0
-340 73 41 0
-340 -74 -42 0
-340 74 42 0
-340 -75 -43 0
-340 75 43 0
-340 -76 -44 0
-340 76 44 0
-340 -77 -45 0
-340 77 45 0
-340 -78 -46 0
-340 78 46 0
-340 -79 -47 0
-340 79 47 0
-340 -80 -48 0
-340 80 48 0
-340 -81 0
-340 -82 0
-340 -83 0
-340 -84 0
-340 -85 0
-340 -86 0
-340 -87 0
-340 -88 0
-340 -89 0
-340 -90 0
-340 -91 0
-340 -92 0
-340 -93 0
-340 -94 0
-340 -95 0
-340 -96 0
-341 -65 1 0
-341 -65 33 0
-341 65 -1 -33 0
-341 -66 2 0
-341 -66 34 0
-341 66 -2 -34 0
-341 -67 3 0
-341 -67 35 0
-341 67 -3 -35 0
-341 -68 4 0
-341 -68 36 0
-341 68 -4 -36 0
-341 -69 5 0
-341 -69 37 0
-341 69 -5 -37 0
-341 -70 6 0
-341 -70 38 0
-341 70 -6 -38 0
-341 -71 7 0
-341 -71 39 0
-341 71 -7 -39 0
-341 -72 8 0
-341 -72 40 0
-341 72 -8 -40 0
-341 -73 9 0
-341 -73 41 0
-341 73 -9 -41 0
-341 -74 10 0
-341 -74 42 0
-341 74 -10 -42 0
-341 -75 11 0
-341 -75 43 0
-341 75 -11 -43 0
-341 -76 12 0
-341 -76 44 0
-341 76 -12 -44 0
-341 -77 13 0
-341 -77 45 0
-341 77 -13 -45 0
-341 -78 14 0
-341 -78 46 0
-341 78 -14 -46 0
-341 -79 15 0
-341 -79 47 0
-341 79 -15 -47 0
-341 -80 16 0
-341 -80 48 0
-341 80 -16 -48 0
-341 -81 17 0
-341 -81 49 0
-341 81 -17 -49 0
-341 -82 18 0
-341 -82 50 0
-341 82 -18 -50 0
-341 -83 19 0
-341 -83 51 0
-341 83 -19 -51 0
-341 -84 20 0
-341 -84 52 0
-341 84 -20 -52 0
-341 -85 21 0
-341 -85 53 0
-341 85 -21 -53 0
-341 -86 22 0
-341 -86 54 0
-341 86 -22 -54 0
-341 -87 23 0
-341 -87 55 0
-341 87 -23 -55 0
-341 -88 24 0
-341 -88 56 0
-341 88 -24 -56 0
-341 -89 25 0
-341 -89 57 0
-341 89 -25 -57 0
-341 -90 26 0
-341 -90 58 0
-341 90 -26 -58 0
-341 -91 27 0
-341 -91 59 0
-341 91 -27 -59 0
-341 -92 28 0
-341 -92 60 0
-341 92 -28 -60 0
-341 -93 29 0
-341 -93 61 0
-341 93 -29 -61 0
-341 -94 30 0
-341 -94 62 0
-341 94 -30 -62 0
-341 -95 31 0
-341 -95 63 0
-341 95 -31 -63 0
-341 -96 32 0
-341 -96 64 0
-341 96 -32 -64 0
-342 -65 1 0
-342 -65 -33 0
-342 65 -1 33 0
-342 -66 2 0
-342 -66 -34 0
-342 66 -2 34 0
-342 -67 3 0
-342 -67 -35 0
-342 67 -3 35 0
-342 -68 4 0
-342 -68 -36 0
-342 68 -4 36 0
-342 -69 5 0
-342 -69 -37 0
-342 69 -5 37 0
-342 -70 6 0
-342 -70 -38 0
-342 70 -6 38 0
-342 -71 7 0
-342 -71 -39 0
-342 71 -7 39 0
-342 -72 8 0
-342 -72 -40 0
-342 72 -8 40 0
-342 -73 9 0
-342 -73 -41 0
-342 73 -9 41 0
-342 -74 10 0
-342 -74 -42 0
-342 74 -10 42 0
-342 -75 11 0
-342 -75 -43 0
-342 75 -11 43 0
-342 -76 12 0
-342 -76 -44 0
-342 76 -12 44 0
-342 -77 13 0
-342 -77 -45 0
-342 77 -13 45 0
-342 -78 14 0
-342 -78 -46 0
-342 78 -14 46 0
-342 -79 15 0
-342 -79 -47 0
-342 79 -15 47 0
-342 -80 16 0
-342 -80 -48 0
-342 80 -16 48 0
-342 -81 17 0
-342 -81 -49 0
-342 81 -17 49 0
-342 -82 18 0
-342 -82 -50 0
-342 82 -18 50 0
-342 -83 19 0
-342 -83 -51 0
-342 83 -19 51 0
-342 -84 20 0
-342 -84 -52 0
-342 84 -20 52 0
-342 -85 21 0
-342 -85 -53 0
-342 85 -21 53 0
-342 -86 22 0
-342 -86 -54 0
-342 86 -22 54 0
-342 -87 23 0
-342 -87 -55 0
-342 87 -23 55 0
-342 -88 24 0
-342 -88 -56 0
-342 88 -24 56 0
-342 -89 25 0
-342 -89 -57 0
-342 89 -25 57 0
-342 -90 26 0
-342 -90 -58 0
-342 90 -26 58 0
-342 -91 27 0
-342 -91 -59 0
-342 91 -27 59 0
-342 -92 28 0
-342 -92 -60 0
-342 92 -28 60 0
-342 -93 29 0
-342 -93 -61 0
-342 93 -29 61 0
-342 -94 30 0
-342 -94 -62 0
-342 94 -30 62 0
-342 -95 31 0
-342 -95 -63 0
-342 95 -31 63 0
-342 -96 32 0
-342 -96 -64 0
-342 96 -32 64 0
-343 -65 -1 0
-343 -65 33 0
-343 65 1 -33 0
-343 -66 -2 0
-343 -66 34 0
-343 66 2 -34 0
-343 -67 -3 0
-343 -67 35 0
-343 67 3 -35 0
-343 -68 -4 0
-343 -68 36 0
-343 68 4 -36 0
-343 -69 -5 0
-343 -69 37 0
-343 69 5 -37 0
-343 -70 -6 0
-343 -70 38 0
-343 70 6 -38 0
-343 -71 -7 0
-343 -71 39 0
-343 71 7 -39 0
-343 -72 -8 0
-343 -72 40 0
-343 72 8 -40 0
-343 -73 -9 0
-343 -73 41 0
-343 73 9 -41 0
-343 -74 -10 0
-343 -74 42 0
-343 74 10 -42 0
-343 -75 -11 0
-343 -75 43 0
-343 75 11 -43 0
-343 -76 -12 0
-343 -76 44 0
-343 76 12 -44 0
-343 -77 -13 0
-343 -77 45 0
-343 77 13 -45 0
-343 -78 -14 0
-343 -78 46 0
-343 78 14 -46 0
-343 -79 -15 0
-343 -79 47 0
-343 79 15 -47 0
-343 -80 -16 0
-343 -80 48 0
-343 80 16 -48 0
-343 -81 -17 0
-343 -81 49 0
-343 81 17 -49 0
-343 -82 -18 0
-343 -82 50 0
-343 82 18 -50 0
-343 -83 -19 0
-343 -83 51 0
-343 83 19 -51 0
-343 -84 -20 0
-343 -84 52 0
-343 84 20 -52 0
-343 -85 -21 0
-343 -85 53 0
-343 85 21 -53 0
-343 -86 -22 0
-343 -86 54 0
-343 86 22 -54 0
-343 -87 -23 0
-343 -87 55 0
-343 87 23 -55 0
-343 -88 -24 0
-343 -88 56 0
-343 88 24 -56 0
-343 -89 -25 0
-343 -89 57 0
-343 89 25 -57 0
-343 -90 -26 0
-343 -90 58 0
-343 90 26 -58 0
-343 -91 -27 0
-343 -91 59 0
-343 91 27 -59 0
-343 -92 -28 0
-343 -92 60 0
-343 92 28 -60 0
-343 -93 -29 0
-343 -93 61 0
-343 93 29 -61 0
-343 -94 -30 0
-343 -94 62 0
-343 94 30 -62 0
-343 -95 -31 0
-343 -95 63 0
-343 95 31 -63 0
-343 -96 -32 0
-343 -96 64 0
-343 96 32 -64 0
-344 -65 -1 0
-344 -65 -33 0
-344 65 1 33 0
-344 -66 -2 0
-344 -66 -34 0
-344 66 2 34 0
-344 -67 -3 0
-344 -67 -35 0
-344 67 3 35 0
-344 -68 -4 0
-344 -68 -36 0
-344 68 4 36 0
-344 -69 -5 0
-344 -69 -37 0
-344 69 5 37 0
-344 -70 -6 0
-344 -70 -38 0
-344 70 6 38 0
-344 -71 -7 0
-344 -71 -39 0
-344 71 7 39 0
-344 -72 -8 0
-344 -72 -40 0
-344 72 8 40 0
-344 -73 -9 0
-344 -73 -41 0
-344 73 9 41 0
-344 -74 -10 0
-344 -74 -42 0
-344 74 10 42 0
-344 -75 -11 0
-344 -75 -43 0
-344 75 11 43 0
-344 -76 -12 0
-344 -76 -44 0
-344 76 12 44 0
-344 -77 -13 0
-344 -77 -45 0
-344 77 13 45 0
-344 -78 -14 0
-344 -78 -46 0
-344 78 14 46 0
-344 -79 -15 0
-344 -79 -47 0
-344 79 15 47 0
-344 -80 -16 0
-344 -80 -48 0
-344 80 16 48 0
-344 -81 -17 0
-344 -81 -49 0
-344 81 17 49 0
-344 -82 -18 0
-344 -82 -50 0
-344 82 18 50 0
-344 -83 -19 0
-344 -83 -51 0
-344 83 19 51 0
-344 -84 -20 0
-344 -84 -52 0
-344 84 20 52 0
-344 -85 -21 0
-344 -85 -53 0
-344 85 21 53 0
-344 -86 -22 0
-344 -86 -54 0
-344 86 22 54 0
-344 -87 -23 0
-344 -87 -55 0
-344 87 23 55 0
-344 -88 -24 0
-344 -88 -56 0
-344 88 24 56 0
-344 -89 -25 0
-344 -89 -57 0
-344 89 25 57 0
-344 -90 -26 0
-344 -90 -58 0
-344 90 26 58 0
-344 -91 -27 0
-344 -91 -59 0
-344 91 27 59 0
-344 -92 -28 0
-344 -92 -60 0
-344 92 28 60 0
-344 -93 -29 0
-344 -93 -61 0
-344 93 29 61 0
-344 -94 -30 0
-344 -94 -62 0
-344 94 30 62 0
-344 -95 -31 0
-344 -95 -63 0
-344 95 31 63 0
-344 -96 -32 0
-344 -96 -64 0
-344 96 32 64 0
345 346 347 348 349 350 351 352 353 354 355 356 357 358 359 360 361 362 363 364 365 366 367 368 369 370 371 372 373 374 375 376 377 378 379 380 381 382 383 384 385 386 387 388 389 390 391 392 393 394 395 396 397 398 399 400 401 402 403 404 405 406 407 408 409 410 411 412 413 414 415 416 417 418 419 420 421 422 423 424 425 426 427 428 429 430 431 432 433 434 435 436 437 438 439 440 441 442 443 444 445 446 447 448 449 450 451 452 453 454 455 456 0
-345 -346 0
-345 -347 0
-345 -348 0
-345 -349 0
-345 -350 0
-345 -351 0
-345 -352 0
-345 -353 0
-345 -354 0
-345 -355 0
-345 -356 0
-345 -357 0
-345 -358 0
-345 -359 0
-345 -360 0
-345 -361 0
-345 -362 0
-345 -363 0
-345 -364 0
-345 -365 0
-345 -366 0
-345 -367 0
-345 -368 0
-345 -369 0
-345 -370 0
-345 -371 0
-345 -372 0
-345 -373 0
-345 -374 0
-345 -375 0
-345 -376 0
-345 -377 0
-345 -378 0
-345 -379 0
-345 -380 0
-345 -381 0
-345 -382 0
-345 -383 0
-345 -384 0
-345 -385 0
-345 -386 0
-345 -387 0
-345 -388 0
-345 -389 0
-345 -390 0
-345 -391 0
-345 -392 0
-345 -393 0
-345 -394 0
-345 -395 0
-345 -396 0
-345 -397 0
-345 -398 0
-345 -399 0
-345 -400 0
-345 -401 0
-345 -402 0
-345 -403 0
-345 -404 0
-345 -405 0
-345 -406 0
-345 -407 0
-345 -408 0
-345 -409 0
-345 -410 0
-345 -411 0
-345 -412 0
-345 -413 0
-345 -414 0
-345 -415 0
-345 -416 0
-345 -417 0
-345 -418 0
-345 -419 0
-345 -420 0
-345 -421 0
-345 -422 0
-345 -423 0
-345 -424 0
-345 -425 0
-345 -426 0
-345 -427 0
-345 -428 0
-345 -429 0
-345 -430 0
-345 -431 0
-345 -432 0
-345 -433 0
-345 -434 0
-345 -435 0
-345 -436 0
-345 -437 0
-345 -438 0
-345 -439 0
-345 -440 0
-345 -441 0
-345 -442 0
-345 -443 0
-345 -444 0
-345 -445 0
-345 -446 0
-345 -447 0
-345 -448 0
-345 -449 0
-345 -450 0
-345 -451 0
-345 -452 0
-345 -453 0
-345 -454 0
-345 -455 0
-345 -456 0
-346 -347 0
-346 -348 0
-346 -349 0
-346 -350 0
-346 -351 0
-346 -352 0
-346 -353 0
-346 -354 0
-346 -355 0
-346 -356 0
-346 -357 0
-346 -358 0
-346 -359 0
-346 -360 0
-346 -361 0
-346 -362 0
-346 -363 0
-346 -364 0
-346 -365 0
-346 -366 0
-346 -367 0
-346 -368 0
-346 -369 0
-346 -370 0
-346 -371 0
-346 -372 0
-346 -373 0
-346 -374 0
-346 -375 0
-346 -376 0
-346 -377 0
-346 -378 0
-346 -379 0
-346 -380 0
-346 -381 0
-346 -382 0
-346 -383 0
-346 -384 0
-346 -385 0
-346 -386 0
-346 -387 0
-346 -388 0
-346 -389 0
-346 -390 0
-346 -391 0
-346 -392 0
-346 -393 0
-346 -394 0
-346 -395 0
-346 -396 0
-346 -397 0
-346 -398 0
-346 -399 0
-346 -400 0
-346 -401 0
-346 -402 0
-346 -403 0
-346 -404 0
-346 -405 0
-346 -406 0
-346 -407 0
-346 -408 0
-346 -409 0
-346 -410 0
-346 -411 0
-346 -412 0
-346 -413 0
-346 -414 0
-346 -415 0
-346 -416 0
-346 -417 0
-346 -418 0
-346 -419 0
-346 -420 0
-346 -421 0
-346 -422 0
-346 -423 0
-346 -424 0
-346 -425 0
-346 -426 0
-346 -427 0
-346 -428 0
-346 -429 0
-346 -430 0
-346 -431 0
-346 -432 0
-346 -433 0
-346 -434 0
-346 -435 0
-346 -436 0
-346 -437 0
-346 -438 0
-346 -439 0
-346 -440 0
-346 -441 0
-346 -442 0
-346 -443 0
-346 -444 0
-346 -445 0
-346 -446 0
-346 -447 0
-346 -448 0
-346 -449 0
-346 -450 0
-346 -451 0
-346 -452 0
-346 -453 0
-346 -454 0
-346 -455 0
-346 -456 0
-347 -348 0
-347 -349 0
-347 -350 0
-347 -351 0
-347 -352 0
-347 -353 0
-347 -354 0
-347 -355 0
-347 -356 0
-347 -357 0
-347 -358 0
-347 -359 0
-347 -360 0
-347 -361 0
-347 -362 0
-347 -363 0
-347 -364 0
-347 -365 0
-347 -366 0
-347 -367 0
-347 -368 0
-347 -369 0
-347 -370 0
-347 -371 0
-347 -372 0
-347 -373 0
-347 -374 0
-347 -375 0
-347 -376 0
-347 -377 0
-347 -378 0
-347 -379 0
-347 -380 0
-347 -381 0
-347 -382 0
-347 -383 0
-347 -384 0
-347 -385 0
-347 -386 0
-347 -387 0
-347 -388 0
-347 -389 0
-347 -390 0
-347 -391 0
-347 -392 0
-347 -393 0
-347 -394 0
-347 -395 0
-347 -396 0
-347 -397 0
-347 -398 0
-347 -399 0
-347 -400 0
-347 -401 0
-347 -402 0
-347 -403 0
-347 -404 0
-347 -405 0
-347 -406 0
-347 -407 0
-347 -408 0
-347 -409 0
-347 -410 0
-347 -411 0
-347 -412 0
-347 -413 0
-347 -414 0
-347 -415 0
-347 -416 0
-347 -417 0
-347 -418 0
-347 -419 0
-347 -420 0
-347 -421 0
-347 -422 0
-347 -423 0
-347 -424 0
-347 -425 0
-347 -426 0
-347 -427 0
-347 -428 0
-347 -429 0
-347 -430 0
-347 -431 0
-347 -432 0
-347 -433 0
-347 -434 0
-347 -435 0
-347 -436 0
-347 -437 0
-347 -438 0
-347 -439 0
-347 -440 0
-347 -441 0
-347 -442 0
-347 -443 0
-347 -444 0
-347 -445 0
-347 -446 0
-347 -447 0
-347 -448 0
-347 -449 0
-347 -450 0
-347 -451 0
-347 -452 0
-347 -453 0
-347 -454 0
-347 -455 0
-347 -456 0
-348 -349 0
-348 -350 0
-348 -351 0
-348 -352 0
-348 -353 0
-348 -354 0
-348 -355 0
-348 -356 0
-348 -357 0
-348 -358 0
-348 -359 0
-348 -360 0
-348 -361 0
-348 -362 0
-348 -363 0
-348 -364 0
-348 -365 0
-348 -366 0
-348 -367 0
-348 -368 0
-348 -369 0
-348 -370 0
-348 -371 0
-348 -372 0
-348 -373 0
-348 -374 0
-348 -375 0
-348 -376 0
-348 -377 0
-348 -378 0
-348 -379 0
-348 -380 0
-348 -381 0
-348 -382 0
-348 -383 0
-348 -384 0
-348 -385 0
-348 -386 0
-348 -387 0
-348 -388 0
-348 -389 0
-348 -390 0
-348 -391 0
-348 -392 0
-348 -393 0
-348 -394 0
-348 -395 0
-348 -396 0
-348 -397 0
-348 -398 0
-348 -399 0
-348 -400 0
-348 -401 0
-348 -402 0
-348 -403 0
-348 -404 0
-348 -405 0
-348 -406 0
-348 -407 0
-348 -408 0
-348 -409 0
-348 -410 0
-348 -411 0
-348 -412 0
-348 -413 0
-348 -414 0
-348 -415 0
-348 -416 0
-348 -417 0
-348 -418 0
-348 -419 0
-348 -420 0
-348 -421 0
-348 -422 0
-348 -423 0
-348 -424 0
-348 -425 0
-348 -426 0
-348 -427 0
-348 -428 0
-348 -429 0
-348 -430 0
-348 -431 0
-348 -432 0
-348 -433 0
-348 -434 0
-348 -435 0
-348 -436 0
-348 -437 0
-348 -438 0
-348 -439 0
-348 -440 0
-348 -441 0
-348 -442 0
-348 -443 0
-348 -444 0
-348 -445 0
-348 -446 0
-348 -447 0
-348 -448 0
-348 -449 0
-348 -450 0
-348 -451 0
-348 -452 0
-348 -453 0
-348 -454 0
-348 -455 0
-348 -456 0
-349 -350 0
-349 -351 0
-349 -352 0
-349 -353 0
-349 -354 0
-349 -355 0
-349 -356 0
-349 -357 0
-349 -358 0
-349 -359 0
-349 -360 0
-349 -361 0
-349 -362 0
-349 -363 0
-349 -364 0
-349 -365 0
-349 -366 0
-349 -367 0
-349 -368 0
-349 -369 0
-349 -370 0
-349 -371 0
-349 -372 0
-349 -373 0
-349 -374 0
-349 -375 0
-349 -376 0
-349 -377 0
-349 -378 0
-349 -379 0
-349 -380 0
-349 -381 0
-349 -382 0
-349 -383 0
-349 -384 0
-349 -385 0
-349 -386 0
-349 -387 0
-349 -388 0
-349 -389 0
-349 -390 0
-349 -391 0
-349 -392 0
-349 -393 0
-349 -394 0
-349 -395 0
-349 -396 0
-349 -397 0
-349 -398 0
-349 -399 0
-349 -400 0
-349 -401 0
-349 -402 0
-349 -403 0
-349 -404 0
-349 -405 0
-349 -406 0
-349 -407 0
-349 -408 0
-349 -409 0
-349 -410 0
-349 -411 0
-349 -412 0
-349 -413 0
-349 -414 0
-349 -415 0
-349 -416 0
-349 -417 0
-349 -418 0
-349 -419 0
-349 -420 0
-349 -421 0
-349 -422 0
-349 -423 0
-349 -424 0
-349 -425 0
-349 -426 0
-349 -427 0
-349 -428 0
-349 -429 0
-349 -430 0
-349 -431 0
-349 -432 0
-349 -433 0
-349 -434 0
-349 -435 0
-349 -436 0
-349 -437 0
-349 -438 0
-349 -439 0
-349 -440 0
-349 -441 0
-349 -442 0
-349 -443 0
-349 -444 0
-349 -445 0
-349 -446 0
-349 -447 0
-349 -448 0
-349 -449 0
-349 -450 0
-349 -451 0
-349 -452 0
-349 -453 0
-349 -454 0
-349 -455 0
-349 -456 0
-350 -351 0
-350 -352 0
-350 -353 0
-350 -354 0
-350 -355 0
-350 -356 0
-350 -357 0
-350 -358 0
-350 -359 0
-350 -360 0
-350 -361 0
-350 -362 0
-350 -363 0
-350 -364 0
-350 -365 0
-350 -366 0
-350 -367 0
-350 -368 0
-350 -369 0
-350 -370 0
-350 -371 0
-350 -372 0
-350 -373 0
-350 -374 0
-350 -375 0
-350 -376 0
-350 -377 0
-350 -378 0
-350 -379 0
-350 -380 0
-350 -381 0
-350 -382 0
-350 -383 0
-350 -384 0
-350 -385 0
-350 -386 0
-350 -387 0
-350 -388 0
-350 -389 0
-350 -390 0
-350 -391 0
-350 -392 0
-350 -393 0
-350 -394 0
-350 -395 0
-350 -396 0
-350 -397 0
-350 -398 0
-350 -399 0
-350 -400 0
-350 -401 0
-350 -402 0
-350 -403 0
-350 -404 0
-350 -405 0
-350 -406 0
-350 -407 0
-350 -408 0
-350 -409 0
-350 -410 0
-350 -411 0
-350 -412 0
-350 -413 0
-350 -414 0
-350 -415 0
-350 -416 0
-350 -417 0
-350 -418 0
-350 -419 0
-350 -420 0
-350 -421 0
-350 -422 0
-350 -423 0
-350 -424 0
-350 -425 0
-350 -426 0
-350 -427 0
-350 -428 0
-350 -429 0
-350 -430 0
-350 -431 0
-350 -432 0
-350 -433 0
-350 -434 0
-350 -435 0
-350 -436 0
-350 -437 0
-350 -438 0
-350 -439 0
-350 -440 0
-350 -441 0
-350 -442 0
-350 -443 0
-350 -444 0
-350 -445 0
-350 -446 0
-350 -447 0
-350 -448 0
-350 -449 0
-350 -450 0
-350 -451 0
-350 -452 0
-350 -453 0
-350 -454 0
-350 -455 0
-350 -456 0
-351 -352 0
-351 -353 0
-351 -354 0
-351 -355 0
-351 -356 0
-351 -357 0
-351 -358 0
-351 -359 0
-351 -360 0
-351 -361 0
-351 -362 0
-351 -363 0
-351 -364 0
-351 -365 0
-351 -366 0
-351 -367 0
-351 -368 0
-351 -369 0
-351 -370 0
-351 -371 0
-351 -372 0
-351 -373 0
-351 -374 0
-351 -375 0
-351 -376 0
-351 -377 0
-351 -378 0
-351 -379 0
-351 -380 0
-351 -381 0
-351 -382 0
-351 -383 0
-351 -384 0
-351 -385 0
-351 -386 0
-351 -387 0
-351 -388 0
-351 -389 0
-351 -390 0
-351 -391 0
-351 -392 0
-351 -393 0
-351 -394 0
-351 -395 0
-351 -396 0
-351 -397 0
-351 -398 0
-351 -399 0
-351 -400 0
-351 -401 0
-351 -402 0
-351 -403 0
-351 -404 0
-351 -405 0
-351 -406 0
-351 -407 0
-351 -408 0
-351 -409 0
-351 -410 0
-351 -411 0
-351 -412 0
-351 -413 0
-351 -414 0
-351 -415 0
-351 -416 0
-351 -417 0
-351 -418 0
-351 -419 0
-351 -420 0
-351 -421 0
-351 -422 0
-351 -423 0
-351 -424 0
-351 -425 0
-351 -426 0
-351 -427 0
-351 -428 0
-351 -429 0
-351 -430 0
-351 -431 0
-351 -432 0
-351 -433 0
-351 -434 0
-351 -435 0
-351 -436 0
-351 -437 0
-351 -438 0
-351 -439 0
-351 -440 0
-351 -441 0
-351 -442 0
-351 -443 0
-351 -444 0
-351 -445 0
-351 -446 0
-351 -447 0
-351 -448 0
-351 -449 0
-351 -450 0
-351 -451 0
-351 -452 0
-351 -453 0
-351 -454 0
-351 -455 0
-351 -456 0
-352 -353 0
-352 -354 0
-352 -355 0
-352 -356 0
-352 -357 0
-352 -358 0
-352 -359 0
-352 -360 0
-352 -361 0
-352 -362 0
-352 -363 0
-352 -364 0
-352 -365 0
-352 -366 0
-352 -367 0
-352 -368 0
-352 -369 0
-352 -370 0
-352 -371 0
-352 -372 0
-352 -373 0
-352 -374 0
-352 -375 0
-352 -376 0
-352 -377 0
-352 -378 0
-352 -379 0
-352 -380 0
-352 -381 0
-352 -382 0
-352 -383 0
-352 -384 0
-352 -385 0
-352 -386 0
-352 -387 0
-352 -388 0
-352 -389 0
-352 -390 0
-352 -391 0
-352 -392 0
-352 -393 0
-352 -394 0
-352 -395 0
-352 -396 0
-352 -397 0
-352 -398 0
-352 -399 0
-352 -400 0
-352 -401 0
-352 -402 0
-352 -403 0
-352 -404 0
-352 -405 0
-352 -406 0
-352 -407 0
-352 -408 0
-352 -409 0
-352 -410 0
-352 -411 0
-352 -412 0
-352 -413 0
-352 -414 0
-352 -415 0
-352 -416 0
-352 -417 0
-352 -418 0
-352 -419 0
-352 -420 0
-352 -421 0
-352 -422 0
-352 -423 0
-352 -424 0
-352 -425 0
-352 -426 0
-352 -427 0
-352 -428 0
-352 -429 0
-352 -430 0
-352 -431 0
-352 -432 0
-352 -433 0
-352 -434 0
-352 -435 0
-352 -436 0
-352 -437 0
-352 -438 0
-352 -439 0
-352 -440 0
-352 -441 0
-352 -442 0
-352 -443 0
-352 -444 0
-352 -445 0
-352 -446 0
-352 -447 0
-352 -448 0
-352 -449 0
-352 -450 0
-352 -451 0
-352 -452 0
-352 -453 0
-352 -454 0
-352 -455 0
-352 -456 0
-353 -354 0
-353 -355 0
-353 -356 0
-353 -357 0
-353 -358 0
-353 -359 0
-353 -360 0
-353 -361 0
-353 -362 0
-353 -363 0
-353 -364 0
-353 -365 0
-353 -366 0
-353 -367 0
-353 -368 0
-353 -369 0
-353 -370 0
-353 -371 0
-353 -372 0
-353 -373 0
-353 -374 0
-353 -375 0
-353 -376 0
-353 -377 0
-353 -378 0
-353 -379 0
-353 -380 0
-353 -381 0
-353 -382 0
-353 -383 0
-353 -384 0
-353 -385 0
-353 -386 0
-353 -387 0
-353 -388 0
-353 -389 0
-353 -390 0
-353 -391 0
-353 -392 0
-353 -393 0
-353 -394 0
-353 -395 0
-353 -396 0
-353 -397 0
-353 -398 0
-353 -399 0
-353 -400 0
-353 -401 0
-353 -402 0
-353 -403 0
-353 -404 0
-353 -405 0
-353 -406 0
-353 -407 0
-353 -408 0
-353 -409 0
-353 -410 0
-353 -411 0
-353 -412 0
-353 -413 0
-353 -414 0
-353 -415 0
-353 -416 0
-353 -417 0
-353 -418 0
-353 -419 0
-353 -420 0
-353 -421 0
-353 -422 0
-353 -423 0
-353 -424 0
-353 -425 0
-353 -426 0
-353 -427 0
-353 -428 0
-353 -429 0
-353 -430 0
-353 -431 0
-353 -432 0
-353 -433 0
-353 -434 0
-353 -435 0
-353 -436 0
-353 -437 0
-353 -438 0
-353 -439 0
-353 -440 0
-353 -441 0
-353 -442 0
-353 -443 0
-353 -444 0
-353 -445 0
-353 -446 0
-353 -447 0
-353 -448 0
-353 -449 0
-353 -450 0
-353 -451 0
-353 -452 0
-353 -453 0
-353 -454 0
-353 -455 0
-353 -456 0
-354 -355 0
-354 -356 0
-354 -357 0
-354 -358 0
-354 -359 0
-354 -360 0
-354 -361 0
-354 -362 0
-354 -363 0
-354 -364 0
-354 -365 0
-354 -366 0
-354 -367 0
-354 -368 0
-354 -369 0
-354 -370 0
-354 -371 0
-354 -372 0
-354 -373 0
-354 -374 0
-354 -375 0
-354 -376 0
-354 -377 0
-354 -378 0
-354 -379 0
-354 -380 0
-354 -381 0
-354 -382 0
-354 -383 0
-354 -384 0
-354 -385 0
-354 -386 0
-354 -387 0
-354 -388 0
-354 -389 0
-354 -390 0
-354 -391 0
-354 -392 0
-354 -393 0
-354 -394 0
-354 -395 0
-354 -396 0
-354 -397 0
-354 -398 0
-354 -399 0
-354 -400 0
-354 -401 0
-354 -402 0
-354 -403 0
-354 -404 0
-354 -405 0
-354 -406 0
-354 -407 0
-354 -408 0
-354 -409 0
-354 -410 0
-354 -411 0
-354 -412 0
-354 -413 0
-354 -414 0
-354 -415 0
-354 -416 0
-354 -417 0
-354 -418 0
-354 -419 0
-354 -420 0
-354 -421 0
-354 -422 0
-354 -423 0
-354 -424 0
-354 -425 0
-354 -426 0
-354 -427 0
-354 -428 0
-354 -429 0
-354 -430 0
-354 -431 0
-354 -432 0
-354 -433 0
-354 -434 0
-354 -435 0
-354 -436 0
-354 -437 0
-354 -438 0
-354 -439 0
-354 -440 0
-354 -441 0
-354 -442 0
-354 -443 0
-354 -444 0
-354 -445 0
-354 -446 0
-354 -447 0
-354 -448 0
-354 -449 0
-354 -450 0
-354 -451 0
-354 -452 0
-354 -453 0
-354 -454 0
-354 -455 0
-354 -456 0
-355 -356 0
-355 -357 0
-355 -358 0
-355 -359 0
-355 -360 0
-355 -361 0
-355 -362 0
-355 -363 0
-355 -364 0
-355 -365 0
-355 -366 0
-355 -367 0
-355 -368 0
-355 -369 0
-355 -370 0
-355 -371 0
-355 -372 0
-355 -373 0
-355 -374 0
-355 -375 0
-355 -376 0
-355 -377 0
-355 -378 0
-355 -379 0
-355 -380 0
-355 -381 0
-355 -382 0
-355 -383 0
-355 -384 0
-355 -385 0
-355 -386 0
-355 -387 0
-355 -388 0
-355 -389 0
-355 -390 0
-355 -391 0
-355 -392 0
-355 -393 0
-355 -394 0
-355 -395 0
-355 -396 0
-355 -397 0
-355 -398 0
-355 -399 0
-355 -400 0
-355 -401 0
-355 -402 0
-355 -403 0
-355 -404 0
-355 -405 0
-355 -406 0
-355 -407 0
-355 -408 0
-355 -409 0
-355 -410 0
-355 -411 0
-355 -412 0
-355 -413 0
-355 -414 0
-355 -415 0
-355 -416 0
-355 -417 0
-355 -418 0
-355 -419 0
-355 -420 0
-355 -421 0
-355 -422 0
-355 -423 0
-355 -424 0
-355 -425 0
-355 -426 0
-355 -427 0
-355 -428 0
-355 -429 0
-355 -430 0
-355 -431 0
-355 -432 0
-355 -433 0
-355 -434 0
-355 -435 0
-355 -436 0
-355 -437 0
-355 -438 0
-355 -439 0
-355 -440 0
-355 -441 0
-355 -442 0
-355 -443 0
-355 -444 0
-355 -445 0
-355 -446 0
-355 -447 0
-355 -448 0
-355 -449 0
-355 -450 0
-355 -451 0
-355 -452 0
-355 -453 0
-355 -454 0
-355 -455 0
-355 -456 0
-356 -357 0
-356 -358 0
-356 -359 0
-356 -360 0
-356 -361 0
-356 -362 0
-356 -363 0
-356 -364 0
-356 -365 0
-356 -366 0
-356 -367 0
-356 -368 0
-356 -369 0
-356 -370 0
-356 -371 0
-356 -372 0
-356 -373 0
-356 -374 0
-356 -375 0
-356 -376 0
-356 -377 0
-356 -378 0
-356 -379 0
-356 -380 0
-356 -381 0
-356 -382 0
-356 -383 0
-356 -384 0
-356 -385 0
-356 -386 0
-356 -387 0
-356 -388 0
-356 -389 0
-356 -390 0
-356 -391 0
-356 -392 0
-356 -393 0
-356 -394 0
-356 -395 0
-356 -396 0
-356 -397 0
-356 -398 0
-356 -399 0
-356 -400 0
-356 -401 0
-356 -402 0
-356 -403 0
-356 -404 0
-356 -405 0
-356 -406 0
-356 -407 0
-356 -408 0
-356 -409 0
-356 -410 0
-356 -411 0
-356 -412 0
-356 -413 0
-356 -414 0
-356 -415 0
-356 -416 0
-356 -417 0
-356 -418 0
-356 -419 0
-356 -420 0
-356 -421 0
-356 -422 0
-356 -423 0
-356 -424 0
-356 -425 0
-356 -426 0
-356 -427 0
-356 -428 0
-356 -429 0
-356 -430 0
-356 -431 0
-356 -432 0
-356 -433 0
-356 -434 0
-356 -435 0
-356 -436 0
-356 -437 0
-356 -438 0
-356 -439 0
-356 -440 0
-356 -441 0
-356 -442 0
-356 -443 0
-356 -444 0
-356 -445 0
-356 -446 0
-356 -447 0
-356 -448 0
-356 -449 0
-356 -450 0
-356 -451 0
-356 -452 0
-356 -453 0
-356 -454 0
-356 -455 0
-356 -456 0
-357 -358 0
-357 -359 0
-357 -360 0
-357 -361 0
-357 -362 0
-357 -363 0
-357 -364 0
-357 -365 0
-357 -366 0
-357 -367 0
-357 -368 0
-357 -369 0
-357 -370 0
-357 -371 0
-357 -372 0
-357 -373 0
-357 -374 0
-357 -375 0
-357 -376 0
-357 -377 0
-357 -378 0
-357 -379 0
-357 -380 0
-357 -381 0
-357 -382 0
-357 -383 0
-357 -384 0
-357 -385 0
-357 -386 0
-357 -387 0
-357 -388 0
-357 -389 0
-357 -390 0
-357 -391 0
-357 -392 0
-357 -393 0
-357 -394 0
-357 -395 0
-357 -396 0
-357 -397 0
-357 -398 0
-357 -399 0
-357 -400 0
-357 -401 0
-357 -402 0
-357 -403 0
-357 -404 0
-357 -405 0
-357 -406 0
-357 -407 0
-357 -408 0
-357 -409 0
-357 -410 0
-357 -411 0
-357 -412 0
-357 -413 0
-357 -414 0
-357 -415 0
-357 -416 0
-357 -417 0
-357 -418 0
-357 -419 0
-357 -420 0
-357 -421 0
-357 -422 0
-357 -423 0
-357 -424 0
-357 -425 0
-357 -426 0
-357 -427 0
-357 -428 0
-357 -429 0
-357 -430 0
-357 -431 0
-357 -432 0
-357 -433 0
-357 -434 0
-357 -435 0
-357 -436 0
-357 -437 0
-357 -438 0
-357 -439 0
-357 -440 0
-357 -441 0
-357 -442 0
-357 -443 0
-357 -444 0
-357 -445 0
-357 -446 0
-357 -447 0
-357 -448 0
-357 -449 0
-357 -450 0
-357 -451 0
-357 -452 0
-357 -453 0
-357 -454 0
-357 -455 0
-357 -456 0
-358 -359 0
-358 -360 0
-358 -361 0
-358 -362 0
-358 -363 0
-358 -364 0
-358 -365 0
-358 -366 0
-358 -367 0
-358 -368 0
-358 -369 0
-358 -370 0
-358 -371 0
-358 -372 0
-358 -373 0
-358 -374 0
-358 -375 0
-358 -376 0
-358 -377 0
-358 -378 0
-358 -379 0
-358 -380 0
-358 -381 0
-358 -382 0
-358 -383 0
-358 -384 0
-358 -385 0
-358 -386 0
-358 -387 0
-358 -388 0
-358 -389 0
-358 -390 0
-358 -391 0
-358 -392 0
-358 -393 0
-358 -394 0
-358 -395 0
-358 -396 0
-358 -397 0
-358 -398 0
-358 -399 0
-358 -400 0
-358 -401 0
-358 -402 0
-358 -403 0
-358 -404 0
-358 -405 0
-358 -406 0
-358 -407 0
-358 -408 0
-358 -409 0
-358 -410 0
-358 -411 0
-358 -412 0
-358 -413 0
-358 -414 0
-358 -415 0
-358 -416 0
-358 -417 0
-358 -418 0
-358 -419 0
-358 -420 0
-358 -421 0
-358 -422 0
-358 -423 0
-358 -424 0
-358 -425 0
-358 -426 0
-358 -427 0
-358 -428 0
-358 -429 0
-358 -430 0
-358 -431 0
-358 -432 0
-358 -433 0
-358 -434 0
-358 -435 0
-358 -436 0
-358 -437 0
-358 -438 0
-358 -439 0
-358 -440 0
-358 -441 0
-358 -442 0
-358 -443 0
-358 -444 0
-358 -445 0
-358 -446 0
-358 -447 0
-358 -448 0
-358 -449 0
-358 -450 0
-358 -451 0
-358 -452 0
-358 -453 0
-358 -454 0
-358 -455 0
-358 -456 0
-359 -360 0
-359 -361 0
-359 -362 0
-359 -363 0
-359 -364 0
-359 -365 0
-359 -366 0
-359 -367 0
-359 -368 0
-359 -369 0
-359 -370 0
-359 -371 0
-359 -372 0
-359 -373 0
-359 -374 0
-359 -375 0
-359 -376 0
-359 -377 0
-359 -378 0
-359 -379 0
-359 -380 0
-359 -381 0
-359 -382 0
-359 -383 0
-359 -384 0
-359 -385 0
-359 -386 0
-359 -387 0
-359 -388 0
-359 -389 0
-359 -390 0
-359 -391 0
-359 -392 0
-359 -393 0
-359 -394 0
-359 -395 0
-359 -396 0
-359 -397 0
-359 -398 0
-359 -399 0
-359 -400 0
-359 -401 0
-359 -402 0
-359 -403 0
-359 -404 0
-359 -405 0
-359 -406 0
-359 -407 0
-359 -408 0
-359 -409 0
-359 -410 0
-359 -411 0
-359 -412 0
-359 -413 0
-359 -414 0
-359 -415 0
-359 -416 0
-359 -417 0
-359 -418 0
-359 -419 0
-359 -420 0
-359 -421 0
-359 -422 0
-359 -423 0
-359 -424 0
-359 -425 0
-359 -426 0
-359 -427 0
-359 -428 0
-359 -429 0
-359 -430 0
-359 -431 0
-359 -432 0
-359 -433 0
-359 -434 0
-359 -435 0
-359 -436 0
-359 -437 0
-359 -438 0
-359 -439 0
-359 -440 0
-359 -441 0
-359 -442 0
-359 -443 0
-359 -444 0
-359 -445 0
-359 -446 0
-359 -447 0
-359 -448 0
-359 -449 0
-359 -450 0
-359 -451 0
-359 -452 0
-359 -453 0
-359 -454 0
-359 -455 0
-359 -456 0
-360 -361 0
-360 -362 0
-360 -363 0
-360 -364 0
-360 -365 0
-360 -366 0
-360 -367 0
-360 -368 0
-360 -369 0
-360 -370 0
-360 -371 0
-360 -372 0
-360 -373 0
-360 -374 0
-360 -375 0
-360 -376 0
-360 -377 0
-360 -378 0
-360 -379 0
-360 -380 0
-360 -381 0
-360 -382 0
-360 -383 0
-360 -384 0
-360 -385 0
-360 -386 0
-360 -387 0
-360 -388 0
-360 -389 0
-360 -390 0
-360 -391 0
-360 -392 0
-360 -393 0
-360 -394 0
-360 -395 0
-360 -396 0
-360 -397 0
-360 -398 0
-360 -399 0
-360 -400 0
-360 -401 0
-360 -402 0
-360 -403 0
-360 -404 0
-360 -405 0
-360 -406 0
-360 -407 0
-360 -408 0
-360 -409 0
-360 -410 0
-360 -411 0
-360 -412 0
-360 -413 0
-360 -414 0
-360 -415 0
-360 -416 0
-360 -417 0
-360 -418 0
-360 -419 0
-360 -420 0
-360 -421 0
-360 -422 0
-360 -423 0
-360 -424 0
-360 -425 0
-360 -426 0
-360 -427 0
-360 -428 0
-360 -429 0
-360 -430 0
-360 -431 0
-360 -432 0
-360 -433 0
-360 -434 0
-360 -435 0
-360 -436 0
-360 -437 0
-360 -438 0
-360 -439 0
-360 -440 0
-360 -441 0
-360 -442 0
-360 -443 0
-360 -444 0
-360 -445 0
-360 -446 0
-360 -447 0
-360 -448 0
-360 -449 0
-360 -450 0
-360 -451 0
-360 -452 0
-360 -453 0
-360 -454 0
-360 -455 0
-360 -456 0
-361 -362 0
-361 -363 0
-361 -364 0
-361 -365 0
-361 -366 0
-361 -367 0
-361 -368 0
-361 -369 0
-361 -370 0
-361 -371 0
-361 -372 0
-361 -373 0
-361 -374 0
-361 -375 0
-361 -376 0
-361 -377 0
-361 -378 0
-361 -379 0
-361 -380 0
-361 -381 0
-361 -382 0
-361 -383 0
-361 -384 0
-361 -385 0
-361 -386 0
-361 -387 0
-361 -388 0
-361 -389 0
-361 -390 0
-361 -391 0
-361 -392 0
-361 -393 0
-361 -394 0
-361 -395 0
-361 -396 0
-361 -397 0
-361 -398 0
-361 -399 0
-361 -400 0
-361 -401 0
-361 -402 0
-361 -403 0
-361 -404 0
-361 -405 0
-361 -406 0
-361 -407 0
-361 -408 0
-361 -409 0
-361 -410 0
-361 -411 0
-361 -412 0
-361 -413 0
-361 -414 0
-361 -415 0
-361 -416 0
-361 -417 0
-361 -418 0
-361 -419 0
-361 -420 0
-361 -421 0
-361 -422 0
-361 -423 0
-361 -424 0
-361 -425 0
-361 -426 0
-361 -427 0
-361 -428 0
-361 -429 0
-361 -430 0
-361 -431 0
-361 -432 0
-361 -433 0
-361 -434 0
-361 -435 0
-361 -436 0
-361 -437 0
-361 -438 0
-361 -439 0
-361 -440 0
-361 -441 0
-361 -442 0
-361 -443 0
-361 -444 0
-361 -445 0
-361 -446 0
-361 -447 0
-361 -448 0
-361 -449 0
-361 -450 0
-361 -451 0
-361 -452 0
-361 -453 0
-361 -454 0
-361 -455 0
-361 -456 0
-362 -363 0
-362 -364 0
-362 -365 0
-362 -366 0
-362 -367 0
-362 -368 0
-362 -369 0
-362 -370 0
-362 -371 0
-362 -372 0
-362 -373 0
-362 -374 0
-362 -375 0
-362 -376 0
-362 -377 0
-362 -378 0
-362 -379 0
-362 -380 0
-362 -381 0
-362 -382 0
-362 -383 0
-362 -384 0
-362 -385 0
-362 -386 0
-362 -387 0
-362 -388 0
-362 -389 0
-362 -390 0
-362 -391 0
-362 -392 0
-362 -393 0
-362 -394 0
-362 -395 0
-362 -396 0
-362 -397 0
-362 -398 0
-362 -399 0
-362 -400 0
-362 -401 0
-362 -402 0
-362 -403 0
-362 -404 0
-362 -405 0
-362 -406 0
-362 -407 0
-362 -408 0
-362 -409 0
-362 -410 0
-362 -411 0
-362 -412 0
-362 -413 0
-362 -414 0
-362 -415 0
-362 -416 0
-362 -417 0
-362 -418 0
-362 -419 0
-362 -420 0
-362 -421 0
-362 -422 0
-362 -423 0
-362 -424 0
-362 -425 0
-362 -426 0
-362 -427 0
-362 -428 0
-362 -429 0
-362 -430 0
-362 -431 0
-362 -432 0
-362 -433 0
-362 -434 0
-362 -435 0
-362 -436 0
-362 -437 0
-362 -438 0
-362 -439 0
-362 -440 0
-362 -441 0
-362 -442 0
-362 -443 0
-362 -444 0
-362 -445 0
-362 -446 0
-362 -447 0
-362 -448 0
-362 -449 0
-362 -450 0
-362 -451 0
-362 -452 0
-362 -453 0
-362 -454 0
-362 -455 0
-362 -456 0
-363 -364 0
-363 -365 0
-363 -366 0
-363 -367 0
-363 -368 0
-363 -369 0
-363 -370 0
-363 -371 0
-363 -372 0
-363 -373 0
-363 -374 0
-363 -375 0
-363 -376 0
-363 -377 0
-363 -378 0
-363 -379 0
-363 -380 0
-363 -381 0
-363 -382 0
-363 -383 0
-363 -384 0
-363 -385 0
-363 -386 0
-363 -387 0
-363 -388 0
-363 -389 0
-363 -390 0
-363 -391 0
-363 -392 0
-363 -393 0
-363 -394 0
-363 -395 0
-363 -396 0
-363 -397 0
-363 -398 0
-363 -399 0
-363 -400 0
-363 -401 0
-363 -402 0
-363 -403 0
-363 -404 0
-363 -405 0
-363 -406 0
-363 -407 0
-363 -408 0
-363 -409 0
-363 -410 0
-363 -411 0
-363 -412 0
-363 -413 0
-363 -414 0
-363 -415 0
-363 -416 0
-363 -417 0
-363 -418 0
-363 -419 0
-363 -420 0
-363 -421 0
-363 -422 0
-363 -423 0
-363 -424 0
-363 -425 0
-363 -426 0
-363 -427 0
-363 -428 0
-363 -429 0
-363 -430 0
-363 -431 0
-363 -432 0
-363 -433 0
-363 -434 0
-363 -435 0
-363 -436 0
-363 -437 0
-363 -438 0
-363 -439 0
-363 -440 0
-363 -441 0
-363 -442 0
-363 -443 0
-363 -444 0
-363 -445 0
-363 -446 0
-363 -447 0
-363 -448 0
-363 -449 0
-363 -450 0
-363 -451 0
-363 -452 0
-363 -453 0
-363 -454 0
-363 -455 0
-363 -456 0
-364 -365 0
-364 -366 0
-364 -367 0
-364 -368 0
-364 -369 0
-364 -370 0
-364 -371 0
-364 -372 0
-364 -373 0
-364 -374 0
-364 -375 0
-364 -376 0
-364 -377 0
-364 -378 0
-364 -379 0
-364 -380 0
-364 -381 0
-364 -382 0
-364 -383 0
-364 -384 0
-364 -385 0
-364 -386 0
-364 -387 0
-364 -388 0
-364 -389 0
-364 -390 0
-364 -391 0
-364 -392 0
-364 -393 0
-364 -394 0
-364 -395 0
-364 -396 0
-364 -397 0
-364 -398 0
-364 -399 0
-364 -400 0
-364 -401 0
-364 -402 0
-364 -403 0
-364 -404 0
-364 -405 0
-364 -406 0
-364 -407 0
-364 -408 0
-364 -409 0
-364 -410 0
-364 -411 0
-364 -412 0
-364 -413 0
-364 -414 0
-364 -415 0
-364 -416 0
-364 -417 0
-364 -418 0
-364 -419 0
-364 -420 0
-364 -421 0
-364 -422 0
-364 -423 0
-364 -424 0
-364 -425 0
-364 -426 0
-364 -427 0
-364 -428 0
-364 -429 0
-364 -430 0
-364 -431 0
-364 -432 0
-364 -433 0
-364 -434 0
-364 -435 0
-364 -436 0
-364 -437 0
-364 -438 0
-364 -439 0
-364 -440 0
-364 -441 0
-364 -442 0
-364 -443 0
-364 -444 0
-364 -445 0
-364 -446 0
-364 -447 0
-364 -448 0
-364 -449 0
-364 -450 0
-364 -451 0
-364 -452 0
-364 -453 0
-364 -454 0
-364 -455 0
-364 -456 0
-365 -366 0
-365 -367 0
-365 -368 0
-365 -369 0
-365 -370 0
-365 -371 0
-365 -372 0
-365 -373 0
-365 -374 0
-365 -375 0
-365 -376 0
-365 -377 0
-365 -378 0
-365 -379 0
-365 -380 0
-365 -381 0
-365 -382 0
-365 -383 0
-365 -384 0
-365 -385 0
-365 -386 0
-365 -387 0
-365 -388 0
-365 -389 0
-365 -390 0
-365 -391 0
-365 -392 0
-365 -393 0
-365 -394 0
-365 -395 0
-365 -396 0
-365 -397 0
-365 -398 0
-365 -399 0
-365 -400 0
-365 -401 0
-365 -402 0
-365 -403 0
-365 -404 0
-365 -405 0
-365 -406 0
-365 -407 0
-365 -408 0
-365 -409 0
-365 -410 0
-365 -411 0
-365 -412 0
-365 -413 0
-365 -414 0
-365 -415 0
-365 -416 0
-365 -417 0
-365 -418 0
-365 -419 0
-365 -420 0
-365 -421 0
-365 -422 0
-365 -423 0
-365 -424 0
-365 -425 0
-365 -426 0
-365 -427 0
-365 -428 0
-365 -429 0
-365 -430 0
-365 -431 0
-365 -432 0
-365 -433 0
-365 -434 0
-365 -435 0
-365 -436 0
-365 -437 0
-365 -438 0
-365 -439 0
-365 -440 0
-365 -441 0
-365 -442 0
-365 -443 0
-365 -444 0
-365 -445 0
-365 -446 0
-365 -447 0
-365 -448 0
-365 -449 0
-365 -450 0
-365 -451 0
-365 -452 0
-365 -453 0
-365 -454 0
-365 -455 0
-365 -456 0
-366 -367 0
-366 -368 0
-366 -369 0
-366 -370 0
-366 -371 0
-366 -372 0
-366 -373 0
-366 -374 0
-366 -375 0
-366 -376 0
-366 -377 0
-366 -378 0
-366 -379 0
-366 -380 0
-366 -381 0
-366 -382 0
-366 -383 0
-366 -384 0
-366 -385 0
-366 -386 0
-366 -387 0
-366 -388 0
-366 -389 0
-366 -390 0
-366 -391 0
-366 -392 0
-366 -393 0
-366 -394 0
-366 -395 0
-366 -396 0
-366 -397 0
-366 -398 0
-366 -399 0
-366 -400 0
-366 -401 0
-366 -402 0
-366 -403 0
-366 -404 0
-366 -405 0
-366 -406 0
-366 -407 0
-366 -408 0
-366 -409 0
-366 -410 0
-366 -411 0
-366 -412 0
-366 -413 0
-366 -414 0
-366 -415 0
-366 -416 0
-366 -417 0
-366 -418 0
-366 -419 0
-366 -420 0
-366 -421 0
-366 -422 0
-366 -423 0
-366 -424 0
-366 -425 0
-366 -426 0
-366 -427 0
-366 -428 0
-366 -429 0
-366 -430 0
-366 -431 0
-366 -432 0
-366 -433 0
-366 -434 0
-366 -435 0
-366 -436 0
-366 -437 0
-366 -438 0
-366 -439 0
-366 -440 0
-366 -441 0
-366 -442 0
-366 -443 0
-366 -444 0
-366 -445 0
-366 -446 0
-366 -447 0
-366 -448 0
-366 -449 0
-366 -450 0
-366 -451 0
-366 -452 0
-366 -453 0
-366 -454 0
-366 -455 0
-366 -456 0
-367 -368 0
-367 -369 0
-367 -370 0
-367 -371 0
-367 -372 0
-367 -373 0
-367 -374 0
-367 -375 0
-367 -376 0
-367 -377 0
-367 -378 0
-367 -379 0
-367 -380 0
-367 -381 0
-367 -382 0
-367 -383 0
-367 -384 0
-367 -385 0
-367 -386 0
-367 -387 0
-367 -388 0
-367 -389 0
-367 -390 0
-367 -391 0
-367 -392 0
-367 -393 0
-367 -394 0
-367 -395 0
-367 -396 0
-367 -397 0
-367 -398 0
-367 -399 0
-367 -400 0
-367 -401 0
-367 -402 0
-367 -403 0
-367 -404 0
-367 -405 0
-367 -406 0
-367 -407 0
-367 -408 0
-367 -409 0
-367 -410 0
-367 -411 0
-367 -412 0
-367 -413 0
-367 -414 0
-367 -415 0
-367 -416 0
-367 -417 0
-367 -418 0
-367 -419 0
-367 -420 0
-367 -421 0
-367 -422 0
-367 -423 0
-367 -424 0
-367 -425 0
-367 -426 0
-367 -427 0
-367 -428 0
-367 -429 0
-367 -430 0
-367 -431 0
-367 -432 0
-367 -433 0
-367 -434 0
-367 -435 0
-367 -436 0
-367 -437 0
-367 -438 0
-367 -439 0
-367 -440 0
-367 -441 0
-367 -442 0
-367 -443 0
-367 -444 0
-367 -445 0
-367 -446 0
-367 -447 0
-367 -448 0
-367 -449 0
-367 -450 0
-367 -451 0
-367 -452 0
-367 -453 0
-367 -454 0
-367 -455 0
-367 -456 0
-368 -369 0
-368 -370 0
-368 -371 0
-368 -372 0
-368 -373 0
-368 -374 0
-368 -375 0
-368 -376 0
-368 -377 0
-368 -378 0
-368 -379 0
-368 -380 0
-368 -381 0
-368 -382 0
-368 -383 0
-368 -384 0
-368 -385 0
-368 -386 0
-368 -387 0
-368 -388 0
-368 -389 0
-368 -390 0
-368 -391 0
-368 -392 0
-368 -393 0
-368 -394 0
-368 -395 0
-368 -396 0
-368 -397 0
-368 -398 0
-368 -399 0
-368 -400 0
-368 -401 0
-368 -402 0
-368 -403 0
-368 -404 0
-368 -405 0
-368 -406 0
-368 -407 0
-368 -408 0
-368 -409 0
-368 -410 0
-368 -411 0
-368 -412 0
-368 -413 0
-368 -414 0
-368 -415 0
-368 -416 0
-368 -417 0
-368 -418 0
-368 -419 0
-368 -420 0
-368 -421 0
-368 -422 0
-368 -423 0
-368 -424 0
-368 -425 0
-368 -426 0
-368 -427 0
-368 -428 0
-368 -429 0
-368 -430 0
-368 -431 0
-368 -432 0
-368 -433 0
-368 -434 0
-368 -435 0
-368 -436 0
-368 -437 0
-368 -438 0
-368 -439 0
-368 -440 0
-368 -441 0
-368 -442 0
-368 -443 0
-368 -444 0
-368 -445 0
-368 -446 0
-368 -447 0
-368 -448 0
-368 -449 0
-368 -450 0
-368 -451 0
-368 -452 0
-368 -453 0
-368 -454 0
-368 -455 0
-368 -456 0
-369 -370 0
-369 -371 0
-369 -372 0
-369 -373 0
-369 -374 0
-369 -375 0
-369 -376 0
-369 -377 0
-369 -378 0
-369 -379 0
-369 -380 0
-369 -381 0
-369 -382 0
-369 -383 0
-369 -384 0
-369 -385 0
-369 -386 0
-369 -387 0
-369 -388 0
-369 -389 0
-369 -390 0
-369 -391 0
-369 -392 0
-369 -393 0
-369 -394 0
-369 -395 0
-369 -396 0
-369 -397 0
-369 -398 0
-369 -399 0
-369 -400 0
-369 -401 0
-369 -402 0
-369 -403 0
-369 -404 0
-369 -405 0
-369 -406 0
-369 -407 0
-369 -408 0
-369 -409 0
-369 -410 0
-369 -411 0
-369 -412 0
-369 -413 0
-369 -414 0
-369 -415 0
-369 -416 0
-369 -417 0
-369 -418 0
-369 -419 0
-369 -420 0
-369 -421 0
-369 -422 0
-369 -423 0
-369 -424 0
-369 -425 0
-369 -426 0
-369 -427 0
-369 -428 0
-369 -429 0
-369 -430 0
-369 -431 0
-369 -432 0
-369 -433 0
-369 -434 0
-369 -435 0
-369 -436 0
-369 -437 0
-369 -438 0
-369 -439 0
-369 -440 0
-369 -441 0
-369 -442 0
-369 -443 0
-369 -444 0
-369 -445 0
-369 -446 0
-369 -447 0
-369 -448 0
-369 -449 0
-369 -450 0
-369 -451 0
-369 -452 0
-369 -453 0
-369 -454 0
-369 -455 0
-369 -456 0
-370 -371 0
-370 -372 0
-370 -373 0
-370 -374 0
-370 -375 0
-370 -376 0
-370 -377 0
-370 -378 0
-370 -379 0
-370 -380 0
-370 -381 0
-370 -382 0
-370 -383 0
-370 -384 0
-370 -385 0
-370 -386 0
-370 -387 0
-370 -388 0
-370 -389 0
-370 -390 0
-370 -391 0
-370 -392 0
-370 -393 0
-370 -394 0
-370 -395 0
-370 -396 0
-370 -397 0
-370 -398 0
-370 -399 0
-370 -400 0
-370 -401 0
-370 -402 0
-370 -403 0
-370 -404 0
-370 -405 0
-370 -406 0
-370 -407 0
-370 -408 0
-370 -409 0
-370 -410 0
-370 -411 0
-370 -412 0
-370 -413 0
-370 -414 0
-370 -415 0
-370 -416 0
-370 -417 0
-370 -418 0
-370 -419 0
-370 -420 0
-370 -421 0
-370 -422 0
-370 -423 0
-370 -424 0
-370 -425 0
-370 -426 0
-370 -427 0
-370 -428 0
-370 -429 0
-370 -430 0
-370 -431 0
-370 -432 0
-370 -433 0
-370 -434 0
-370 -435 0
-370 -436 0
-370 -437 0
-370 -438 0
-370 -439 0
-370 -440 0
-370 -441 0
-370 -442 0
-370 -443 0
-370 -444 0
-370 -445 0
-370 -446 0
-370 -447 0
-370 -448 0
-370 -449 0
-370 -450 0
-370 -451 0
-370 -452 0
-370 -453 0
-370 -454 0
-370 -455 0
-370 -456 0
-371 -372 0
-371 -373 0
-371 -374 0
-371 -375 0
-371 -376 0
-371 -377 0
-371 -378 0
-371 -379 0
-371 -380 0
-371 -381 0
-371 -382 0
-371 -383 0
-371 -384 0
-371 -385 0
-371 -386 0
-371 -387 0
-371 -388 0
-371 -389 0
-371 -390 0
-371 -391 0
-371 -392 0
-371 -393 0
-371 -394 0
-371 -395 0
-371 -396 0
-371 -397 0
-371 -398 0
-371 -399 0
-371 -400 0
-371 -401 0
-371 -402 0
-371 -403 0
-371 -404 0
-371 -405 0
-371 -406 0
-371 -407 0
-371 -408 0
-371 -409 0
-371 -410 0
-371 -411 0
-371 -412 0
-371 -413 0
-371 -414 0
-371 -415 0
-371 -416 0
-371 -417 0
-371 -418 0
-371 -419 0
-371 -420 0
-371 -421 0
-371 -422 0
-371 -423 0
-371 -424 0
-371 -425 0
-371 -426 0
-371 -427 0
-371 -428 0
-371 -429 0
-371 -430 0
-371 -431 0
-371 -432 0
-371 -433 0
-371 -434 0
-371 -435 0
-371 -436 0
-371 -437 0
-371 -438 0
-371 -439 0
-371 -440 0
-371 -441 0
-371 -442 0
-371 -443 0
-371 -444 0
-371 -445 0
-371 -446 0
-371 -447 0
-371 -448 0
-371 -449 0
-371 -450 0
-371 -451 0
-371 -452 0
-371 -453 0
-371 -454 0
-371 -455 0
-371 -456 0
-372 -373 0
-372 -374 0
-372 -375 0
-372 -376 0
-372 -377 0
-372 -378 0
-372 -379 0
-372 -380 0
-372 -381 0
-372 -382 0
-372 -383 0
-372 -384 0
-372 -385 0
-372 -386 0
-372 -387 0
-372 -388 0
-372 -389 0
-372 -390 0
-372 -391 0
-372 -392 0
-372 -393 0
-372 -394 0
-372 -395 0
-372 -396 0
-372 -397 0
-372 -398 0
-372 -399 0
-372 -400 0
-372 -401 0
-372 -402 0
-372 -403 0
-372 -404 0
-372 -405 0
-372 -406 0
-372 -407 0
-372 -408 0
-372 -409 0
-372 -410 0
-372 -411 0
-372 -412 0
-372 -413 0
-372 -414 0
-372 -415 0
-372 -416 0
-372 -417 0
-372 -418 0
-372 -419 0
-372 -420 0
-372 -421 0
-372 -422 0
-372 -423 0
-372 -424 0
-372 -425 0
-372 -426 0
-372 -427 0
-372 -428 0
-372 -429 0
-372 -430 0
-372 -431 0
-372 -432 0
-372 -433 0
-372 -434 0
-372 -435 0
-372 -436 0
-372 -437 0
-372 -438 0
-372 -439 0
-372 -440 0
-372 -441 0
-372 -442 0
-372 -443 0
-372 -444 0
-372 -445 0
-372 -446 0
-372 -447 0
-372 -448 0
-372 -449 0
-372 -450 0
-372 -451 0
-372 -452 0
-372 -453 0
-372 -454 0
-372 -455 0
-372 -456 0
-373 -374 0
-373 -375 0
-373 -376 0
-373 -377 0
-373 -378 0
-373 -379 0
-373 -380 0
-373 -381 0
-373 -382 0
-373 -383 0
-373 -384 0
-373 -385 0
-373 -386 0
-373 -387 0
-373 -388 0
-373 -389 0
-373 -390 0
-373 -391 0
-373 -392 0
-373 -393 0
-373 -394 0
-373 -395 0
-373 -396 0
-373 -397 0
-373 -398 0
-373 -399 0
-373 -400 0
-373 -401 0
-373 -402 0
-373 -403 0
-373 -404 0
-373 -405 0
-373 -406 0
-373 -407 0
-373 -408 0
-373 -409 0
-373 -410 0
-373 -411 0
-373 -412 0
-373 -413 0
-373 -414 0
-373 -415 0
-373 -416 0
-373 -417 0
-373 -418 0
-373 -419 0
-373 -420 0
-373 -421 0
-373 -422 0
-373 -423 0
-373 -424 0
-373 -425 0
-373 -426 0
-373 -427 0
-373 -428 0
-373 -429 0
-373 -430 0
-373 -431 0
-373 -432 0
-373 -433 0
-373 -434 0
-373 -435 0
-373 -436 0
-373 -437 0
-373 -438 0
-373 -439 0
-373 -440 0
-373 -441 0
-373 -442 0
-373 -443 0
-373 -444 0
-373 -445 0
-373 -446 0
-373 -447 0
-373 -448 0
-373 -449 0
-373 -450 0
-373 -451 0
-373 -452 0
-373 -453 0
-373 -454 0
-373 -455 0
-373 -456 0
-374 -375 0
-374 -376 0
-374 -377 0
-374 -378 0
-374 -379 0
-374 -380 0
-374 -381 0
-374 -382 0
-374 -383 0
-374 -384 0
-374 -385 0
-374 -386 0
-374 -387 0
-374 -388 0
-374 -389 0
-374 -390 0
-374 -391 0
-374 -392 0
-374 -393 0
-374 -394 0
-374 -395 0
-374 -396 0
-374 -397 0
-374 -398 0
-374 -399 0
-374 -400 0
-374 -401 0
-374 -402 0
-374 -403 0
-374 -404 0
-374 -405 0
-374 -406 0
-374 -407 0
-374 -408 0
-374 -409 0
-374 -410 0
-374 -411 0
-374 -412 0
-374 -413 0
-374 -414 0
-374 -415 0
-374 -416 0
-374 -417 0
-374 -418 0
-374 -419 0
-374 -420 0
-374 -421 0
-374 -422 0
-374 -423 0
-374 -424 0
-374 -425 0
-374 -426 0
-374 -427 0
-374 -428 0
-374 -429 0
-374 -430 0
-374 -431 0
-374 -432 0
-374 -433 0
-374 -434 0
-374 -435 0
-374 -436 0
-374 -437 0
-374 -438 0
-374 -439 0
-374 -440 0
-374 -441 0
-374 -442 0
-374 -443 0
-374 -444 0
-374 -445 0
-374 -446 0
-374 -447 0
-374 -448 0
-374 -449 0
-374 -450 0
-374 -451 0
-374 -452 0
-374 -453 0
-374 -454 0
-374 -455 0
-374 -456 0
-375 -376 0
-375 -377 0
-375 -378 0
-375 -379 0
-375 -380 0
-375 -381 0
-375 -382 0
-375 -383 0
-375 -384 0
-375 -385 0
-375 -386 0
-375 -387 0
-375 -388 0
-375 -389 0
-375 -390 0
-375 -391 0
-375 -392 0
-375 -393 0
-375 -394 0
-375 -395 0
-375 -396 0
-375 -397 0
-375 -398 0
-375 -399 0
-375 -400 0
-375 -401 0
-375 -402 0
-375 -403 0
-375 -404 0
-375 -405 0
-375 -406 0
-375 -407 0
-375 -408 0
-375 -409 0
-375 -410 0
-375 -411 0
-375 -412 0
-375 -413 0
-375 -414 0
-375 -415 0
-375 -416 0
-375 -417 0
-375 -418 0
-375 -419 0
-375 -420 0
-375 -421 0
-375 -422 0
-375 -423 0
-375 -424 0
-375 -425 0
-375 -426 0
-375 -427 0
-375 -428 0
-375 -429 0
-375 -430 0
-375 -431 0
-375 -432 0
-375 -433 0
-375 -434 0
-375 -435 0
-375 -436 0
-375 -437 0
-375 -438 0
-375 -439 0
-375 -440 0
-375 -441 0
-375 -442 0
-375 -443 0
-375 -444 0
-375 -445 0
-375 -446 0
-375 -447 0
-375 -448 0
-375 -449 0
-375 -450 0
-375 -451 0
-375 -452 0
-375 -453 0
-375 -454 0
-375 -455 0
-375 -456 0
-376 -377 0
-376 -378 0
-376 -379 0
-376 -380 0
-376 -381 0
-376 -382 0
-376 -383 0
-376 -384 0
-376 -385 0
-376 -386 0
-376 -387 0
-376 -388 0
-376 -389 0
-376 -390 0
-376 -391 0
-376 -392 0
-376 -393 0
-376 -394 0
-376 -395 0
-376 -396 0
-376 -397 0
-376 -398 0
-376 -399 0
-376 -400 0
-376 -401 0
-376 -402 0
-376 -403 0
-376 -404 0
-376 -405 0
-376 -406 0
-376 -407 0
-376 -408 0
-376 -409 0
-376 -410 0
-376 -411 0
-376 -412 0
-376 -413 0
-376 -414 0
-376 -415 0
-376 -416 0
-376 -417 0
-376 -418 0
-376 -419 0
-376 -420 0
-376 -421 0
-376 -422 0
-376 -423 0
-376 -424 0
-376 -425 0
-376 -426 0
-376 -427 0
-376 -428 0
-376 -429 0
-376 -430 0
-376 -431 0
-376 -432 0
-376 -433 0
-376 -434 0
-376 -435 0
-376 -436 0
-376 -437 0
-376 -438 0
-376 -439 0
-376 -440 0
-376 -441 0
-376 -442 0
-376 -443 0
-376 -444 0
-376 -445 0
-376 -446 0
-376 -447 0
-376 -448 0
-376 -449 0
-376 -450 0
-376 -451 0
-376 -452 0
-376 -453 0
-376 -454 0
-376 -455 0
-376 -456 0
-377 -378 0
-377 -379 0
-377 -380 0
-377 -381 0
-377 -382 0
-377 -383 0
-377 -384 0
-377 -385 0
-377 -386 0
-377 -387 0
-377 -388 0
-377 -389 0
-377 -390 0
-377 -391 0
-377 -392 0
-377 -393 0
-377 -394 0
-377 -395 0
-377 -396 0
-377 -397 0
-377 -398 0
-377 -399 0
-377 -400 0
-377 -401 0
-377 -402 0
-377 -403 0
-377 -404 0
-377 -405 0
-377 -406 0
-377 -407 0
-377 -408 0
-377 -409 0
-377 -410 0
-377 -411 0
-377 -412 0
-377 -413 0
-377 -414 0
-377 -415 0
-377 -416 0
-377 -417 0
-377 -418 0
-377 -419 0
-377 -420 0
-377 -421 0
-377 -422 0
-377 -423 0
-377 -424 0
-377 -425 0
-377 -426 0
-377 -427 0
-377 -428 0
-377 -429 0
-377 -430 0
-377 -431 0
-377 -432 0
-377 -433 0
-377 -434 0
-377 -435 0
-377 -436 0
-377 -437 0
-377 -438 0
-377 -439 0
-377 -440 0
-377 -441 0
-377 -442 0
-377 -443 0
-377 -444 0
-377 -445 0
-377 -446 0
-377 -447 0
-377 -448 0
-377 -449 0
-377 -450 0
-377 -451 0
-377 -452 0
-377 -453 0
-377 -454 0
-377 -455 0
-377 -456 0
-378 -379 0
-378 -380 0
-378 -381 0
-378 -382 0
-378 -383 0
-378 -384 0
-378 -385 0
-378 -386 0
-378 -387 0
-378 -388 0
-378 -389 0
-378 -390 0
-378 -391 0
-378 -392 0
-378 -393 0
-378 -394 0
-378 -395 0
-378 -396 0
-378 -397 0
-378 -398 0
-378 -399 0
-378 -400 0
-378 -401 0
-378 -402 0
-378 -403 0
-378 -404 0
-378 -405 0
-378 -406 0
-378 -407 0
-378 -408 0
-378 -409 0
-378 -410 0
-378 -411 0
-378 -412 0
-378 -413 0
-378 -414 0
-378 -415 0
-378 -416 0
-378 -417 0
-378 -418 0
-378 -419 0
-378 -420 0
-378 -421 0
-378 -422 0
-378 -423 0
-378 -424 0
-378 -425 0
-378 -426 0
-378 -427 0
-378 -428 0
-378 -429 0
-378 -430 0
-378 -431 0
-378 -432 0
-378 -433 0
-378 -434 0
-378 -435 0
-378 -436 0
-378 -437 0
-378 -438 0
-378 -439 0
-378 -440 0
-378 -441 0
-378 -442 0
-378 -443 0
-378 -444 0
-378 -445 0
-378 -446 0
-378 -447 0
-378 -448 0
-378 -449 0
-378 -450 0
-378 -451 0
-378 -452 0
-378 -453 0
-378 -454 0
-378 -455 0
-378 -456 0
-379 -380 0
-379 -381 0
-379 -382 0
-379 -383 0
-379 -384 0
-379 -385 0
-379 -386 0
-379 -387 0
-379 -388 0
-379 -389 0
-379 -390 0
-379 -391 0
-379 -392 0
-379 -393 0
-379 -394 0
-379 -395 0
-379 -396 0
-379 -397 0
-379 -398 0
-379 -399 0
-379 -400 0
-379 -401 0
-379 -402 0
-379 -403 0
-379 -404 0
-379 -405 0
-379 -406 0
-379 -407 0
-379 -408 0
-379 -409 0
-379 -410 0
-379 -411 0
-379 -412 0
-379 -413 0
-379 -414 0
-379 -415 0
-379 -416 0
-379 -417 0
-379 -418 0
-379 -419 0
-379 -420 0
-379 -421 0
-379 -422 0
-379 -423 0
-379 -424 0
-379 -425 0
-379 -426 0
-379 -427 0
-379 -428 0
-379 -429 0
-379 -430 0
-379 -431 0
-379 -432 0
-379 -433 0
-379 -434 0
-379 -435 0
-379 -436 0
-379 -437 0
-379 -438 0
-379 -439 0
-379 -440 0
-379 -441 0
-379 -442 0
-379 -443 0
-379 -444 0
-379 -445 0
-379 -446 0
-379 -447 0
-379 -448 0
-379 -449 0
-379 -450 0
-379 -451 0
-379 -452 0
-379 -453 0
-379 -454 0
-379 -455 0
-379 -456 0
-380 -381 0
-380 -382 0
-380 -383 0
-380 -384 0
-380 -385 0
-380 -386 0
-380 -387 0
-380 -388 0
-380 -389 0
-380 -390 0
-380 -391 0
-380 -392 0
-380 -393 0
-380 -394 0
-380 -395 0
-380 -396 0
-380 -397 0
-380 -398 0
-380 -399 0
-380 -400 0
-380 -401 0
-380 -402 0
-380 -403 0
-380 -404 0
-380 -405 0
-380 -406 0
-380 -407 0
-380 -408 0
-380 -409 0
-380 -410 0
-380 -411 0
-380 -412 0
-380 -413 0
-380 -414 0
-380 -415 0
-380 -416 0
-380 -417 0
-380 -418 0
-380 -419 0
-380 -420 0
-380 -421 0
-380 -422 0
-380 -423 0
-380 -424 0
-380 -425 0
-380 -426 0
-380 -427 0
-380 -428 0
-380 -429 0
-380 -430 0
-380 -431 0
-380 -432 0
-380 -433 0
-380 -434 0
-380 -435 0
-380 -436 0
-380 -437 0
-380 -438 0
-380 -439 0
-380 -440 0
-380 -441 0
-380 -442 0
-380 -443 0
-380 -444 0
-380 -445 0
-380 -446 0
-380 -447 0
-380 -448 0
-380 -449 0
-380 -450 0
-380 -451 0
-380 -452 0
-380 -453 0
-380 -454 0
-380 -455 0
-380 -456 0
-381 -382 0
-381 -383 0
-381 -384 0
-381 -385 0
-381 -386 0
-381 -387 0
-381 -388 0
-381 -389 0
-381 -390 0
-381 -391 0
-381 -392 0
-381 -393 0
-381 -394 0
-381 -395 0
-381 -396 0
-381 -397 0
-381 -398 0
-381 -399 0
-381 -400 0
-381 -401 0
-381 -402 0
-381 -403 0
-381 -404 0
-381 -405 0
-381 -406 0
-381 -407 0
-381 -408 0
-381 -409 0
-381 -410 0
-381 -411 0
-381 -412 0
-381 -413 0
-381 -414 0
-381 -415 0
-381 -416 0
-381 -417 0
-381 -418 0
-381 -419 0
-381 -420 0
-381 -421 0
-381 -422 0
-381 -423 0
-381 -424 0
-381 -425 0
-381 -426 0
-381 -427 0
-381 -428 0
-381 -429 0
-381 -430 0
-381 -431 0
-381 -432 0
-381 -433 0
-381 -434 0
-381 -435 0
-381 -436 0
-381 -437 0
-381 -438 0
-381 -439 0
-381 -440 0
-381 -441 0
-381 -442 0
-381 -443 0
-381 -444 0
-381 -445 0
-381 -446 0
-381 -447 0
-381 -448 0
-381 -449 0
-381 -450 0
-381 -451 0
-381 -452 0
-381 -453 0
-381 -454 0
-381 -455 0
-381 -456 0
-382 -383 0
-382 -384 0
-382 -385 0
-382 -386 0
-382 -387 0
-382 -388 0
-382 -389 0
-382 -390 0
-382 -391 0
-382 -392 0
-382 -393 0
-382 -394 0
-382 -395 0
-382 -396 0
-382 -397 0
-382 -398 0
-382 -399 0
-382 -400 0
-382 -401 0
-382 -402 0
-382 -403 0
-382 -404 0
-382 -405 0
-382 -406 0
-382 -407 0
-382 -408 0
-382 -409 0
-382 -410 0
-382 -411 0
-382 -412 0
-382 -413 0
-382 -414 0
-382 -415 0
-382 -416 0
-382 -417 0
-382 -418 0
-382 -419 0
-382 -420 0
-382 -421 0
-382 -422 0
-382 -423 0
-382 -424 0
-382 -425 0
-382 -426 0
-382 -427 0
-382 -428 0
-382 -429 0
-382 -430 0
-382 -431 0
-382 -432 0
-382 -433 0
-382 -434 0
-382 -435 0
-382 -436 0
-382 -437 0
-382 -438 0
-382 -439 0
-382 -440 0
-382 -441 0
-382 -442 0
-382 -443 0
-382 -444 0
-382 -445 0
-382 -446 0
-382 -447 0
-382 -448 0
-382 -449 0
-382 -450 0
-382 -451 0
-382 -452 0
-382 -453 0
-382 -454 0
-382 -455 0
-382 -456 0
-383 -384 0
-383 -385 0
-383 -386 0
-383 -387 0
-383 -388 0
-383 -389 0
-383 -390 0
-383 -391 0
-383 -392 0
-383 -393 0
-383 -394 0
-383 -395 0
-383 -396 0
-383 -397 0
-383 -398 0
-383 -399 0
-383 -400 0
-383 -401 0
-383 -402 0
-383 -403 0
-383 -404 0
-383 -405 0
-383 -406 0
-383 -407 0
-383 -408 0
-383 -409 0
-383 -410 0
-383 -411 0
-383 -412 0
-383 -413 0
-383 -414 0
-383 -415 0
-383 -416 0
-383 -417 0
-383 -418 0
-383 -419 0
-383 -420 0
-383 -421 0
-383 -422 0
-383 -423 0
-383 -424 0
-383 -425 0
-383 -426 0
-383 -427 0
-383 -428 0
-383 -429 0
-383 -430 0
-383 -431 0
-383 -432 0
-383 -433 0
-383 -434 0
-383 -435 0
-383 -436 0
-383 -437 0
-383 -438 0
-383 -439 0
-383 -440 0
-383 -441 0
-383 -442 0
-383 -443 0
-383 -444 0
-383 -445 0
-383 -446 0
-383 -447 0
-383 -448 0
-383 -449 0
-383 -450 0
-383 -451 0
-383 -452 0
-383 -453 0
-383 -454 0
-383 -455 0
-383 -456 0
-384 -385 0
-384 -386 0
-384 -387 0
-384 -388 0
-384 -389 0
-384 -390 0
-384 -391 0
-384 -392 0
-384 -393 0
-384 -394 0
-384 -395 0
-384 -396 0
-384 -397 0
-384 -398 0
-384 -399 0
-384 -400 0
-384 -401 0
-384 -402 0
-384 -403 0
-384 -404 0
-384 -405 0
-384 -406 0
-384 -407 0
-384 -408 0
-384 -409 0
-384 -410 0
-384 -411 0
-384 -412 0
-384 -413 0
-384 -414 0
-384 -415 0
-384 -416 0
-384 -417 0
-384 -418 0
-384 -419 0
-384 -420 0
-384 -421 0
-384 -422 0
-384 -423 0
-384 -424 0
-384 -425 0
-384 -426 0
-384 -427 0
-384 -428 0
-384 -429 0
-384 -430 0
-384 -431 0
-384 -432 0
-384 -433 0
-384 -434 0
-384 -435 0
-384 -436 0
-384 -437 0
-384 -438 0
-384 -439 0
-384 -440 0
-384 -441 0
-384 -442 0
-384 -443 0
-384 -444 0
-384 -445 0
-384 -446 0
-384 -447 0
-384 -448 0
-384 -449 0
-384 -450 0
-384 -451 0
-384 -452 0
-384 -453 0
-384 -454 0
-384 -455 0
-384 -456 0
-385 -386 0
-385 -387 0
-385 -388 0
-385 -389 0
-385 -390 0
-385 -391 0
-385 -392 0
-385 -393 0
-385 -394 0
-385 -395 0
-385 -396 0
-385 -397 0
-385 -398 0
-385 -399 0
-385 -400 0
-385 -401 0
-385 -402 0
-385 -403 0
-385 -404 0
-385 -405 0
-385 -406 0
-385 -407 0
-385 -408 0
-385 -409 0
-385 -410 0
-385 -411 0
-385 -412 0
-385 -413 0
-385 -414 0
-385 -415 0
-385 -416 0
-385 -417 0
-385 -418 0
-385 -419 0
-385 -420 0
-385 -421 0
-385 -422 0
-385 -423 0
-385 -424 0
-385 -425 0
-385 -426 0
-385 -427 0
-385 -428 0
-385 -429 0
-385 -430 0
-385 -431 0
-385 -432 0
-385 -433 0
-385 -434 0
-385 -435 0
-385 -436 0
-385 -437 0
-385 -438 0
-385 -439 0
-385 -440 0
-385 -441 0
-385 -442 0
-385 -443 0
-385 -444 0
-385 -445 0
-385 -446 0
-385 -447 0
-385 -448 0
-385 -449 0
-385 -450 0
-385 -451 0
-385 -452 0
-385 -453 0
-385 -454 0
-385 -455 0
-385 -456 0
-386 -387 0
-386 -388 0
-386 -389 0
-386 -390 0
-386 -391 0
-386 -392 0
-386 -393 0
-386 -394 0
-386 -395 0
-386 -396 0
-386 -397 0
-386 -398 0
-386 -399 0
-386 -400 0
-386 -401 0
-386 -402 0
-386 -403 0
-386 -404 0
-386 -405 0
-386 -406 0
-386 -407 0
-386 -408 0
-386 -409 0
-386 -410 0
-386 -411 0
-386 -412 0
-386 -413 0
-386 -414 0
-386 -415 0
-386 -416 0
-386 -417 0
-386 -418 0
-386 -419 0
-386 -420 0
-386 -421 0
-386 -422 0
-386 -423 0
-386 -424 0
-386 -425 0
-386 -426 0
-386 -427 0
-386 -428 0
-386 -429 0
-386 -430 0
-386 -431 0
-386 -432 0
-386 -433 0
-386 -434 0
-386 -435 0
-386 -436 0
-386 -437 0
-386 -438 0
-386 -439 0
-386 -440 0
-386 -441 0
-386 -442 0
-386 -443 0
-386 -444 0
-386 -445 0
-386 -446 0
-386 -447 0
-386 -448 0
-386 -449 0
-386 -450 0
-386 -451 0
-386 -452 0
-386 -453 0
-386 -454 0
-386 -455 0
-386 -456 0
-387 -388 0
-387 -389 0
-387 -390 0
-387 -391 0
-387 -392 0
-387 -393 0
-387 -394 0
-387 -395 0
-387 -396 0
-387 -397 0
-387 -398 0
-387 -399 0
-387 -400 0
-387 -401 0
-387 -402 0
-387 -403 0
-387 -404 0
-387 -405 0
-387 -406 0
-387 -407 0
-387 -408 0
-387 -409 0
-387 -410 0
-387 -411 0
-387 -412 0
-387 -413 0
-387 -414 0
-387 -415 0
-387 -416 0
-387 -417 0
-387 -418 0
-387 -419 0
-387 -420 0
-387 -421 0
-387 -422 0
-387 -423 0
-387 -424 0
-387 -425 0
-387 -426 0
-387 -427 0
-387 -428 0
-387 -429 0
-387 -430 0
-387 -431 0
-387 -432 0
-387 -433 0
-387 -434 0
-387 -435 0
-387 -436 0
-387 -437 0
-387 -438 0
-387 -439 0
-387 -440 0
-387 -441 0
-387 -442 0
-387 -443 0
-387 -444 0
-387 -445 0
-387 -446 0
-387 -447 0
-387 -448 0
-387 -449 0
-387 -450 0
-387 -451 0
-387 -452 0
-387 -453 0
-387 -454 0
-387 -455 0
-387 -456 0
-388 -389 0
-388 -390 0
-388 -391 0
-388 -392 0
-388 -393 0
-388 -394 0
-388 -395 0
-388 -396 0
-388 -397 0
-388 -398 0
-388 -399 0
-388 -400 0
-388 -401 0
-388 -402 0
-388 -403 0
-388 -404 0
-388 -405 0
-388 -406 0
-388 -407 0
-388 -408 0
-388 -409 0
-388 -410 0
-388 -411 0
-388 -412 0
-388 -413 0
-388 -414 0
-388 -415 0
-388 -416 0
-388 -417 0
-388 -418 0
-388 -419 0
-388 -420 0
-388 -421 0
-388 -422 0
-388 -423 0
-388 -424 0
-388 -425 0
-388 -426 0
-388 -427 0
-388 -428 0
-388 -429 0
-388 -430 0
-388 -431 0
-388 -432 0
-388 -433 0
-388 -434 0
-388 -435 0
-388 -436 0
-388 -437 0
-388 -438 0
-388 -439 0
-388 -440 0
-388 -441 0
-388 -442 0
-388 -443 0
-388 -444 0
-388 -445 0
-388 -446 0
-388 -447 0
-388 -448 0
-388 -449 0
-388 -450 0
-388 -451 0
-388 -452 0
-388 -453 0
-388 -454 0
-388 -455 0
-388 -456 0
-389 -390 0
-389 -391 0
-389 -392 0
-389 -393 0
-389 -394 0
-389 -395 0
-389 -396 0
-389 -397 0
-389 -398 0
-389 -399 0
-389 -400 0
-389 -401 0
-389 -402 0
-389 -403 0
-389 -404 0
-389 -405 0
-389 -406 0
-389 -407 0
-389 -408 0
-389 -409 0
-389 -410 0
-389 -411 0
-389 -412 0
-389 -413 0
-389 -414 0
-389 -415 0
-389 -416 0
-389 -417 0
-389 -418 0
-389 -419 0
-389 -420 0
-389 -421 0
-389 -422 0
-389 -423 0
-389 -424 0
-389 -425 0
-389 -426 0
-389 -427 0
-389 -428 0
-389 -429 0
-389 -430 0
-389 -431 0
-389 -432 0
-389 -433 0
-389 -434 0
-389 -435 0
-389 -436 0
-389 -437 0
-389 -438 0
-389 -439 0
-389 -440 0
-389 -441 0
-389 -442 0
-389 -443 0
-389 -444 0
-389 -445 0
-389 -446 0
-389 -447 0
-389 -448 0
-389 -449 0
-389 -450 0
-389 -451 0
-389 -452 0
-389 -453 0
-389 -454 0
-389 -455 0
-389 -456 0
-390 -391 0
-390 -392 0
-390 -393 0
-390 -394 0
-390 -395 0
-390 -396 0
-390 -397 0
-390 -398 0
-390 -399 0
-390 -400 0
-390 -401 0
-390 -402 0
-390 -403 0
-390 -404 0
-390 -405 0
-390 -406 0
-390 -407 0
-390 -408 0
-390 -409 0
-390 -410 0
-390 -411 0
-390 -412 0
-390 -413 0
-390 -414 0
-390 -415 0
-390 -416 0
-390 -417 0
-390 -418 0
-390 -419 0
-390 -420 0
-390 -421 0
-390 -422 0
-390 -423 0
-390 -424 0
-390 -425 0
-390 -426 0
-390 -427 0
-390 -428 0
-390 -429 0
-390 -430 0
-390 -431 0
-390 -432 0
-390 -433 0
-390 -434 0
-390 -435 0
-390 -436 0
-390 -437 0
-390 -438 0
-390 -439 0
-390 -440 0
-390 -441 0
-390 -442 0
-390 -443 0
-390 -444 0
-390 -445 0
-390 -446 0
-390 -447 0
-390 -448 0
-390 -449 0
-390 -450 0
-390 -451 0
-390 -452 0
-390 -453 0
-390 -454 0
-390 -455 0
-390 -456 0
-391 -392 0
-391 -393 0
-391 -394 0
-391 -395 0
-391 -396 0
-391 -397 0
-391 -398 0
-391 -399 0
-391 -400 0
-391 -401 0
-391 -402 0
-391 -403 0
-391 -404 0
-391 -405 0
-391 -406 0
-391 -407 0
-391 -408 0
-391 -409 0
-391 -410 0
-391 -411 0
-391 -412 0
-391 -413 0
-391 -414 0
-391 -415 0
-391 -416 0
-391 -417 0
-391 -418 0
-391 -419 0
-391 -420 0
-391 -421 0
-391 -422 0
-391 -423 0
-391 -424 0
-391 -425 0
-391 -426 0
-391 -427 0
-391 -428 0
-391 -429 0
-391 -430 0
-391 -431 0
-391 -432 0
-391 -433 0
-391 -434 0
-391 -435 0
-391 -436 0
-391 -437 0
-391 -438 0
-391 -439 0
-391 -440 0
-391 -441 0
-391 -442 0
-391 -443 0
-391 -444 0
-391 -445 0
-391 -446 0
-391 -447 0
-391 -448 0
-391 -449 0
-391 -450 0
-391 -451 0
-391 -452 0
-391 -453 0
-391 -454 0
-391 -455 0
-391 -456 0
-392 -393 0
-392 -394 0
-392 -395 0
-392 -396 0
-392 -397 0
-392 -398 0
-392 -399 0
-392 -400 0
-392 -401 0
-392 -402 0
-392 -403 0
-392 -404 0
-392 -405 0
-392 -406 0
-392 -407 0
-392 -408 0
-392 -409 0
-392 -410 0
-392 -411 0
-392 -412 0
-392 -413 0
-392 -414 0
-392 -415 0
-392 -416 0
-392 -417 0
-392 -418 0
-392 -419 0
-392 -420 0
-392 -421 0
-392 -422 0
-392 -423 0
-392 -424 0
-392 -425 0
-392 -426 0
-392 -427 0
-392 -428 0
-392 -429 0
-392 -430 0
-392 -431 0
-392 -432 0
-392 -433 0
-392 -434 0
-392 -435 0
-392 -436 0
-392 -437 0
-392 -438 0
-392 -439 0
-392 -440 0
-392 -441 0
-392 -442 0
-392 -443 0
-392 -444 0
-392 -445 0
-392 -446 0
-392 -447 0
-392 -448 0
-392 -449 0
-392 -450 0
-392 -451 0
-392 -452 0
-392 -453 0
-392 -454 0
-392 -455 0
-392 -456 0
-393 -394 0
-393 -395 0
-393 -396 0
-393 -397 0
-393 -398 0
-393 -399 0
-393 -400 0
-393 -401 0
-393 -402 0
-393 -403 0
-393 -404 0
-393 -405 0
-393 -406 0
-393 -407 0
-393 -408 0
-393 -409 0
-393 -410 0
-393 -411 0
-393 -412 0
-393 -413 0
-393 -414 0
-393 -415 0
-393 -416 0
-393 -417 0
-393 -418 0
-393 -419 0
-393 -420 0
-393 -421 0
-393 -422 0
-393 -423 0
-393 -424 0
-393 -425 0
-393 -426 0
-393 -427 0
-393 -428 0
-393 -429 0
-393 -430 0
-393 -431 0
-393 -432 0
-393 -433 0
-393 -434 0
-393 -435 0
-393 -436 0
-393 -437 0
-393 -438 0
-393 -439 0
-393 -440 0
-393 -441 0
-393 -442 0
-393 -443 0
-393 -444 0
-393 -445 0
-393 -446 0
-393 -447 0
-393 -448 0
-393 -449 0
-393 -450 0
-393 -451 0
-393 -452 0
-393 -453 0
-393 -454 0
-393 -455 0
-393 -456 0
-394 -395 0
-394 -396 0
-394 -397 0
-394 -398 0
-394 -399 0
-394 -400 0
-394 -401 0
-394 -402 0
-394 -403 0
-394 -404 0
-394 -405 0
-394 -406 0
-394 -407 0
-394 -408 0
-394 -409 0
-394 -410 0
-394 -411 0
-394 -412 0
-394 -413 0
-394 -414 0
-394 -415 0
-394 -416 0
-394 -417 0
-394 -418 0
-394 -419 0
-394 -420 0
-394 -421 0
-394 -422 0
-394 -423 0
-394 -424 0
-394 -425 0
-394 -426 0
-394 -427 0
-394 -428 0
-394 -429 0
-394 -430 0
-394 -431 0
-394 -432 0
-394 -433 0
-394 -434 0
-394 -435 0
-394 -436 0
-394 -437 0
-394 -438 0
-394 -439 0
-394 -440 0
-394 -441 0
-394 -442 0
-394 -443 0
-394 -444 0
-394 -445 0
-394 -446 0
-394 -447 0
-394 -448 0
-394 -449 0
-394 -450 0
-394 -451 0
-394 -452 0
-394 -453 0
-394 -454 0
-394 -455 0
-394 -456 0
-395 -396 0
-395 -397 0
-395 -398 0
-395 -399 0
-395 -400 0
-395 -401 0
-395 -402 0
-395 -403 0
-395 -404 0
-395 -405 0
-395 -406 0
-395 -407 0
-395 -408 0
-395 -409 0
-395 -410 0
-395 -411 0
-395 -412 0
-395 -413 0
-395 -414 0
-395 -415 0
-395 -416 0
-395 -417 0
-395 -418 0
-395 -419 0
-395 -420 0
-395 -421 0
-395 -422 0
-395 -423 0
-395 -424 0
-395 -425 0
-395 -426 0
-395 -427 0
-395 -428 0
-395 -429 0
-395 -430 0
-395 -431 0
-395 -432 0
-395 -433 0
-395 -434 0
-395 -435 0
-395 -436 0
-395 -437 0
-395 -438 0
-395 -439 0
-395 -440 0
-395 -441 0
-395 -442 0
-395 -443 0
-395 -444 0
-395 -445 0
-395 -446 0
-395 -447 0
-395 -448 0
-395 -449 0
-395 -450 0
-395 -451 0
-395 -452 0
-395 -453 0
-395 -454 0
-395 -455 0
-395 -456 0
-396 -397 0
-396 -398 0
-396 -399 0
-396 -400 0
-396 -401 0
-396 -402 0
-396 -403 0
-396 -404 0
-396 -405 0
-396 -406 0
-396 -407 0
-396 -408 0
-396 -409 0
-396 -410 0
-396 -411 0
-396 -412 0
-396 -413 0
-396 -414 0
-396 -415 0
-396 -416 0
-396 -417 0
-396 -418 0
-396 -419 0
-396 -420 0
-396 -421 0
-396 -422 0
-396 -423 0
-396 -424 0
-396 -425 0
-396 -426 0
-396 -427 0
-396 -428 0
-396 -429 0
-396 -430 0
-396 -431 0
-396 -432 0
-396 -433 0
-396 -434 0
-396 -435 0
-396 -436 0
-396 -437 0
-396 -438 0
-396 -439 0
-396 -440 0
-396 -441 0
-396 -442 0
-396 -443 0
-396 -444 0
-396 -445 0
-396 -446 0
-396 -447 0
-396 -448 0
-396 -449 0
-396 -450 0
-396 -451 0
-396 -452 0
-396 -453 0
-396 -454 0
-396 -455 0
-396 -456 0
-397 -398 0
-397 -399 0
-397 -400 0
-397 -401 0
-397 -402 0
-397 -403 0
-397 -404 0
-397 -405 0
-397 -406 0
-397 -407 0
-397 -408 0
-397 -409 0
-397 -410 0
-397 -411 0
-397 -412 0
-397 -413 0
-397 -414 0
-397 -415 0
-397 -416 0
-397 -417 0
-397 -418 0
-397 -419 0
-397 -420 0
-397 -421 0
-397 -422 0
-397 -423 0
-397 -424 0
-397 -425 0
-397 -426 0
-397 -427 0
-397 -428 0
-397 -429 0
-397 -430 0
-397 -431 0
-397 -432 0
-397 -433 0
-397 -434 0
-397 -435 0
-397 -436 0
-397 -437 0
-397 -438 0
-397 -439 0
-397 -440 0
-397 -441 0
-397 -442 0
-397 -443 0
-397 -444 0
-397 -445 0
-397 -446 0
-397 -447 0
-397 -448 0
-397 -449 0
-397 -450 0
-397 -451 0
-397 -452 0
-397 -453 0
-397 -454 0
-397 -455 0
-397 -456 0
-398 -399 0
-398 -400 0
-398 -401 0
-398 -402 0
-398 -403 0
-398 -404 0
-398 -405 0
-398 -406 0
-398 -407 0
-398 -408 0
-398 -409 0
-398 -410 0
-398 -411 0
-398 -412 0
-398 -413 0
-398 -414 0
-398 -415 0
-398 -416 0
-398 -417 0
-398 -418 0
-398 -419 0
-398 -420 0
-398 -421 0
-398 -422 0
-398 -423 0
-398 -424 0
-398 -425 0
-398 -426 0
-398 -427 0
-398 -428 0
-398 -429 0
-398 -430 0
-398 -431 0
-398 -432 0
-398 -433 0
-398 -434 0
-398 -435 0
-398 -436 0
-398 -437 0
-398 -438 0
-398 -439 0
-398 -440 0
-398 -441 0
-398 -442 0
-398 -443 0
-398 -444 0
-398 -445 0
-398 -446 0
-398 -447 0
-398 -448 0
-398 -449 0
-398 -450 0
-398 -451 0
-398 -452 0
-398 -453 0
-398 -454 0
-398 -455 0
-398 -456 0
-399 -400 0
-399 -401 0
-399 -402 0
-399 -403 0
-399 -404 0
-399 -405 0
-399 -406 0
-399 -407 0
-399 -408 0
-399 -409 0
-399 -410 0
-399 -411 0
-399 -412 0
-399 -413 0
-399 -414 0
-399 -415 0
-399 -416 0
-399 -417 0
-399 -418 0
-399 -419 0
-399 -420 0
-399 -421 0
-399 -422 0
-399 -423 0
-399 -424 0
-399 -425 0
-399 -426 0
-399 -427 0
-399 -428 0
-399 -429 0
-399 -430 0
-399 -431 0
-399 -432 0
-399 -433 0
-399 -434 0
-399 -435 0
-399 -436 0
-399 -437 0
-399 -438 0
-399 -439 0
-399 -440 0
-399 -441 0
-399 -442 0
-399 -443 0
-399 -444 0
-399 -445 0
-399 -446 0
-399 -447 0
-399 -448 0
-399 -449 0
-399 -450 0
-399 -451 0
-399 -452 0
-399 -453 0
-399 -454 0
-399 -455 0
-399 -456 0
-400 -401 0
-400 -402 0
-400 -403 0
-400 -404 0
-400 -405 0
-400 -406 0
-400 -407 0
-400 -408 0
-400 -409 0
-400 -410 0
-400 -411 0
-400 -412 0
-400 -413 0
-400 -414 0
-400 -415 0
-400 -416 0
-400 -417 0
-400 -418 0
-400 -419 0
-400 -420 0
-400 -421 0
-400 -422 0
-400 -423 0
-400 -424 0
-400 -425 0
-400 -426 0
-400 -427 0
-400 -428 0
-400 -429 0
-400 -430 0
-400 -431 0
-400 -432 0
-400 -433 0
-400 -434 0
-400 -435 0
-400 -436 0
-400 -437 0
-400 -438 0
-400 -439 0
-400 -440 0
-400 -441 0
-400 -442 0
-400 -443 0
-400 -444 0
-400 -445 0
-400 -446 0
-400 -447 0
-400 -448 0
-400 -449 0
-400 -450 0
-400 -451 0
-400 -452 0
-400 -453 0
-400 -454 0
-400 -455 0
-400 -456 0
-401 -402 0
-401 -403 0
-401 -404 0
-401 -405 0
-401 -406 0
-401 -407 0
-401 -408 0
-401 -409 0
-401 -410 0
-401 -411 0
-401 -412 0
-401 -413 0
-401 -414 0
-401 -415 0
-401 -416 0
-401 -417 0
-401 -418 0
-401 -419 0
-401 -420 0
-401 -421 0
-401 -422 0
-401 -423 0
-401 -424 0
-401 -425 0
-401 -426 0
-401 -427 0
-401 -428 0
-401 -429 0
-401 -430 0
-401 -431 0
-401 -432 0
-401 -433 0
-401 -434 0
-401 -435 0
-401 -436 0
-401 -437 0
-401 -438 0
-401 -439 0
-401 -440 0
-401 -441 0
-401 -442 0
-401 -443 0
-401 -444 0
-401 -445 0
-401 -446 0
-401 -447 0
-401 -448 0
-401 -449 0
-401 -450 0
-401 -451 0
-401 -452 0
-401 -453 0
-401 -454 0
-401 -455 0
-401 -456 0
-402 -403 0
-402 -404 0
-402 -405 0
-402 -406 0
-402 -407 0
-402 -408 0
-402 -409 0
-402 -410 0
-402 -411 0
-402 -412 0
-402 -413 0
-402 -414 0
-402 -415 0
-402 -416 0
-402 -417 0
-402 -418 0
-402 -419 0
-402 -420 0
-402 -421 0
-402 -422 0
-402 -423 0
-402 -424 0
-402 -425 0
-402 -426 0
-402 -427 0
-402 -428 0
-402 -429 0
-402 -430 0
-402 -431 0
-402 -432 0
-402 -433 0
-402 -434 0
-402 -435 0
-402 -436 0
-402 -437 0
-402 -438 0
-402 -439 0
-402 -440 0
-402 -441 0
-402 -442 0
-402 -443 0
-402 -444 0
-402 -445 0
-402 -446 0
-402 -447 0
-402 -448 0
-402 -449 0
-402 -450 0
-402 -451 0
-402 -452 0
-402 -453 0
-402 -454 0
-402 -455 0
-402 -456 0
-403 -404 0
-403 -405 0
-403 -406 0
-403 -407 0
-403 -408 0
-403 -409 0
-403 -410 0
-403 -411 0
-403 -412 0
-403 -413 0
-403 -414 0
-403 -415 0
-403 -416 0
-403 -417 0
-403 -418 0
-403 -419 0
-403 -420 0
-403 -421 0
-403 -422 0
-403 -423 0
-403 -424 0
-403 -425 0
-403 -426 0
-403 -427 0
-403 -428 0
-403 -429 0
-403 -430 0
-403 -431 0
-403 -432 0
-403 -433 0
-403 -434 0
-403 -435 0
-403 -436 0
-403 -437 0
-403 -438 0
-403 -439 0
-403 -440 0
-403 -441 0
-403 -442 0
-403 -443 0
-403 -444 0
-403 -445 0
-403 -446 0
-403 -447 0
-403 -448 0
-403 -449 0
-403 -450 0
-403 -451 0
-403 -452 0
-403 -453 0
-403 -454 0
-403 -455 0
-403 -456 0
-404 -405 0
-404 -406 0
-404 -407 0
-404 -408 0
-404 -409 0
-404 -410 0
-404 -411 0
-404 -412 0
-404 -413 0
-404 -414 0
-404 -415 0
-404 -416 0
-404 -417 0
-404 -418 0
-404 -419 0
-404 -420 0
-404 -421 0
-404 -422 0
-404 -423 0
-404 -424 0
-404 -425 0
-404 -426 0
-404 -427 0
-404 -428 0
-404 -429 0
-404 -430 0
-404 -431 0
-404 -432 0
-404 -433 0
-404 -434 0
-404 -435 0
-404 -436 0
-404 -437 0
-404 -438 0
-404 -439 0
-404 -440 0
-404 -441 0
-404 -442 0
-404 -443 0
-404 -444 0
-404 -445 0
-404 -446 0
-404 -447 0
-404 -448 0
-404 -449 0
-404 -450 0
-404 -451 0
-404 -452 0
-404 -453 0
-404 -454 0
-404 -455 0
-404 -456 0
-405 -406 0
-405 -407 0
-405 -408 0
-405 -409 0
-405 -410 0
-405 -411 0
-405 -412 0
-405 -413 0
-405 -414 0
-405 -415 0
-405 -416 0
-405 -417 0
-405 -418 0
-405 -419 0
-405 -420 0
-405 -421 0
-405 -422 0
-405 -423 0
-405 -424 0
-405 -425 0
-405 -426 0
-405 -427 0
-405 -428 0
-405 -429 0
-405 -430 0
-405 -431 0
-405 -432 0
-405 -433 0
-405 -434 0
-405 -435 0
-405 -436 0
-405 -437 0
-405 -438 0
-405 -439 0
-405 -440 0
-405 -441 0
-405 -442 0
-405 -443 0
-405 -444 0
-405 -445 0
-405 -446 0
-405 -447 0
-405 -448 0
-405 -449 0
-405 -450 0
-405 -451 0
-405 -452 0
-405 -453 0
-405 -454 0
-405 -455 0
-405 -456 0
-406 -407 0
-406 -408 0
-406 -409 0
-406 -410 0
-406 -411 0
-406 -412 0
-406 -413 0
-406 -414 0
-406 -415 0
-406 -416 0
-406 -417 0
-406 -418 0
-406 -419 0
-406 -420 0
-406 -421 0
-406 -422 0
-406 -423 0
-406 -424 0
-406 -425 0
-406 -426 0
-406 -427 0
-406 -428 0
-406 -429 0
-406 -430 0
-406 -431 0
-406 -432 0
-406 -433 0
-406 -434 0
-406 -435 0
-406 -436 0
-406 -437 0
-406 -438 0
-406 -439 0
-406 -440 0
-406 -441 0
-406 -442 0
-406 -443 0
-406 -444 0
-406 -445 0
-406 -446 0
-406 -447 0
-406 -448 0
-406 -449 0
-406 -450 0
-406 -451 0
-406 -452 0
-406 -453 0
-406 -454 0
-406 -455 0
-406 -456 0
-407 -408 0
-407 -409 0
-407 -410 0
-407 -411 0
-407 -412 0
-407 -413 0
-407 -414 0
-407 -415 0
-407 -416 0
-407 -417 0
-407 -418 0
-407 -419 0
-407 -420 0
-407 -421 0
-407 -422 0
-407 -423 0
-407 -424 0
-407 -425 0
-407 -426 0
-407 -427 0
-407 -428 0
-407 -429 0
-407 -430 0
-407 -431 0
-407 -432 0
-407 -433 0
-407 -434 0
-407 -435 0
-407 -436 0
-407 -437 0
-407 -438 0
-407 -439 0
-407 -440 0
-407 -441 0
-407 -442 0
-407 -443 0
-407 -444 0
-407 -445 0
-407 -446 0
-407 -447 0
-407 -448 0
-407 -449 0
-407 -450 0
-407 -451 0
-407 -452 0
-407 -453 0
-407 -454 0
-407 -455 0
-407 -456 0
-408 -409 0
-408 -410 0
-408 -411 0
-408 -412 0
-408 -413 0
-408 -414 0
-408 -415 0
-408 -416 0
-408 -417 0
-408 -418 0
-408 -419 0
-408 -420 0
-408 -421 0
-408 -422 0
-408 -423 0
-408 -424 0
-408 -425 0
-408 -426 0
-408 -427 0
-408 -428 0
-408 -429 0
-408 -430 0
-408 -431 0
-408 -432 0
-408 -433 0
-408 -434 0
-408 -435 0
-408 -436 0
-408 -437 0
-408 -438 0
-408 -439 0
-408 -440 0
-408 -441 0
-408 -442 0
-408 -443 0
-408 -444 0
-408 -445 0
-408 -446 0
-408 -447 0
-408 -448 0
-408 -449 0
-408 -450 0
-408 -451 0
-408 -452 0
-408 -453 0
-408 -454 0
-408 -455 0
-408 -456 0
-409 -410 0
-409 -411 0
-409 -412 0
-409 -413 0
-409 -414 0
-409 -415 0
-409 -416 0
-409 -417 0
-409 -418 0
-409 -419 0
-409 -420 0
-409 -421 0
-409 -422 0
-409 -423 0
-409 -424 0
-409 -425 0
-409 -426 0
-409 -427 0
-409 -428 0
-409 -429 0
-409 -430 0
-409 -431 0
-409 -432 0
-409 -433 0
-409 -434 0
-409 -435 0
-409 -436 0
-409 -437 0
-409 -438 0
-409 -439 0
-409 -440 0
-409 -441 0
-409 -442 0
-409 -443 0
-409 -444 0
-409 -445 0
-409 -446 0
-409 -447 0
-409 -448 0
-409 -449 0
-409 -450 0
-409 -451 0
-409 -452 0
-409 -453 0
-409 -454 0
-409 -455 0
-409 -456 0
-410 -411 0
-410 -412 0
-410 -413 0
-410 -414 0
-410 -415 0
-410 -416 0
-410 -417 0
-410 -418 0
-410 -419 0
-410 -420 0
-410 -421 0
-410 -422 0
-410 -423 0
-410 -424 0
-410 -425 0
-410 -426 0
-410 -427 0
-410 -428 0
-410 -429 0
-410 -430 0
-410 -431 0
-410 -432 0
-410 -433 0
-410 -434 0
-410 -435 0
-410 -436 0
-410 -437 0
-410 -438 0
-410 -439 0
-410 -440 0
-410 -441 0
-410 -442 0
-410 -443 0
-410 -444 0
-410 -445 0
-410 -446 0
-410 -447 0
-410 -448 0
-410 -449 0
-410 -450 0
-410 -451 0
-410 -452 0
-410 -453 0
-410 -454 0
-410 -455 0
-410 -456 0
-411 -412 0
-411 -413 0
-411 -414 0
-411 -415 0
-411 -416 0
-411 -417 0
-411 -418 0
-411 -419 0
-411 -420 0
-411 -421 0
-411 -422 0
-411 -423 0
-411 -424 0
-411 -425 0
-411 -426 0
-411 -427 0
-411 -428 0
-411 -429 0
-411 -430 0
-411 -431 0
-411 -432 0
-411 -433 0
-411 -434 0
-411 -435 0
-411 -436 0
-411 -437 0
-411 -438 0
-411 -439 0
-411 -440 0
-411 -441 0
-411 -442 0
-411 -443 0
-411 -444 0
-411 -445 0
-411 -446 0
-411 -447 0
-411 -448 0
-411 -449 0
-411 -450 0
-411 -451 0
-411 -452 0
-411 -453 0
-411 -454 0
-411 -455 0
-411 -456 0
-412 -413 0
-412 -414 0
-412 -415 0
-412 -416 0
-412 -417 0
-412 -418 0
-412 -419 0
-412 -420 0
-412 -421 0
-412 -422 0
-412 -423 0
-412 -424 0
-412 -425 0
-412 -426 0
-412 -427 0
-412 -428 0
-412 -429 0
-412 -430 0
-412 -431 0
-412 -432 0
-412 -433 0
-412 -434 0
-412 -435 0
-412 -436 0
-412 -437 0
-412 -438 0
-412 -439 0
-412 -440 0
-412 -441 0
-412 -442 0
-412 -443 0
-412 -444 0
-412 -445 0
-412 -446 0
-412 -447 0
-412 -448 0
-412 -449 0
-412 -450 0
-412 -451 0
-412 -452 0
-412 -453 0
-412 -454 0
-412 -455 0
-412 -456 0
-413 -414 0
-413 -415 0
-413 -416 0
-413 -417 0
-413 -418 0
-413 -419 0
-413 -420 0
-413 -421 0
-413 -422 0
-413 -423 0
-413 -424 0
-413 -425 0
-413 -426 0
-413 -427 0
-413 -428 0
-413 -429 0
-413 -430 0
-413 -431 0
-413 -432 0
-413 -433 0
-413 -434 0
-413 -435 0
-413 -436 0
-413 -437 0
-413 -438 0
-413 -439 0
-413 -440 0
-413 -441 0
-413 -442 0
-413 -443 0
-413 -444 0
-413 -445 0
-413 -446 0
-413 -447 0
-413 -448 0
-413 -449 0
-413 -450 0
-413 -451 0
-413 -452 0
-413 -453 0
-413 -454 0
-413 -455 0
-413 -456 0
-414 -415 0
-414 -416 0
-414 -417 0
-414 -418 0
-414 -419 0
-414 -420 0
-414 -421 0
-414 -422 0
-414 -423 0
-414 -424 0
-414 -425 0
-414 -426 0
-414 -427 0
-414 -428 0
-414 -429 0
-414 -430 0
-414 -431 0
-414 -432 0
-414 -433 0
-414 -434 0
-414 -435 0
-414 -436 0
-414 -437 0
-414 -438 0
-414 -439 0
-414 -440 0
-414 -441 0
-414 -442 0
-414 -443 0
-414 -444 0
-414 -445 0
-414 -446 0
-414 -447 0
-414 -448 0
-414 -449 0
-414 -450 0
-414 -451 0
-414 -452 0
-414 -453 0
-414 -454 0
-414 -455 0
-414 -456 0
-415 -416 0
-415 -417 0
-415 -418 0
-415 -419 0
-415 -420 0
-415 -421 0
-415 -422 0
-415 -423 0
-415 -424 0
-415 -425 0
-415 -426 0
-415 -427 0
-415 -428 0
-415 -429 0
-415 -430 0
-415 -431 0
-415 -432 0
-415 -433 0
-415 -434 0
-415 -435 0
-415 -436 0
-415 -437 0
-415 -438 0
-415 -439 0
-415 -440 0
-415 -441 0
-415 -442 0
-415 -443 0
-415 -444 0
-415 -445 0
-415 -446 0
-415 -447 0
-415 -448 0
-415 -449 0
-415 -450 0
-415 -451 0
-415 -452 0
-415 -453 0
-415 -454 0
-415 -455 0
-415 -456 0
-416 -417 0
-416 -418 0
-416 -419 0
-416 -420 0
-416 -421 0
-416 -422 0
-416 -423 0
-416 -424 0
-416 -425 0
-416 -426 0
-416 -427 0
-416 -428 0
-416 -429 0
-416 -430 0
-416 -431 0
-416 -432 0
-416 -433 0
-416 -434 0
-416 -435 0
-416 -436 0
-416 -437 0
-416 -438 0
-416 -439 0
-416 -440 0
-416 -441 0
-416 -442 0
-416 -443 0
-416 -444 0
-416 -445 0
-416 -446 0
-416 -447 0
-416 -448 0
-416 -449 0
-416 -450 0
-416 -451 0
-416 -452 0
-416 -453 0
-416 -454 0
-416 -455 0
-416 -456 0
-417 -418 0
-417 -419 0
-417 -420 0
-417 -421 0
-417 -422 0
-417 -423 0
-417 -424 0
-417 -425 0
-417 -426 0
-417 -427 0
-417 -428 0
-417 -429 0
-417 -430 0
-417 -431 0
-417 -432 0
-417 -433 0
-417 -434 0
-417 -435 0
-417 -436 0
-417 -437 0
-417 -438 0
-417 -439 0
-417 -440 0
-417 -441 0
-417 -442 0
-417 -443 0
-417 -444 0
-417 -445 0
-417 -446 0
-417 -447 0
-417 -448 0
-417 -449 0
-417 -450 0
-417 -451 0
-417 -452 0
-417 -453 0
-417 -454 0
-417 -455 0
-417 -456 0
-418 -419 0
-418 -420 0
-418 -421 0
-418 -422 0
-418 -423 0
-418 -424 0
-418 -425 0
-418 -426 0
-418 -427 0
-418 -428 0
-418 -429 0
-418 -430 0
-418 -431 0
-418 -432 0
-418 -433 0
-418 -434 0
-418 -435 0
-418 -436 0
-418 -437 0
-418 -438 0
-418 -439 0
-418 -440 0
-418 -441 0
-418 -442 0
-418 -443 0
-418 -444 0
-418 -445 0
-418 -446 0
-418 -447 0
-418 -448 0
-418 -449 0
-418 -450 0
-418 -451 0
-418 -452 0
-418 -453 0
-418 -454 0
-418 -455 0
-418 -456 0
-419 -420 0
-419 -421 0
-419 -422 0
-419 -423 0
-419 -424 0
-419 -425 0
-419 -426 0
-419 -427 0
-419 -428 0
-419 -429 0
-419 -430 0
-419 -431 0
-419 -432 0
-419 -433 0
-419 -434 0
-419 -435 0
-419 -436 0
-419 -437 0
-419 -438 0
-419 -439 0
-419 -440 0
-419 -441 0
-419 -442 0
-419 -443 0
-419 -444 0
-419 -445 0
-419 -446 0
-419 -447 0
-419 -448 0
-419 -449 0
-419 -450 0
-419 -451 0
-419 -452 0
-419 -453 0
-419 -454 0
-419 -455 0
-419 -456 0
-420 -421 0
-420 -422 0
-420 -423 0
-420 -424 0
-420 -425 0
-420 -426 0
-420 -427 0
-420 -428 0
-420 -429 0
-420 -430 0
-420 -431 0
-420 -432 0
-420 -433 0
-420 -434 0
-420 -435 0
-420 -436 0
-420 -437 0
-420 -438 0
-420 -439 0
-420 -440 0
-420 -441 0
-420 -442 0
-420 -443 0
-420 -444 0
-420 -445 0
-420 -446 0
-420 -447 0
-420 -448 0
-420 -449 0
-420 -450 0
-420 -451 0
-420 -452 0
-420 -453 0
-420 -454 0
-420 -455 0
-420 -456 0
-421 -422 0
-421 -423 0
-421 -424 0
-421 -425 0
-421 -426 0
-421 -427 0
-421 -428 0
-421 -429 0
-421 -430 0
-421 -431 0
-421 -432 0
-421 -433 0
-421 -434 0
-421 -435 0
-421 -436 0
-421 -437 0
-421 -438 0
-421 -439 0
-421 -440 0
-421 -441 0
-421 -442 0
-421 -443 0
-421 -444 0
-421 -445 0
-421 -446 0
-421 -447 0
-421 -448 0
-421 -449 0
-421 -450 0
-421 -451 0
-421 -452 0
-421 -453 0
-421 -454 0
-421 -455 0
-421 -456 0
-422 -423 0
-422 -424 0
-422 -425 0
-422 -426 0
-422 -427 0
-422 -428 0
-422 -429 0
-422 -430 0
-422 -431 0
-422 -432 0
-422 -433 0
-422 -434 0
-422 -435 0
-422 -436 0
-422 -437 0
-422 -438 0
-422 -439 0
-422 -440 0
-422 -441 0
-422 -442 0
-422 -443 0
-422 -444 0
-422 -445 0
-422 -446 0
-422 -447 0
-422 -448 0
-422 -449 0
-422 -450 0
-422 -451 0
-422 -452 0
-422 -453 0
-422 -454 0
-422 -455 0
-422 -456 0
-423 -424 0
-423 -425 0
-423 -426 0
-423 -427 0
-423 -428 0
-423 -429 0
-423 -430 0
-423 -431 0
-423 -432 0
-423 -433 0
-423 -434 0
-423 -435 0
-423 -436 0
-423 -437 0
-423 -438 0
-423 -439 0
-423 -440 0
-423 -441 0
-423 -442 0
-423 -443 0
-423 -444 0
-423 -445 0
-423 -446 0
-423 -447 0
-423 -448 0
-423 -449 0
-423 -450 0
-423 -451 0
-423 -452 0
-423 -453 0
-423 -454 0
-423 -455 0
-423 -456 0
-424 -425 0
-424 -426 0
-424 -427 0
-424 -428 0
-424 -429 0
-424 -430 0
-424 -431 0
-424 -432 0
-424 -433 0
-424 -434 0
-424 -435 0
-424 -436 0
-424 -437 0
-424 -438 0
-424 -439 0
-424 -440 0
-424 -441 0
-424 -442 0
-424 -443 0
-424 -444 0
-424 -445 0
-424 -446 0
-424 -447 0
-424 -448 0
-424 -449 0
-424 -450 0
-424 -451 0
-424 -452 0
-424 -453 0
-424 -454 0
-424 -455 0
-424 -456 0
-425 -426 0
-425 -427 0
-425 -428 0
-425 -429 0
-425 -430 0
-425 -431 0
-425 -432 0
-425 -433 0
-425 -434 0
-425 -435 0
-425 -436 0
-425 -437 0
-425 -438 0
-425 -439 0
-425 -440 0
-425 -441 0
-425 -442 0
-425 -443 0
-425 -444 0
-425 -445 0
-425 -446 0
-425 -447 0
-425 -448 0
-425 -449 0
-425 -450 0
-425 -451 0
-425 -452 0
-425 -453 0
-425 -454 0
-425 -455 0
-425 -456 0
-426 -427 0
-426 -428 0
-426 -429 0
-426 -430 0
-426 -431 0
-426 -432 0
-426 -433 0
-426 -434 0
-426 -435 0
-426 -436 0
-426 -437 0
-426 -438 0
-426 -439 0
-426 -440 0
-426 -441 0
-426 -442 0
-426 -443 0
-426 -444 0
-426 -445 0
-426 -446 0
-426 -447 0
-426 -448 0
-426 -449 0
-426 -450 0
-426 -451 0
-426 -452 0
-426 -453 0
-426 -454 0
-426 -455 0
-426 -456 0
-427 -428 0
-427 -429 0
-427 -430 0
-427 -431 0
-427 -432 0
-427 -433 0
-427 -434 0
-427 -435 0
-427 -436 0
-427 -437 0
-427 -438 0
-427 -439 0
-427 -440 0
-427 -441 0
-427 -442 0
-427 -443 0
-427 -444 0
-427 -445 0
-427 -446 0
-427 -447 0
-427 -448 0
-427 -449 0
-427 -450 0
-427 -451 0
-427 -452 0
-427 -453 0
-427 -454 0
-427 -455 0
-427 -456 0
-428 -429 0
-428 -430 0
-428 -431 0
-428 -432 0
-428 -433 0
-428 -434 0
-428 -435 0
-428 -436 0
-428 -437 0
-428 -438 0
-428 -439 0
-428 -440 0
-428 -441 0
-428 -442 0
-428 -443 0
-428 -444 0
-428 -445 0
-428 -446 0
-428 -447 0
-428 -448 0
-428 -449 0
-428 -450 0
-428 -451 0
-428 -452 0
-428 -453 0
-428 -454 0
-428 -455 0
-428 -456 0
-429 -430 0
-429 -431 0
-429 -432 0
-429 -433 0
-429 -434 0
-429 -435 0
-429 -436 0
-429 -437 0
-429 -438 0
-429 -439 0
-429 -440 0
-429 -441 0
-429 -442 0
-429 -443 0
-429 -444 0
-429 -445 0
-429 -446 0
-429 -447 0
-429 -448 0
-429 -449 0
-429 -450 0
-429 -451 0
-429 -452 0
-429 -453 0
-429 -454 0
-429 -455 0
-429 -456 0
-430 -431 0
-430 -432 0
-430 -433 0
-430 -434 0
-430 -435 0
-430 -436 0
-430 -437 0
-430 -438 0
-430 -439 0
-430 -440 0
-430 -441 0
-430 -442 0
-430 -443 0
-430 -444 0
-430 -445 0
-430 -446 0
-430 -447 0
-430 -448 0
-430 -449 0
-430 -450 0
-430 -451 0
-430 -452 0
-430 -453 0
-430 -454 0
-430 -455 0
-430 -456 0
-431 -432 0
-431 -433 0
-431 -434 0
-431 -435 0
-431 -436 0
-431 -437 0
-431 -438 0
-431 -439 0
-431 -440 0
-431 -441 0
-431 -442 0
-431 -443 0
-431 -444 0
-431 -445 0
-431 -446 0
-431 -447 0
-431 -448 0
-431 -449 0
-431 -450 0
-431 -451 0
-431 -452 0
-431 -453 0
-431 -454 0
-431 -455 0
-431 -456 0
-432 -433 0
-432 -434 0
-432 -435 0
-432 -436 0
-432 -437 0
-432 -438 0
-432 -439 0
-432 -440 0
-432 -441 0
-432 -442 0
-432 -443 0
-432 -444 0
-432 -445 0
-432 -446 0
-432 -447 0
-432 -448 0
-432 -449 0
-432 -450 0
-432 -451 0
-432 -452 0
-432 -453 0
-432 -454 0
-432 -455 0
-432 -456 0
-433 -434 0
-433 -435 0
-433 -436 0
-433 -437 0
-433 -438 0
-433 -439 0
-433 -440 0
-433 -441 0
-433 -442 0
-433 -443 0
-433 -444 0
-433 -445 0
-433 -446 0
-433 -447 0
-433 -448 0
-433 -449 0
-433 -450 0
-433 -451 0
-433 -452 0
-433 -453 0
-433 -454 0
-433 -455 0
-433 -456 0
-434 -435 0
-434 -436 0
-434 -437 0
-434 -438 0
-434 -439 0
-434 -440 0
-434 -441 0
-434 -442 0
-434 -443 0
-434 -444 0
-434 -445 0
-434 -446 0
-434 -447 0
-434 -448 0
-434 -449 0
-434 -450 0
-434 -451 0
-434 -452 0
-434 -453 0
-434 -454 0
-434 -455 0
-434 -456 0
-435 -436 0
-435 -437 0
-435 -438 0
-435 -439 0
-435 -440 0
-435 -441 0
-435 -442 0
-435 -443 0
-435 -444 0
-435 -445 0
-435 -446 0
-435 -447 0
-435 -448 0
-435 -449 0
-435 -450 0
-435 -451 0
-435 -452 0
-435 -453 0
-435 -454 0
-435 -455 0
-435 -456 0
-436 -437 0
-436 -438 0
-436 -439 0
-436 -440 0
-436 -441 0
-436 -442 0
-436 -443 0
-436 -444 0
-436 -445 0
-436 -446 0
-436 -447 0
-436 -448 0
-436 -449 0
-436 -450 0
-436 -451 0
-436 -452 0
-436 -453 0
-436 -454 0
-436 -455 0
-436 -456 0
-437 -438 0
-437 -439 0
-437 -440 0
-437 -441 0
-437 -442 0
-437 -443 0
-437 -444 0
-437 -445 0
-437 -446 0
-437 -447 0
-437 -448 0
-437 -449 0
-437 -450 0
-437 -451 0
-437 -452 0
-437 -453 0
-437 -454 0
-437 -455 0
-437 -456 0
-438 -439 0
-438 -440 0
-438 -441 0
-438 -442 0
-438 -443 0
-438 -444 0
-438 -445 0
-438 -446 0
-438 -447 0
-438 -448 0
-438 -449 0
-438 -450 0
-438 -451 0
-438 -452 0
-438 -453 0
-438 -454 0
-438 -455 0
-438 -456 0
-439 -440 0
-439 -441 0
-439 -442 0
-439 -443 0
-439 -444 0
-439 -445 0
-439 -446 0
-439 -447 0
-439 -448 0
-439 -449 0
-439 -450 0
-439 -451 0
-439 -452 0
-439 -453 0
-439 -454 0
-439 -455 0
-439 -456 0
-440 -441 0
-440 -442 0
-440 -443 0
-440 -444 0
-440 -445 0
-440 -446 0
-440 -447 0
-440 -448 0
-440 -449 0
-440 -450 0
-440 -451 0
-440 -452 0
-440 -453 0
-440 -454 0
-440 -455 0
-440 -456 0
-441 -442 0
-441 -443 0
-441 -444 0
-441 -445 0
-441 -446 0
-441 -447 0
-441 -448 0
-441 -449 0
-441 -450 0
-441 -451 0
-441 -452 0
-441 -453 0
-441 -454 0
-441 -455 0
-441 -456 0
-442 -443 0
-442 -444 0
-442 -445 0
-442 -446 0
-442 -447 0
-442 -448 0
-442 -449 0
-442 -450 0
-442 -451 0
-442 -452 0
-442 -453 0
-442 -454 0
-442 -455 0
-442 -456 0
-443 -444 0
-443 -445 0
-443 -446 0
-443 -447 0
-443 -448 0
-443 -449 0
-443 -450 0
-443 -451 0
-443 -452 0
-443 -453 0
-443 -454 0
-443 -455 0
-443 -456 0
-444 -445 0
-444 -446 0
-444 -447 0
-444 -448 0
-444 -449 0
-444 -450 0
-444 -451 0
-444 -452 0
-444 -453 0
-444 -454 0
-444 -455 0
-444 -456 0
-445 -446 0
-445 -447 0
-445 -448 0
-445 -449 0
-445 -450 0
-445 -451 0
-445 -452 0
-445 -453 0
-445 -454 0
-445 -455 0
-445 -456 0
-446 -447 0
-446 -448 0
-446 -449 0
-446 -450 0
-446 -451 0
-446 -452 0
-446 -453 0
-446 -454 0
-446 -455 0
-446 -456 0
-447 -448 0
-447 -449 0
-447 -450 0
-447 -451 0
-447 -452 0
-447 -453 0
-447 -454 0
-447 -455 0
-447 -456 0
-448 -449 0
-448 -450 0
-448 -451 0
-448 -452 0
-448 -453 0
-448 -454 0
-448 -455 0
-448 -456 0
-449 -450 0
-449 -451 0
-449 -452 0
-449 -453 0
-449 -454 0
-449 -455 0
-449 -456 0
-450 -451 0
-450 -452 0
-450 -453 0
-450 -454 0
-450 -455 0
-450 -456 0
-451 -452 0
-451 -453 0
-451 -454 0
-451 -455 0
-451 -456 0
-452 -453 0
-452 -454 0
-452 -455 0
-452 -456 0
-453 -454 0
-453 -455 0
-453 -456 0
-454 -455 0
-454 -456 0
-455 -456 0
-345 -97 0
-345 -98 0
-345 -99 0
-345 100 0
-345 -101 0
-345 -102 0
-345 -103 0
-345 104 0
-345 -105 0
-345 -106 0
-345 -107 0
-345 108 0
-345 -109 0
-345 -110 0
-345 -111 0
-345 112 0
-345 -113 0
-345 -114 0
-345 -115 0
-345 116 0
-345 -117 0
-345 -118 0
-345 -119 0
-345 120 0
-345 -121 0
-345 -122 0
-345 -123 0
-345 124 0
-345 -125 0
-345 -126 0
-345 -127 0
-345 128 0
-346 -97 0
-346 98 0
-346 -99 0
-346 -100 0
-346 -101 0
-346 102 0
-346 -103 0
-346 -104 0
-346 -105 0
-346 106 0
-346 -107 0
-346 -108 0
-346 -109 0
-346 110 0
-346 -111 0
-346 -112 0
-346 -113 0
-346 114 0
-346 -115 0
-346 -116 0
-346 -117 0
-346 118 0
-346 -119 0
-346 -120 0
-346 -121 0
-346 122 0
-346 -123 0
-346 -124 0
-346 -125 0
-346 126 0
-346 -127 0
-346 -128 0
-347 -97 0
-347 -98 0
-347 99 0
-347 -100 0
-347 -101 0
-347 -102 0
-347 103 0
-347 -104 0
-347 -105 0
-347 -106 0
-347 107 0
-347 -108 0
-347 -109 0
-347 -110 0
-347 111 0
-347 -112 0
-347 -113 0
-347 -114 0
-347 115 0
-347 -116 0
-347 -117 0
-347 -118 0
-347 119 0
-347 -120 0
-347 -121 0
-347 -122 0
-347 123 0
-347 -124 0
-347 -125 0
-347 -126 0
-347 127 0
-347 -128 0
-348 97 0
-348 -98 0
-348 -99 0
-348 -100 0
-348 101 0
-348 -102 0
-348 -103 0
-348 -104 0
-348 105 0
-348 -106 0
-348 -107 0
-348 -108 0
-348 109 0
-348 -110 0
-348 -111 0
-348 -112 0
-348 113 0
-348 -114 0
-348 -115 0
-348 -116 0
-348 117 0
-348 -118 0
-348 -119 0
-348 -120 0
-348 121 0
-348 -122 0
-348 -123 0
-348 -124 0
-348 125 0
-348 -126 0
-348 -127 0
-348 -128 0
-349 -97 0
-349 -98 0
-349 -99 0
-349 -100 0
-349 -101 0
-349 102 0
-349 -103 0
-349 104 0
-349 -105 0
-349 -106 0
-349 -107 0
-349 -108 0
-349 -109 0
-349 110 0
-349 -111 0
-349 112 0
-349 -113 0
-349 -114 0
-349 -115 0
-349 -116 0
-349 -117 0
-349 118 0
-349 -119 0
-349 120 0
-349 -121 0
-349 -122 0
-349 -123 0
-349 -124 0
-349 -125 0
-349 126 0
-349 -127 0
-349 128 0
-350 -97 0
-350 98 0
-350 -99 0
-350 100 0
-350 -101 0
-350 -102 0
-350 -103 0
-350 -104 0
-350 -105 0
-350 106 0
-350 -107 0
-350 108 0
-350 -109 0
-350 -110 0
-350 -111 0
-350 -112 0
-350 -113 0
-350 114 0
-350 -115 0
-350 116 0
-350 -117 0
-350 -118 0
-350 -119 0
-350 -120 0
-350 -121 0
-350 122 0
-350 -123 0
-350 124 0
-350 -125 0
-350 -126 0
-350 -127 0
-350 -128 0
-351 -97 0
-351 -98 0
-351 -99 0
-351 -100 0
-351 101 0
-351 -102 0
-351 103 0
-351 -104 0
-351 -105 0
-351 -106 0
-351 -107 0
-351 -108 0
-351 109 0
-351 -110 0
-351 111 0
-351 -112 0
-351 -113 0
-351 -114 0
-351 -115 0
-351 -116 0
-351 117 0
-351 -118 0
-351 119 0
-351 -120 0
-351 -121 0
-351 -122 0
-351 -123 0
-351 -124 0
-351 125 0
-351 -126 0
-351 127 0
-351 -128 0
-352 97 0
-352 -98 0
-352 99 0
-352 -100 0
-352 -101 0
-352 -102 0
-352 -103 0
-352 -104 0
-352 105 0
-352 -106 0
-352 107 0
-352 -108 0
-352 -109 0
-352 -110 0
-352 -111 0
-352 -112 0
-352 113 0
-352 -114 0
-352 115 0
-352 -116 0
-352 -117 0
-352 -118 0
-352 -119 0
-352 -120 0
-352 121 0
-352 -122 0
-352 123 0
-352 -124 0
-352 -125 0
-352 -126 0
-352 -127 0
-352 -128 0
-353 -97 0
-353 -98 0
-353 -99 0
-353 -100 0
-353 -101 0
-353 -102 0
-353 -103 0
-353 -104 0
-353 -105 0
-353 106 0
-353 -107 0
-353 108 0
-353 -109 0
-353 110 0
-353 -111 0
-353 112 0
-353 -113 0
-353 -114 0
-353 -115 0
-353 -116 0
-353 -117 0
-353 -118 0
-353 -119 0
-353 -120 0
-353 -121 0
-353 122 0
-353 -123 0
-353 124 0
-353 -125 0
-353 126 0
-353 -127 0
-353 128 0
-354 -97 0
-354 98 0
-354 -99 0
-354 100 0
-354 -101 0
-354 102 0
-354 -103 0
-354 104 0
-354 -105 0
-354 -106 0
-354 -107 0
-354 -108 0
-354 -109 0
-354 -110 0
-354 -111 0
-354 -112 0
-354 -113 0
-354 114 0
-354 -115 0
-354 116 0
-354 -117 0
-354 118 0
-354 -119 0
-354 120 0
-354 -121 0
-354 -122 0
-354 -123 0
-354 -124 0
-354 -125 0
-354 -126 0
-354 -127 0
-354 -128 0
-355 -97 0
-355 -98 0
-355 -99 0
-355 -100 0
-355 -101 0
-355 -102 0
-355 -103 0
-355 -104 0
-355 105 0
-355 -106 0
-355 107 0
-355 -108 0
-355 109 0
-355 -110 0
-355 111 0
-355 -112 0
-355 -113 0
-355 -114 0
-355 -115 0
-355 -116 0
-355 -117 0
-355 -118 0
-355 -119 0
-355 -120 0
-355 121 0
-355 -122 0
-355 123 0
-355 -124 0
-355 125 0
-355 -126 0
-355 127 0
-355 -128 0
-356 97 0
-356 -98 0
-356 99 0
-356 -100 0
-356 101 0
-356 -102 0
-356 103 0
-356 -104 0
-356 -105 0
-356 -106 0
-356 -107 0
-356 -108 0
-356 -109 0
-356 -110 0
-356 -111 0
-356 -112 0
-356 113 0
-356 -114 0
-356 115 0
-356 -116 0
-356 117 0
-356 -118 0
-356 119 0
-356 -120 0
-356 -121 0
-356 -122 0
-356 -123 0
-356 -124 0
-356 -125 0
-356 -126 0
-356 -127 0
-356 -128 0
-357 -97 0
-357 -98 0
-357 -99 0
-357 -100 0
-357 -101 0
-357 -102 0
-357 -103 0
-357 -104 0
-357 -105 0
-357 -106 0
-357 -107 0
-357 -108 0
-357 -109 0
-357 -110 0
-357 -111 0
-357 -112 0
-357 -113 0
-357 114 0
-357 -115 0
-357 116 0
-357 -117 0
-357 118 0
-357 -119 0
-357 120 0
-357 -121 0
-357 122 0
-357 -123 0
-357 124 0
-357 -125 0
-357 126 0
-357 -127 0
-357 128 0
-358 -97 0
-358 98 0
-358 -99 0
-358 100 0
-358 -101 0
-358 102 0
-358 -103 0
-358 104 0
-358 -105 0
-358 106 0
-358 -107 0
-358 108 0
-358 -109 0
-358 110 0
-358 -111 0
-358 112 0
-358 -113 0
-358 -114 0
-358 -115 0
-358 -116 0
-358 -117 0
-358 -118 0
-358 -119 0
-358 -120 0
-358 -121 0
-358 -122 0
-358 -123 0
-358 -124 0
-358 -125 0
-358 -126 0
-358 -127 0
-358 -128 0
-359 -97 0
-359 -98 0
-359 -99 0
-359 -100 0
-359 -101 0
-359 -102 0
-359 -103 0
-359 -104 0
-359 -105 0
-359 -106 0
-359 -107 0
-359 -108 0
-359 -109 0
-359 -110 0
-359 -111 0
-359 -112 0
-359 113 0
-359 -114 0
-359 115 0
-359 -116 0
-359 117 0
-359 -118 0
-359 119 0
-359 -120 0
-359 121 0
-359 -122 0
-359 123 0
-359 -124 0
-359 125 0
-359 -126 0
-359 127 0
-359 -128 0
-360 97 0
-360 -98 0
-360 99 0
-360 -100 0
-360 101 0
-360 -102 0
-360 103 0
-360 -104 0
-360 105 0
-360 -106 0
-360 107 0
-360 -108 0
-360 109 0
-360 -110 0
-360 111 0
-360 -112 0
-360 -113 0
-360 -114 0
-360 -115 0
-360 -116 0
-360 -117 0
-360 -118 0
-360 -119 0
-360 -120 0
-360 -121 0
-360 -122 0
-360 -123 0
-360 -124 0
-360 -125 0
-360 -126 0
-360 -127 0
-360 -128 0
-361 -97 0
-361 -98 2 0
-361 98 -2 0
-361 -99 0
-361 -100 4 0
-361 100 -4 0
-361 -101 0
-361 -102 6 0
-361 102 -6 0
-361 -103 0
-361 -104 8 0
-361 104 -8 0
-361 -105 0
-361 -106 10 0
-361 106 -10 0
-361 -107 0
-361 -108 12 0
-361 108 -12 0
-361 -109 0
-361 -110 14 0
-361 110 -14 0
-361 -111 0
-361 -112 16 0
-361 112 -16 0
-361 -113 0
-361 -114 18 0
-361 114 -18 0
-361 -115 0
-361 -116 20 0
-361 116 -20 0
-361 -117 0
-361 -118 22 0
-361 118 -22 0
-361 -119 0
-361 -120 24 0
-361 120 -24 0
-361 -121 0
-361 -122 26 0
-361 122 -26 0
-361 -123 0
-361 -124 28 0
-361 124 -28 0
-361 -125 0
-361 -126 30 0
-361 126 -30 0
-361 -127 0
-361 -128 32 0
-361 128 -32 0
-362 -97 0
-362 -98 -2 0
-362 98 2 0
-362 -99 0
-362 -100 -4 0
-362 100 4 0
-362 -101 0
-362 -102 -6 0
-362 102 6 0
-362 -103 0
-362 -104 -8 0
-362 104 8 0
-362 -105 0
-362 -106 -10 0
-362 106 10 0
-362 -107 0
-362 -108 -12 0
-362 108 12 0
-362 -109 0
-362 -110 -14 0
-362 110 14 0
-362 -111 0
-362 -112 -16 0
-362 112 16 0
-362 -113 0
-362 -114 -18 0
-362 114 18 0
-362 -115 0
-362 -116 -20 0
-362 116 20 0
-362 -117 0
-362 -118 -22 0
-362 118 22 0
-362 -119 0
-362 -120 -24 0
-362 120 24 0
-362 -121 0
-362 -122 -26 0
-362 122 26 0
-362 -123 0
-362 -124 -28 0
-362 124 28 0
-362 -125 0
-362 -126 -30 0
-362 126 30 0
-362 -127 0
-362 -128 -32 0
-362 128 32 0
-363 -97 1 0
-363 97 -1 0
-363 -98 0
-363 -99 3 0
-363 99 -3 0
-363 -100 0
-363 -101 5 0
-363 101 -5 0
-363 -102 0
-363 -103 7 0
-363 103 -7 0
-363 -104 0
-363 -105 9 0
-363 105 -9 0
-363 -106 0
-363 -107 11 0
-363 107 -11 0
-363 -108 0
-363 -109 13 0
-363 109 -13 0
-363 -110 0
-363 -111 15 0
-363 111 -15 0
-363 -112 0
-363 -113 17 0
-363 113 -17 0
-363 -114 0
-363 -115 19 0
-363 115 -19 0
-363 -116 0
-363 -117 21 0
-363 117 -21 0
-363 -118 0
-363 -119 23 0
-363 119 -23 0
-363 -120 0
-363 -121 25 0
-363 121 -25 0
-363 -122 0
-363 -123 27 0
-363 123 -27 0
-363 -124 0
-363 -125 29 0
-363 125 -29 0
-363 -126 0
-363 -127 31 0
-363 127 -31 0
-363 -128 0
-364 -97 -1 0
-364 97 1 0
-364 -98 0
-364 -99 -3 0
-364 99 3 0
-364 -100 0
-364 -101 -5 0
-364 101 5 0
-364 -102 0
-364 -103 -7 0
-364 103 7 0
-364 -104 0
-364 -105 -9 0
-364 105 9 0
-364 -106 0
-364 -107 -11 0
-364 107 11 0
-364 -108 0
-364 -109 -13 0
-364 109 13 0
-364 -110 0
-364 -111 -15 0
-364 111 15 0
-364 -112 0
-364 -113 -17 0
-364 113 17 0
-364 -114 0
-364 -115 -19 0
-364 115 19 0
-364 -116 0
-364 -117 -21 0
-364 117 21 0
-364 -118 0
-364 -119 -23 0
-364 119 23 0
-364 -120 0
-364 -121 -25 0
-364 121 25 0
-364 -122 0
-364 -123 -27 0
-364 123 27 0
-364 -124 0
-364 -125 -29 0
-364 125 29 0
-364 -126 0
-364 -127 -31 0
-364 127 31 0
-364 -128 0
-365 -97 0
-365 -98 34 0
-365 98 -34 0
-365 -99 0
-365 -100 36 0
-365 100 -36 0
-365 -101 0
-365 -102 38 0
-365 102 -38 0
-365 -103 0
-365 -104 40 0
-365 104 -40 0
-365 -105 0
-365 -106 42 0
-365 106 -42 0
-365 -107 0
-365 -108 44 0
-365 108 -44 0
-365 -109 0
-365 -110 46 0
-365 110 -46 0
-365 -111 0
-365 -112 48 0
-365 112 -48 0
-365 -113 0
-365 -114 50 0
-365 114 -50 0
-365 -115 0
-365 -116 52 0
-365 116 -52 0
-365 -117 0
-365 -118 54 0
-365 118 -54 0
-365 -119 0
-365 -120 56 0
-365 120 -56 0
-365 -121 0
-365 -122 58 0
-365 122 -58 0
-365 -123 0
-365 -124 60 0
-365 124 -60 0
-365 -125 0
-365 -126 62 0
-365 126 -62 0
-365 -127 0
-365 -128 64 0
-365 128 -64 0
-366 -97 0
-366 -98 -34 0
-366 98 34 0
-366 -99 0
-366 -100 -36 0
-366 100 36 0
-366 -101 0
-366 -102 -38 0
-366 102 38 0
-366 -103 0
-366 -104 -40 0
-366 104 40 0
-366 -105 0
-366 -106 -42 0
-366 106 42 0
-366 -107 0
-366 -108 -44 0
-366 108 44 0
-366 -109 0
-366 -110 -46 0
-366 110 46 0
-366 -111 0
-366 -112 -48 0
-366 112 48 0
-366 -113 0
-366 -114 -50 0
-366 114 50 0
-366 -115 0
-366 -116 -52 0
-366 116 52 0
-366 -117 0
-366 -118 -54 0
-366 118 54 0
-366 -119 0
-366 -120 -56 0
-366 120 56 0
-366 -121 0
-366 -122 -58 0
-366 122 58 0
-366 -123 0
-366 -124 -60 0
-366 124 60 0
-366 -125 0
-366 -126 -62 0
-366 126 62 0
-366 -127 0
-366 -128 -64 0
-366 128 64 0
-367 -97 33 0
-367 97 -33 0
-367 -98 0
-367 -99 35 0
-367 99 -35 0
-367 -100 0
-367 -101 37 0
-367 101 -37 0
-367 -102 0
-367 -103 39 0
-367 103 -39 0
-367 -104 0
-367 -105 41 0
-367 105 -41 0
-367 -106 0
-367 -107 43 0
-367 107 -43 0
-367 -108 0
-367 -109 45 0
-367 109 -45 0
-367 -110 0
-367 -111 47 0
-367 111 -47 0
-367 -112 0
-367 -113 49 0
-367 113 -49 0
-367 -114 0
-367 -115 51 0
-367 115 -51 0
-367 -116 0
-367 -117 53 0
-367 117 -53 0
-367 -118 0
-367 -119 55 0
-367 119 -55 0
-367 -120 0
-367 -121 57 0
-367 121 -57 0
-367 -122 0
-367 -123 59 0
-367 123 -59 0
-367 -124 0
-367 -125 61 0
-367 125 -61 0
-367 -126 0
-367 -127 63 0
-367 127 -63 0
-367 -128 0
-368 -97 -33 0
-368 97 33 0
-368 -98 0
-368 -99 -35 0
-368 99 35 0
-368 -100 0
-368 -101 -37 0
-368 101 37 0
-368 -102 0
-368 -103 -39 0
-368 103 39 0
-368 -104 0
-368 -105 -41 0
-368 105 41 0
-368 -106 0
-368 -107 -43 0
-368 107 43 0
-368 -108 0
-368 -109 -45 0
-368 109 45 0
-368 -110 0
-368 -111 -47 0
-368 111 47 0
-368 -112 0
-368 -113 -49 0
-368 113 49 0
-368 -114 0
-368 -115 -51 0
-368 115 51 0
-368 -116 0
-368 -117 -53 0
-368 117 53 0
-368 -118 0
-368 -119 -55 0
-368 119 55 0
-368 -120 0
-368 -121 -57 0
-368 121 57 0
-368 -122 0
-368 -123 -59 0
-368 123 59 0
-368 -124 0
-368 -125 -61 0
-368 125 61 0
-368 -126 0
-368 -127 -63 0
-368 127 63 0
-368 -128 0
-369 -97 0
-369 -98 66 0
-369 98 -66 0
-369 -99 0
-369 -100 68 0
-369 100 -68 0
-369 -101 0
-369 -102 70 0
-369 102 -70 0
-369 -103 0
-369 -104 72 0
-369 104 -72 0
-369 -105 0
-369 -106 74 0
-369 106 -74 0
-369 -107 0
-369 -108 76 0
-369 108 -76 0
-369 -109 0
-369 -110 78 0
-369 110 -78 0
-369 -111 0
-369 -112 80 0
-369 112 -80 0
-369 -113 0
-369 -114 82 0
-369 114 -82 0
-369 -115 0
-369 -116 84 0
-369 116 -84 0
-369 -117 0
-369 -118 86 0
-369 118 -86 0
-369 -119 0
-369 -120 88 0
-369 120 -88 0
-369 -121 0
-369 -122 90 0
-369 122 -90 0
-369 -123 0
-369 -124 92 0
-369 124 -92 0
-369 -125 0
-369 -126 94 0
-369 126 -94 0
-369 -127 0
-369 -128 96 0
-369 128 -96 0
-370 -97 0
-370 -98 -66 0
-370 98 66 0
-370 -99 0
-370 -100 -68 0
-370 100 68 0
-370 -101 0
-370 -102 -70 0
-370 102 70 0
-370 -103 0
-370 -104 -72 0
-370 104 72 0
-370 -105 0
-370 -106 -74 0
-370 106 74 0
-370 -107 0
-370 -108 -76 0
-370 108 76 0
-370 -109 0
-370 -110 -78 0
-370 110 78 0
-370 -111 0
-370 -112 -80 0
-370 112 80 0
-370 -113 0
-370 -114 -82 0
-370 114 82 0
-370 -115 0
-370 -116 -84 0
-370 116 84 0
-370 -117 0
-370 -118 -86 0
-370 118 86 0
-370 -119 0
-370 -120 -88 0
-370 120 88 0
-370 -121 0
-370 -122 -90 0
-370 122 90 0
-370 -123 0
-370 -124 -92 0
-370 124 92 0
-370 -125 0
-370 -126 -94 0
-370 126 94 0
-370 -127 0
-370 -128 -96 0
-370 128 96 0
-371 -97 65 0
-371 97 -65 0
-371 -98 0
-371 -99 67 0
-371 99 -67 0
-371 -100 0
-371 -101 69 0
-371 101 -69 0
-371 -102 0
-371 -103 71 0
-371 103 -71 0
-371 -104 0
-371 -105 73 0
-371 105 -73 0
-371 -106 0
-371 -107 75 0
-371 107 -75 0
-371 -108 0
-371 -109 77 0
-371 109 -77 0
-371 -110 0
-371 -111 79 0
-371 111 -79 0
-371 -112 0
-371 -113 81 0
-371 113 -81 0
-371 -114 0
-371 -115 83 0
-371 115 -83 0
-371 -116 0
-371 -117 85 0
-371 117 -85 0
-371 -118 0
-371 -119 87 0
-371 119 -87 0
-371 -120 0
-371 -121 89 0
-371 121 -89 0
-371 -122 0
-371 -123 91 0
-371 123 -91 0
-371 -124 0
-371 -125 93 0
-371 125 -93 0
-371 -126 0
-371 -127 95 0
-371 127 -95 0
-371 -128 0
-372 -97 -65 0
-372 97 65 0
-372 -98 0
-372 -99 -67 0
-372 99 67 0
-372 -100 0
-372 -101 -69 0
-372 101 69 0
-372 -102 0
-372 -103 -71 0
-372 103 71 0
-372 -104 0
-372 -105 -73 0
-372 105 73 0
-372 -106 0
-372 -107 -75 0
-372 107 75 0
-372 -108 0
-372 -109 -77 0
-372 109 77 0
-372 -110 0
-372 -111 -79 0
-372 111 79 0
-372 -112 0
-372 -113 -81 0
-372 113 81 0
-372 -114 0
-372 -115 -83 0
-372 115 83 0
-372 -116 0
-372 -117 -85 0
-372 117 85 0
-372 -118 0
-372 -119 -87 0
-372 119 87 0
-372 -120 0
-372 -121 -89 0
-372 121 89 0
-372 -122 0
-372 -123 -91 0
-372 123 91 0
-372 -124 0
-372 -125 -93 0
-372 125 93 0
-372 -126 0
-372 -127 -95 0
-372 127 95 0
-372 -128 0
-373 -97 0
-373 -98 0
-373 -99 0
-373 -100 0
-373 -101 0
-373 -102 0
-373 103 0
-373 104 0
-373 -105 0
-373 -106 0
-373 -107 0
-373 -108 0
-373 -109 0
-373 -110 0
-373 111 0
-373 112 0
-373 -113 0
-373 -114 0
-373 -115 0
-373 -116 0
-373 -117 0
-373 -118 0
-373 119 0
-373 120 0
-373 -121 0
-373 -122 0
-373 -123 0
-373 -124 0
-373 -125 0
-373 -126 0
-373 127 0
-373 128 0
-374 -97 0
-374 -98 0
-374 99 0
-374 100 0
-374 -101 0
-374 -102 0
-374 -103 0
-374 -104 0
-374 -105 0
-374 -106 0
-374 107 0
-374 108 0
-374 -109 0
-374 -110 0
-374 -111 0
-374 -112 0
-374 -113 0
-374 -114 0
-374 115 0
-374 116 0
-374 -117 0
-374 -118 0
-374 -119 0
-374 -120 0
-374 -121 0
-374 -122 0
-374 123 0
-374 124 0
-374 -125 0
-374 -126 0
-374 -127 0
-374 -128 0
-375 -97 0
-375 -98 0
-375 -99 0
-375 -100 0
-375 101 0
-375 102 0
-375 -103 0
-375 -104 0
-375 -105 0
-375 -106 0
-375 -107 0
-375 -108 0
-375 109 0
-375 110 0
-375 -111 0
-375 -112 0
-375 -113 0
-375 -114 0
-375 -115 0
-375 -116 0
-375 117 0
-375 118 0
-375 -119 0
-375 -120 0
-375 -121 0
-375 -122 0
-375 -123 0
-375 -124 0
-375 125 0
-375 126 0
-375 -127 0
-375 -128 0
-376 97 0
-376 98 0
-376 -99 0
-376 -100 0
-376 -101 0
-376 -102 0
-376 -103 0
-376 -104 0
-376 105 0
-376 106 0
-376 -107 0
-376 -108 0
-376 -109 0
-376 -110 0
-376 -111 0
-376 -112 0
-376 113 0
-376 114 0
-376 -115 0
-376 -116 0
-376 -117 0
-376 -118 0
-376 -119 0
-376 -120 0
-376 121 0
-376 122 0
-376 -123 0
-376 -124 0
-376 -125 0
-376 -126 0
-376 -127 0
-376 -128 0
-377 -97 0
-377 -98 0
-377 -99 0
-377 -100 0
-377 -101 0
-377 -102 0
-377 -103 0
-377 -104 0
-377 -105 0
-377 -106 0
-377 107 0
-377 108 0
-377 -109 0
-377 -110 0
-377 111 0
-377 112 0
-377 -113 0
-377 -114 0
-377 -115 0
-377 -116 0
-377 -117 0
-377 -118 0
-377 -119 0
-377 -120 0
-377 -121 0
-377 -122 0
-377 123 0
-377 124 0
-377 -125 0
-377 -126 0
-377 127 0
-377 128 0
-378 -97 0
-378 -98 0
-378 99 0
-378 100 0
-378 -101 0
-378 -102 0
-378 103 0
-378 104 0
-378 -105 0
-378 -106 0
-378 -107 0
-378 -108 0
-378 -109 0
-378 -110 0
-378 -111 0
-378 -112 0
-378 -113 0
-378 -114 0
-378 115 0
-378 116 0
-378 -117 0
-378 -118 0
-378 119 0
-378 120 0
-378 -121 0
-378 -122 0
-378 -123 0
-378 -124 0
-378 -125 0
-378 -126 0
-378 -127 0
-378 -128 0
-379 -97 0
-379 -98 0
-379 -99 0
-379 -100 0
-379 -101 0
-379 -102 0
-379 -103 0
-379 -104 0
-379 105 0
-379 106 0
-379 -107 0
-379 -108 0
-379 109 0
-379 110 0
-379 -111 0
-379 -112 0
-379 -113 0
-379 -114 0
-379 -115 0
-379 -116 0
-379 -117 0
-379 -118 0
-379 -119 0
-379 -120 0
-379 121 0
-379 122 0
-379 -123 0
-379 -124 0
-379 125 0
-379 126 0
-379 -127 0
-379 -128 0
-380 97 0
-380 98 0
-380 -99 0
-380 -100 0
-380 101 0
-380 102 0
-380 -103 0
-380 -104 0
-380 -105 0
-380 -106 0
-380 -107 0
-380 -108 0
-380 -109 0
-380 -110 0
-380 -111 0
-380 -112 0
-380 113 0
-380 114 0
-380 -115 0
-380 -116 0
-380 117 0
-380 118 0
-380 -119 0
-380 -120 0
-380 -121 0
-380 -122 0
-380 -123 0
-380 -124 0
-380 -125 0
-380 -126 0
-380 -127 0
-380 -128 0
-381 -97 0
-381 -98 0
-381 -99 0
-381 -100 0
-381 -101 0
-381 -102 0
-381 -103 0
-381 -104 0
-381 -105 0
-381 -106 0
-381 -107 0
-381 -108 0
-381 -109 0
-381 -110 0
-381 -111 0
-381 -112 0
-381 -113 0
-381 -114 0
-381 115 0
-381 116 0
-381 -117 0
-381 -118 0
-381 119 0
-381 120 0
-381 -121 0
-381 -122 0
-381 123 0
-381 124 0
-381 -125 0
-381 -126 0
-381 127 0
-381 128 0
-382 -97 0
-382 -98 0
-382 99 0
-382 100 0
-382 -101 0
-382 -102 0
-382 103 0
-382 104 0
-382 -105 0
-382 -106 0
-382 107 0
-382 108 0
-382 -109 0
-382 -110 0
-382 111 0
-382 112 0
-382 -113 0
-382 -114 0
-382 -115 0
-382 -116 0
-382 -117 0
-382 -118 0
-382 -119 0
-382 -120 0
-382 -121 0
-382 -122 0
-382 -123 0
-382 -124 0
-382 -125 0
-382 -126 0
-382 -127 0
-382 -128 0
-383 -97 0
-383 -98 0
-383 -99 0
-383 -100 0
-383 -101 0
-383 -102 0
-383 -103 0
-383 -104 0
-383 -105 0
-383 -106 0
-383 -107 0
-383 -108 0
-383 -109 0
-383 -110 0
-383 -111 0
-383 -112 0
-383 113 0
-383 114 0
-383 -115 0
-383 -116 0
-383 117 0
-383 118 0
-383 -119 0
-383 -120 0
-383 121 0
-383 122 0
-383 -123 0
-383 -124 0
-383 125 0
-383 126 0
-383 -127 0
-383 -128 0
-384 97 0
-384 98 0
-384 -99 0
-384 -100 0
-384 101 0
-384 102 0
-384 -103 0
-384 -104 0
-384 105 0
-384 106 0
-384 -107 0
-384 -108 0
-384 109 0
-384 110 0
-384 -111 0
-384 -112 0
-384 -113 0
-384 -114 0
-384 -115 0
-384 -116 0
-384 -117 0
-384 -118 0
-384 -119 0
-384 -120 0
-384 -121 0
-384 -122 0
-384 -123 0
-384 -124 0
-384 -125 0
-384 -126 0
-384 -127 0
-384 -128 0
-385 -97 0
-385 -98 0
-385 -99 3 0
-385 99 -3 0
-385 -100 4 0
-385 100 -4 0
-385 -101 0
-385 -102 0
-385 -103 7 0
-385 103 -7 0
-385 -104 8 0
-385 104 -8 0
-385 -105 0
-385 -106 0
-385 -107 11 0
-385 107 -11 0
-385 -108 12 0
-385 108 -12 0
-385 -109 0
-385 -110 0
-385 -111 15 0
-385 111 -15 0
-385 -112 16 0
-385 112 -16 0
-385 -113 0
-385 -114 0
-385 -115 19 0
-385 115 -19 0
-385 -116 20 0
-385 116 -20 0
-385 -117 0
-385 -118 0
-385 -119 23 0
-385 119 -23 0
-385 -120 24 0
-385 120 -24 0
-385 -121 0
-385 -122 0
-385 -123 27 0
-385 123 -27 0
-385 -124 28 0
-385 124 -28 0
-385 -125 0
-385 -126 0
-385 -127 31 0
-385 127 -31 0
-385 -128 32 0
-385 128 -32 0
-386 -97 0
-386 -98 0
-386 -99 -3 0
-386 99 3 0
-386 -100 -4 0
-386 100 4 0
-386 -101 0
-386 -102 0
-386 -103 -7 0
-386 103 7 0
-386 -104 -8 0
-386 104 8 0
-386 -105 0
-386 -106 0
-386 -107 -11 0
-386 107 11 0
-386 -108 -12 0
-386 108 12 0
-386 -109 0
-386 -110 0
-386 -111 -15 0
-386 111 15 0
-386 -112 -16 0
-386 112 16 0
-386 -113 0
-386 -114 0
-386 -115 -19 0
-386 115 19 0
-386 -116 -20 0
-386 116 20 0
-386 -117 0
-386 -118 0
-386 -119 -23 0
-386 119 23 0
-386 -120 -24 0
-386 120 24 0
-386 -121 0
-386 -122 0
-386 -123 -27 0
-386 123 27 0
-386 -124 -28 0
-386 124 28 0
-386 -125 0
-386 -126 0
-386 -127 -31 0
-386 127 31 0
-386 -128 -32 0
-386 128 32 0
-387 -97 1 0
-387 97 -1 0
-387 -98 2 0
-387 98 -2 0
-387 -99 0
-387 -100 0
-387 -101 5 0
-387 101 -5 0
-387 -102 6 0
-387 102 -6 0
-387 -103 0
-387 -104 0
-387 -105 9 0
-387 105 -9 0
-387 -106 10 0
-387 106 -10 0
-387 -107 0
-387 -108 0
-387 -109 13 0
-387 109 -13 0
-387 -110 14 0
-387 110 -14 0
-387 -111 0
-387 -112 0
-387 -113 17 0
-387 113 -17 0
-387 -114 18 0
-387 114 -18 0
-387 -115 0
-387 -116 0
-387 -117 21 0
-387 117 -21 0
-387 -118 22 0
-387 118 -22 0
-387 -119 0
-387 -120 0
-387 -121 25 0
-387 121 -25 0
-387 -122 26 0
-387 122 -26 0
-387 -123 0
-387 -124 0
-387 -125 29 0
-387 125 -29 0
-387 -126 30 0
-387 126 -30 0
-387 -127 0
-387 -128 0
-388 -97 -1 0
-388 97 1 0
-388 -98 -2 0
-388 98 2 0
-388 -99 0
-388 -100 0
-388 -101 -5 0
-388 101 5 0
-388 -102 -6 0
-388 102 6 0
-388 -103 0
-388 -104 0
-388 -105 -9 0
-388 105 9 0
-388 -106 -10 0
-388 106 10 0
-388 -107 0
-388 -108 0
-388 -109 -13 0
-388 109 13 0
-388 -110 -14 0
-388 110 14 0
-388 -111 0
-388 -112 0
-388 -113 -17 0
-388 113 17 0
-388 -114 -18 0
-388 114 18 0
-388 -115 0
-388 -116 0
-388 -117 -21 0
-388 117 21 0
-388 -118 -22 0
-388 118 22 0
-388 -119 0
-388 -120 0
-388 -121 -25 0
-388 121 25 0
-388 -122 -26 0
-388 122 26 0
-388 -123 0
-388 -124 0
-388 -125 -29 0
-388 125 29 0
-388 -126 -30 0
-388 126 30 0
-388 -127 0
-388 -128 0
-389 -97 0
-389 -98 0
-389 -99 35 0
-389 99 -35 0
-389 -100 36 0
-389 100 -36 0
-389 -101 0
-389 -102 0
-389 -103 39 0
-389 103 -39 0
-389 -104 40 0
-389 104 -40 0
-389 -105 0
-389 -106 0
-389 -107 43 0
-389 107 -43 0
-389 -108 44 0
-389 108 -44 0
-389 -109 0
-389 -110 0
-389 -111 47 0
-389 111 -47 0
-389 -112 48 0
-389 112 -48 0
-389 -113 0
-389 -114 0
-389 -115 51 0
-389 115 -51 0
-389 -116 52 0
-389 116 -52 0
-389 -117 0
-389 -118 0
-389 -119 55 0
-389 119 -55 0
-389 -120 56 0
-389 120 -56 0
-389 -121 0
-389 -122 0
-389 -123 59 0
-389 123 -59 0
-389 -124 60 0
-389 124 -60 0
-389 -125 0
-389 -126 0
-389 -127 63 0
-389 127 -63 0
-389 -128 64 0
-389 128 -64 0
-390 -97 0
-390 -98 0
-390 -99 -35 0
-390 99 35 0
-390 -100 -36 0
-390 100 36 0
-390 -101 0
-390 -102 0
-390 -103 -39 0
-390 103 39 0
-390 -104 -40 0
-390 104 40 0
-390 -105 0
-390 -106 0
-390 -107 -43 0
-390 107 43 0
-390 -108 -44 0
-390 108 44 0
-390 -109 0
-390 -110 0
-390 -111 -47 0
-390 111 47 0
-390 -112 -48 0
-390 112 48 0
-390 -113 0
-390 -114 0
-390 -115 -51 0
-390 115 51 0
-390 -116 -52 0
-390 116 52 0
-390 -117 0
-390 -118 0
-390 -119 -55 0
-390 119 55 0
-390 -120 -56 0
-390 120 56 0
-390 -121 0
-390 -122 0
-390 -123 -59 0
-390 123 59 0
-390 -124 -60 0
-390 124 60 0
-390 -125 0
-390 -126 0
-390 -127 -63 0
-390 127 63 0
-390 -128 -64 0
-390 128 64 0
-391 -97 33 0
-391 97 -33 0
-391 -98 34 0
-391 98 -34 0
-391 -99 0
-391 -100 0
-391 -101 37 0
-391 101 -37 0
-391 -102 38 0
-391 102 -38 0
-391 -103 0
-391 -104 0
-391 -105 41 0
-391 105 -41 0
-391 -106 42 0
-391 106 -42 0
-391 -107 0
-391 -108 0
-391 -109 45 0
-391 109 -45 0
-391 -110 46 0
-391 110 -46 0
-391 -111 0
-391 -112 0
-391 -113 49 0
-391 113 -49 0
-391 -114 50 0
-391 114 -50 0
-391 -115 0
-391 -116 0
-391 -117 53 0
-391 117 -53 0
-391 -118 54 0
-391 118 -54 0
-391 -119 0
-391 -120 0
-391 -121 57 0
-391 121 -57 0
-391 -122 58 0
-391 122 -58 0
-391 -123 0
-391 -124 0
-391 -125 61 0
-391 125 -61 0
-391 -126 62 0
-391 126 -62 0
-391 -127 0
-391 -128 0
-392 -97 -33 0
-392 97 33 0
-392 -98 -34 0
-392 98 34 0
-392 -99 0
-392 -100 0
-392 -101 -37 0
-392 101 37 0
-392 -102 -38 0
-392 102 38 0
-392 -103 0
-392 -104 0
-392 -105 -41 0
-392 105 41 0
-392 -106 -42 0
-392 106 42 0
-392 -107 0
-392 -108 0
-392 -109 -45 0
-392 109 45 0
-392 -110 -46 0
-392 110 46 0
-392 -111 0
-392 -112 0
-392 -113 -49 0
-392 113 49 0
-392 -114 -50 0
-392 114 50 0
-392 -115 0
-392 -116 0
-392 -117 -53 0
-392 117 53 0
-392 -118 -54 0
-392 118 54 0
-392 -119 0
-392 -120 0
-392 -121 -57 0
-392 121 57 0
-392 -122 -58 0
-392 122 58 0
-392 -123 0
-392 -124 0
-392 -125 -61 0
-392 125 61 0
-392 -126 -62 0
-392 126 62 0
-392 -127 0
-392 -128 0
-393 -97 0
-393 -98 0
-393 -99 67 0
-393 99 -67 0
-393 -100 68 0
-393 100 -68 0
-393 -101 0
-393 -102 0
-393 -103 71 0
-393 103 -71 0
-393 -104 72 0
-393 104 -72 0
-393 -105 0
-393 -106 0
-393 -107 75 0
-393 107 -75 0
-393 -108 76 0
-393 108 -76 0
-393 -109 0
-393 -110 0
-393 -111 79 0
-393 111 -79 0
-393 -112 80 0
-393 112 -80 0
-393 -113 0
-393 -114 0
-393 -115 83 0
-393 115 -83 0
-393 -116 84 0
-393 116 -84 0
-393 -117 0
-393 -118 0
-393 -119 87 0
-393 119 -87 0
-393 -120 88 0
-393 120 -88 0
-393 -121 0
-393 -122 0
-393 -123 91 0
-393 123 -91 0
-393 -124 92 0
-393 124 -92 0
-393 -125 0
-393 -126 0
-393 -127 95 0
-393 127 -95 0
-393 -128 96 0
-393 128 -96 0
-394 -97 0
-394 -98 0
-394 -99 -67 0
-394 99 67 0
-394 -100 -68 0
-394 100 68 0
-394 -101 0
-394 -102 0
-394 -103 -71 0
-394 103 71 0
-394 -104 -72 0
-394 104 72 0
-394 -105 0
-394 -106 0
-394 -107 -75 0
-394 107 75 0
-394 -108 -76 0
-394 108 76 0
-394 -109 0
-394 -110 0
-394 -111 -79 0
-394 111 79 0
-394 -112 -80 0
-394 112 80 0
-394 -113 0
-394 -114 0
-394 -115 -83 0
-394 115 83 0
-394 -116 -84 0
-394 116 84 0
-394 -117 0
-394 -118 0
-394 -119 -87 0
-394 119 87 0
-394 -120 -88 0
-394 120 88 0
-394 -121 0
-394 -122 0
-394 -123 -91 0
-394 123 91 0
-394 -124 -92 0
-394 124 92 0
-394 -125 0
-394 -126 0
-394 -127 -95 0
-394 127 95 0
-394 -128 -96 0
-394 128 96 0
-395 -97 65 0
-395 97 -65 0
-395 -98 66 0
-395 98 -66 0
-395 -99 0
-395 -100 0
-395 -101 69 0
-395 101 -69 0
-395 -102 70 0
-395 102 -70 0
-395 -103 0
-395 -104 0
-395 -105 73 0
-395 105 -73 0
-395 -106 74 0
-395 106 -74 0
-395 -107 0
-395 -108 0
-395 -109 77 0
-395 109 -77 0
-395 -110 78 0
-395 110 -78 0
-395 -111 0
-395 -112 0
-395 -113 81 0
-395 113 -81 0
-395 -114 82 0
-395 114 -82 0
-395 -115 0
-395 -116 0
-395 -117 85 0
-395 117 -85 0
-395 -118 86 0
-395 118 -86 0
-395 -119 0
-395 -120 0
-395 -121 89 0
-395 121 -89 0
-395 -122 90 0
-395 122 -90 0
-395 -123 0
-395 -124 0
-395 -125 93 0
-395 125 -93 0
-395 -126 94 0
-395 126 -94 0
-395 -127 0
-395 -128 0
-396 -97 -65 0
-396 97 65 0
-396 -98 -66 0
-396 98 66 0
-396 -99 0
-396 -100 0
-396 -101 -69 0
-396 101 69 0
-396 -102 -70 0
-396 102 70 0
-396 -103 0
-396 -104 0
-396 -105 -73 0
-396 105 73 0
-396 -106 -74 0
-396 106 74 0
-396 -107 0
-396 -108 0
-396 -109 -77 0
-396 109 77 0
-396 -110 -78 0
-396 110 78 0
-396 -111 0
-396 -112 0
-396 -113 -81 0
-396 113 81 0
-396 -114 -82 0
-396 114 82 0
-396 -115 0
-396 -116 0
-396 -117 -85 0
-396 117 85 0
-396 -118 -86 0
-396 118 86 0
-396 -119 0
-396 -120 0
-396 -121 -89 0
-396 121 89 0
-396 -122 -90 0
-396 122 90 0
-396 -123 0
-396 -124 0
-396 -125 -93 0
-396 125 93 0
-396 -126 -94 0
-396 126 94 0
-396 -127 0
-396 -128 0
-397 -97 0
-397 -98 0
-397 -99 0
-397 -100 0
-397 -101 0
-397 -102 0
-397 -103 0
-397 -104 0
-397 -105 0
-397 -106 0
-397 -107 0
-397 -108 0
-397 109 0
-397 110 0
-397 111 0
-397 112 0
-397 -113 0
-397 -114 0
-397 -115 0
-397 -116 0
-397 -117 0
-397 -118 0
-397 -119 0
-397 -120 0
-397 -121 0
-397 -122 0
-397 -123 0
-397 -124 0
-397 125 0
-397 126 0
-397 127 0
-397 128 0
-398 -97 0
-398 -98 0
-398 -99 0
-398 -100 0
-398 101 0
-398 102 0
-398 103 0
-398 104 0
-398 -105 0
-398 -106 0
-398 -107 0
-398 -108 0
-398 -109 0
-398 -110 0
-398 -111 0
-398 -112 0
-398 -113 0
-398 -114 0
-398 -115 0
-398 -116 0
-398 117 0
-398 118 0
-398 119 0
-398 120 0
-398 -121 0
-398 -122 0
-398 -123 0
-398 -124 0
-398 -125 0
-398 -126 0
-398 -127 0
-398 -128 0
-399 -97 0
-399 -98 0
-399 -99 0
-399 -100 0
-399 -101 0
-399 -102 0
-399 -103 0
-399 -104 0
-399 105 0
-399 106 0
-399 107 0
-399 108 0
-399 -109 0
-399 -110 0
-399 -111 0
-399 -112 0
-399 -113 0
-399 -114 0
-399 -115 0
-399 -116 0
-399 -117 0
-399 -118 0
-399 -119 0
-399 -120 0
-399 121 0
-399 122 0
-399 123 0
-399 124 0
-399 -125 0
-399 -126 0
-399 -127 0
-399 -128 0
-400 97 0
-400 98 0
-400 99 0
-400 100 0
-400 -101 0
-400 -102 0
-400 -103 0
-400 -104 0
-400 -105 0
-400 -106 0
-400 -107 0
-400 -108 0
-400 -109 0
-400 -110 0
-400 -111 0
-400 -112 0
-400 113 0
-400 114 0
-400 115 0
-400 116 0
-400 -117 0
-400 -118 0
-400 -119 0
-400 -120 0
-400 -121 0
-400 -122 0
-400 -123 0
-400 -124 0
-400 -125 0
-400 -126 0
-400 -127 0
-400 -128 0
-401 -97 0
-401 -98 0
-401 -99 0
-401 -100 0
-401 -101 0
-401 -102 0
-401 -103 0
-401 -104 0
-401 -105 0
-401 -106 0
-401 -107 0
-401 -108 0
-401 -109 0
-401 -110 0
-401 -111 0
-401 -112 0
-401 -113 0
-401 -114 0
-401 -115 0
-401 -116 0
-401 117 0
-401 118 0
-401 119 0
-401 120 0
-401 -121 0
-401 -122 0
-401 -123 0
-401 -124 0
-401 125 0
-401 126 0
-401 127 0
-401 128 0
-402 -97 0
-402 -98 0
-402 -99 0
-402 -100 0
-402 101 0
-402 102 0
-402 103 0
-402 104 0
-402 -105 0
-402 -106 0
-402 -107 0
-402 -108 0
-402 109 0
-402 110 0
-402 111 0
-402 112 0
-402 -113 0
-402 -114 0
-402 -115 0
-402 -116 0
-402 -117 0
-402 -118 0
-402 -119 0
-402 -120 0
-402 -121 0
-402 -122 0
-402 -123 0
-402 -124 0
-402 -125 0
-402 -126 0
-402 -127 0
-402 -128 0
-403 -97 0
-403 -98 0
-403 -99 0
-403 -100 0
-403 -101 0
-403 -102 0
-403 -103 0
-403 -104 0
-403 -105 0
-403 -106 0
-403 -107 0
-403 -108 0
-403 -109 0
-403 -110 0
-403 -111 0
-403 -112 0
-403 113 0
-403 114 0
-403 115 0
-403 116 0
-403 -117 0
-403 -118 0
-403 -119 0
-403 -120 0
-403 121 0
-403 122 0
-403 123 0
-403 124 0
-403 -125 0
-403 -126 0
-403 -127 0
-403 -128 0
-404 97 0
-404 98 0
-404 99 0
-404 100 0
-404 -101 0
-404 -102 0
-404 -103 0
-404 -104 0
-404 105 0
-404 106 0
-404 107 0
-404 108 0
-404 -109 0
-404 -110 0
-404 -111 0
-404 -112 0
-404 -113 0
-404 -114 0
-404 -115 0
-404 -116 0
-404 -117 0
-404 -118 0
-404 -119 0
-404 -120 0
-404 -121 0
-404 -122 0
-404 -123 0
-404 -124 0
-404 -125 0
-404 -126 0
-404 -127 0
-404 -128 0
-405 -97 0
-405 -98 0
-405 -99 0
-405 -100 0
-405 -101 5 0
-405 101 -5 0
-405 -102 6 0
-405 102 -6 0
-405 -103 7 0
-405 103 -7 0
-405 -104 8 0
-405 104 -8 0
-405 -105 0
-405 -106 0
-405 -107 0
-405 -108 0
-405 -109 13 0
-405 109 -13 0
-405 -110 14 0
-405 110 -14 0
-405 -111 15 0
-405 111 -15 0
-405 -112 16 0
-405 112 -16 0
-405 -113 0
-405 -114 0
-405 -115 0
-405 -116 0
-405 -117 21 0
-405 117 -21 0
-405 -118 22 0
-405 118 -22 0
-405 -119 23 0
-405 119 -23 0
-405 -120 24 0
-405 120 -24 0
-405 -121 0
-405 -122 0
-405 -123 0
-405 -124 0
-405 -125 29 0
-405 125 -29 0
-405 -126 30 0
-405 126 -30 0
-405 -127 31 0
-405 127 -31 0
-405 -128 32 0
-405 128 -32 0
-406 -97 0
-406 -98 0
-406 -99 0
-406 -100 0
-406 -101 -5 0
-406 101 5 0
-406 -102 -6 0
-406 102 6 0
-406 -103 -7 0
-406 103 7 0
-406 -104 -8 0
-406 104 8 0
-406 -105 0
-406 -106 0
-406 -107 0
-406 -108 0
-406 -109 -13 0
-406 109 13 0
-406 -110 -14 0
-406 110 14 0
-406 -111 -15 0
-406 111 15 0
-406 -112 -16 0
-406 112 16 0
-406 -113 0
-406 -114 0
-406 -115 0
-406 -116 0
-406 -117 -21 0
-406 117 21 0
-406 -118 -22 0
-406 118 22 0
-406 -119 -23 0
-406 119 23 0
-406 -120 -24 0
-406 120 24 0
-406 -121 0
-406 -122 0
-406 -123 0
-406 -124 0
-406 -125 -29 0
-406 125 29 0
-406 -126 -30 0
-406 126 30 0
-406 -127 -31 0
-406 127 31 0
-406 -128 -32 0
-406 128 32 0
-407 -97 1 0
-407 97 -1 0
-407 -98 2 0
-407 98 -2 0
-407 -99 3 0
-407 99 -3 0
-407 -100 4 0
-407 100 -4 0
-407 -101 0
-407 -102 0
-407 -103 0
-407 -104 0
-407 -105 9 0
-407 105 -9 0
-407 -106 10 0
-407 106 -10 0
-407 -107 11 0
-407 107 -11 0
-407 -108 12 0
-407 108 -12 0
-407 -109 0
-407 -110 0
-407 -111 0
-407 -112 0
-407 -113 17 0
-407 113 -17 0
-407 -114 18 0
-407 114 -18 0
-407 -115 19 0
-407 115 -19 0
-407 -116 20 0
-407 116 -20 0
-407 -117 0
-407 -118 0
-407 -119 0
-407 -120 0
-407 -121 25 0
-407 121 -25 0
-407 -122 26 0
-407 122 -26 0
-407 -123 27 0
-407 123 -27 0
-407 -124 28 0
-407 124 -28 0
-407 -125 0
-407 -126 0
-407 -127 0
-407 -128 0
-408 -97 -1 0
-408 97 1 0
-408 -98 -2 0
-408 98 2 0
-408 -99 -3 0
-408 99 3 0
-408 -100 -4 0
-408 100 4 0
-408 -101 0
-408 -102 0
-408 -103 0
-408 -104 0
-408 -105 -9 0
-408 105 9 0
-408 -106 -10 0
-408 106 10 0
-408 -107 -11 0
-408 107 11 0
-408 -108 -12 0
-408 108 12 0
-408 -109 0
-408 -110 0
-408 -111 0
-408 -112 0
-408 -113 -17 0
-408 113 17 0
-408 -114 -18 0
-408 114 18 0
-408 -115 -19 0
-408 115 19 0
-408 -116 -20 0
-408 116 20 0
-408 -117 0
-408 -118 0
-408 -119 0
-408 -120 0
-408 -121 -25 0
-408 121 25 0
-408 -122 -26 0
-408 122 26 0
-408 -123 -27 0
-408 123 27 0
-408 -124 -28 0
-408 124 28 0
-408 -125 0
-408 -126 0
-408 -127 0
-408 -128 0
-409 -97 0
-409 -98 0
-409 -99 0
-409 -100 0
-409 -101 37 0
-409 101 -37 0
-409 -102 38 0
-409 102 -38 0
-409 -103 39 0
-409 103 -39 0
-409 -104 40 0
-409 104 -40 0
-409 -105 0
-409 -106 0
-409 -107 0
-409 -108 0
-409 -109 45 0
-409 109 -45 0
-409 -110 46 0
-409 110 -46 0
-409 -111 47 0
-409 111 -47 0
-409 -112 48 0
-409 112 -48 0
-409 -113 0
-409 -114 0
-409 -115 0
-409 -116 0
-409 -117 53 0
-409 117 -53 0
-409 -118 54 0
-409 118 -54 0
-409 -119 55 0
-409 119 -55 0
-409 -120 56 0
-409 120 -56 0
-409 -121 0
-409 -122 0
-409 -123 0
-409 -124 0
-409 -125 61 0
-409 125 -61 0
-409 -126 62 0
-409 126 -62 0
-409 -127 63 0
-409 127 -63 0
-409 -128 64 0
-409 128 -64 0
-410 -97 0
-410 -98 0
-410 -99 0
-410 -100 0
-410 -101 -37 0
-410 101 37 0
-410 -102 -38 0
-410 102 38 0
-410 -103 -39 0
-410 103 39 0
-410 -104 -40 0
-410 104 40 0
-410 -105 0
-410 -106 0
-410 -107 0
-410 -108 0
-410 -109 -45 0
-410 109 45 0
-410 -110 -46 0
-410 110 46 0
-410 -111 -47 0
-410 111 47 0
-410 -112 -48 0
-410 112 48 0
-410 -113 0
-410 -114 0
-410 -115 0
-410 -116 0
-410 -117 -53 0
-410 117 53 0
-410 -118 -54 0
-410 118 54 0
-410 -119 -55 0
-410 119 55 0
-410 -120 -56 0
-410 120 56 0
-410 -121 0
-410 -122 0
-410 -123 0
-410 -124 0
-410 -125 -61 0
-410 125 61 0
-410 -126 -62 0
-410 126 62 0
-410 -127 -63 0
-410 127 63 0
-410 -128 -64 0
-410 128 64 0
-411 -97 33 0
-411 97 -33 0
-411 -98 34 0
-411 98 -34 0
-411 -99 35 0
-411 99 -35 0
-411 -100 36 0
-411 100 -36 0
-411 -101 0
-411 -102 0
-411 -103 0
-411 -104 0
-411 -105 41 0
-411 105 -41 0
-411 -106 42 0
-411 106 -42 0
-411 -107 43 0
-411 107 -43 0
-411 -108 44 0
-411 108 -44 0
-411 -109 0
-411 -110 0
-411 -111 0
-411 -112 0
-411 -113 49 0
-411 113 -49 0
-411 -114 50 0
-411 114 -50 0
-411 -115 51 0
-411 115 -51 0
-411 -116 52 0
-411 116 -52 0
-411 -117 0
-411 -118 0
-411 -119 0
-411 -120 0
-411 -121 57 0
-411 121 -57 0
-411 -122 58 0
-411 122 -58 0
-411 -123 59 0
-411 123 -59 0
-411 -124 60 0
-411 124 -60 0
-411 -125 0
-411 -126 0
-411 -127 0
-411 -128 0
-412 -97 -33 0
-412 97 33 0
-412 -98 -34 0
-412 98 34 0
-412 -99 -35 0
-412 99 35 0
-412 -100 -36 0
-412 100 36 0
-412 -101 0
-412 -102 0
-412 -103 0
-412 -104 0
-412 -105 -41 0
-412 105 41 0
-412 -106 -42 0
-412 106 42 0
-412 -107 -43 0
-412 107 43 0
-412 -108 -44 0
-412 108 44 0
-412 -109 0
-412 -110 0
-412 -111 0
-412 -112 0
-412 -113 -49 0
-412 113 49 0
-412 -114 -50 0
-412 114 50 0
-412 -115 -51 0
-412 115 51 0
-412 -116 -52 0
-412 116 52 0
-412 -117 0
-412 -118 0
-412 -119 0
-412 -120 0
-412 -121 -57 0
-412 121 57 0
-412 -122 -58 0
-412 122 58 0
-412 -123 -59 0
-412 123 59 0
-412 -124 -60 0
-412 124 60 0
-412 -125 0
-412 -126 0
-412 -127 0
-412 -128 0
-413 -97 0
-413 -98 0
-413 -99 0
-413 -100 0
-413 -101 69 0
-413 101 -69 0
-413 -102 70 0
-413 102 -70 0
-413 -103 71 0
-413 103 -71 0
-413 -104 72 0
-413 104 -72 0
-413 -105 0
-413 -106 0
-413 -107 0
-413 -108 0
-413 -109 77 0
-413 109 -77 0
-413 -110 78 0
-413 110 -78 0
-413 -111 79 0
-413 111 -79 0
-413 -112 80 0
-413 112 -80 0
-413 -113 0
-413 -114 0
-413 -115 0
-413 -116 0
-413 -117 85 0
-413 117 -85 0
-413 -118 86 0
-413 118 -86 0
-413 -119 87 0
-413 119 -87 0
-413 -120 88 0
-413 120 -88 0
-413 -121 0
-413 -122 0
-413 -123 0
-413 -124 0
-413 -125 93 0
-413 125 -93 0
-413 -126 94 0
-413 126 -94 0
-413 -127 95 0
-413 127 -95 0
-413 -128 96 0
-413 128 -96 0
-414 -97 0
-414 -98 0
-414 -99 0
-414 -100 0
-414 -101 -69 0
-414 101 69 0
-414 -102 -70 0
-414 102 70 0
-414 -103 -71 0
-414 103 71 0
-414 -104 -72 0
-414 104 72 0
-414 -105 0
-414 -106 0
-414 -107 0
-414 -108 0
-414 -109 -77 0
-414 109 77 0
-414 -110 -78 0
-414 110 78 0
-414 -111 -79 0
-414 111 79 0
-414 -112 -80 0
-414 112 80 0
-414 -113 0
-414 -114 0
-414 -115 0
-414 -116 0
-414 -117 -85 0
-414 117 85 0
-414 -118 -86 0
-414 118 86 0
-414 -119 -87 0
-414 119 87 0
-414 -120 -88 0
-414 120 88 0
-414 -121 0
-414 -122 0
-414 -123 0
-414 -124 0
-414 -125 -93 0
-414 125 93 0
-414 -126 -94 0
-414 126 94 0
-414 -127 -95 0
-414 127 95 0
-414 -128 -96 0
-414 128 96 0
-415 -97 65 0
-415 97 -65 0
-415 -98 66 0
-415 98 -66 0
-415 -99 67 0
-415 99 -67 0
-415 -100 68 0
-415 100 -68 0
-415 -101 0
-415 -102 0
-415 -103 0
-415 -104 0
-415 -105 73 0
-415 105 -73 0
-415 -106 74 0
-415 106 -74 0
-415 -107 75 0
-415 107 -75 0
-415 -108 76 0
-415 108 -76 0
-415 -109 0
-415 -110 0
-415 -111 0
-415 -112 0
-415 -113 81 0
-415 113 -81 0
-415 -114 82 0
-415 114 -82 0
-415 -115 83 0
-415 115 -83 0
-415 -116 84 0
-415 116 -84 0
-415 -117 0
-415 -118 0
-415 -119 0
-415 -120 0
-415 -121 89 0
-415 121 -89 0
-415 -122 90 0
-415 122 -90 0
-415 -123 91 0
-415 123 -91 0
-415 -124 92 0
-415 124 -92 0
-415 -125 0
-415 -126 0
-415 -127 0
-415 -128 0
-416 -97 -65 0
-416 97 65 0
-416 -98 -66 0
-416 98 66 0
-416 -99 -67 0
-416 99 67 0
-416 -100 -68 0
-416 100 68 0
-416 -101 0
-416 -102 0
-416 -103 0
-416 -104 0
-416 -105 -73 0
-416 105 73 0
-416 -106 -74 0
-416 106 74 0
-416 -107 -75 0
-416 107 75 0
-416 -108 -76 0
-416 108 76 0
-416 -109 0
-416 -110 0
-416 -111 0
-416 -112 0
-416 -113 -81 0
-416 113 81 0
-416 -114 -82 0
-416 114 82 0
-416 -115 -83 0
-416 115 83 0
-416 -116 -84 0
-416 116 84 0
-416 -117 0
-416 -118 0
-416 -119 0
-416 -120 0
-416 -121 -89 0
-416 121 89 0
-416 -122 -90 0
-416 122 90 0
-416 -123 -91 0
-416 123 91 0
-416 -124 -92 0
-416 124 92 0
-416 -125 0
-416 -126 0
-416 -127 0
-416 -128 0
-417 -97 0
-417 -98 0
-417 -99 0
-417 -100 0
-417 -101 0
-417 -102 0
-417 -103 0
-417 -104 0
-417 -105 0
-417 -106 0
-417 -107 0
-417 -108 0
-417 -109 0
-417 -110 0
-417 -111 0
-417 -112 0
-417 -113 0
-417 -114 0
-417 -115 0
-417 -116 0
-417 -117 0
-417 -118 0
-417 -119 0
-417 -120 0
-417 121 0
-417 122 0
-417 123 0
-417 124 0
-417 125 0
-417 126 0
-417 127 0
-417 128 0
-418 -97 0
-418 -98 0
-418 -99 0
-418 -100 0
-418 -101 0
-418 -102 0
-418 -103 0
-418 -104 0
-418 105 0
-418 106 0
-418 107 0
-418 108 0
-418 109 0
-418 110 0
-418 111 0
-418 112 0
-418 -113 0
-418 -114 0
-418 -115 0
-418 -116 0
-418 -117 0
-418 -118 0
-418 -119 0
-418 -120 0
-418 -121 0
-418 -122 0
-418 -123 0
-418 -124 0
-418 -125 0
-418 -126 0
-418 -127 0
-418 -128 0
-419 -97 0
-419 -98 0
-419 -99 0
-419 -100 0
-419 -101 0
-419 -102 0
-419 -103 0
-419 -104 0
-419 -105 0
-419 -106 0
-419 -107 0
-419 -108 0
-419 -109 0
-419 -110 0
-419 -111 0
-419 -112 0
-419 113 0
-419 114 0
-419 115 0
-419 116 0
-419 117 0
-419 118 0
-419 119 0
-419 120 0
-419 -121 0
-419 -122 0
-419 -123 0
-419 -124 0
-419 -125 0
-419 -126 0
-419 -127 0
-419 -128 0
-420 97 0
-420 98 0
-420 99 0
-420 100 0
-420 101 0
-420 102 0
-420 103 0
-420 104 0
-420 -105 0
-420 -106 0
-420 -107 0
-420 -108 0
-420 -109 0
-420 -110 0
-420 -111 0
-420 -112 0
-420 -113 0
-420 -114 0
-420 -115 0
-420 -116 0
-420 -117 0
-420 -118 0
-420 -119 0
-420 -120 0
-420 -121 0
-420 -122 0
-420 -123 0
-420 -124 0
-420 -125 0
-420 -126 0
-420 -127 0
-420 -128 0
-421 -97 0
-421 -98 0
-421 -99 0
-421 -100 0
-421 -101 0
-421 -102 0
-421 -103 0
-421 -104 0
-421 -105 9 0
-421 105 -9 0
-421 -106 10 0
-421 106 -10 0
-421 -107 11 0
-421 107 -11 0
-421 -108 12 0
-421 108 -12 0
-421 -109 13 0
-421 109 -13 0
-421 -110 14 0
-421 110 -14 0
-421 -111 15 0
-421 111 -15 0
-421 -112 16 0
-421 112 -16 0
-421 -113 0
-421 -114 0
-421 -115 0
-421 -116 0
-421 -117 0
-421 -118 0
-421 -119 0
-421 -120 0
-421 -121 25 0
-421 121 -25 0
-421 -122 26 0
-421 122 -26 0
-421 -123 27 0
-421 123 -27 0
-421 -124 28 0
-421 124 -28 0
-421 -125 29 0
-421 125 -29 0
-421 -126 30 0
-421 126 -30 0
-421 -127 31 0
-421 127 -31 0
-421 -128 32 0
-421 128 -32 0
-422 -97 0
-422 -98 0
-422 -99 0
-422 -100 0
-422 -101 0
-422 -102 0
-422 -103 0
-422 -104 0
-422 -105 -9 0
-422 105 9 0
-422 -106 -10 0
-422 106 10 0
-422 -107 -11 0
-422 107 11 0
-422 -108 -12 0
-422 108 12 0
-422 -109 -13 0
-422 109 13 0
-422 -110 -14 0
-422 110 14 0
-422 -111 -15 0
-422 111 15 0
-422 -112 -16 0
-422 112 16 0
-422 -113 0
-422 -114 0
-422 -115 0
-422 -116 0
-422 -117 0
-422 -118 0
-422 -119 0
-422 -120 0
-422 -121 -25 0
-422 121 25 0
-422 -122 -26 0
-422 122 26 0
-422 -123 -27 0
-422 123 27 0
-422 -124 -28 0
-422 124 28 0
-422 -125 -29 0
-422 125 29 0
-422 -126 -30 0
-422 126 30 0
-422 -127 -31 0
-422 127 31 0
-422 -128 -32 0
-422 128 32 0
-423 -97 1 0
-423 97 -1 0
-423 -98 2 0
-423 98 -2 0
-423 -99 3 0
-423 99 -3 0
-423 -100 4 0
-423 100 -4 0
-423 -101 5 0
-423 101 -5 0
-423 -102 6 0
-423 102 -6 0
-423 -103 7 0
-423 103 -7 0
-423 -104 8 0
-423 104 -8 0
-423 -105 0
-423 -106 0
-423 -107 0
-423 -108 0
-423 -109 0
-423 -110 0
-423 -111 0
-423 -112 0
-423 -113 17 0
-423 113 -17 0
-423 -114 18 0
-423 114 -18 0
-423 -115 19 0
-423 115 -19 0
-423 -116 20 0
-423 116 -20 0
-423 -117 21 0
-423 117 -21 0
-423 -118 22 0
-423 118 -22 0
-423 -119 23 0
-423 119 -23 0
-423 -120 24 0
-423 120 -24 0
-423 -121 0
-423 -122 0
-423 -123 0
-423 -124 0
-423 -125 0
-423 -126 0
-423 -127 0
-423 -128 0
-424 -97 -1 0
-424 97 1 0
-424 -98 -2 0
-424 98 2 0
-424 -99 -3 0
-424 99 3 0
-424 -100 -4 0
-424 100 4 0
-424 -101 -5 0
-424 101 5 0
-424 -102 -6 0
-424 102 6 0
-424 -103 -7 0
-424 103 7 0
-424 -104 -8 0
-424 104 8 0
-424 -105 0
-424 -106 0
-424 -107 0
-424 -108 0
-424 -109 0
-424 -110 0
-424 -111 0
-424 -112 0
-424 -113 -17 0
-424 113 17 0
-424 -114 -18 0
-424 114 18 0
-424 -115 -19 0
-424 115 19 0
-424 -116 -20 0
-424 116 20 0
-424 -117 -21 0
-424 117 21 0
-424 -118 -22 0
-424 118 22 0
-424 -119 -23 0
-424 119 23 0
-424 -120 -24 0
-424 120 24 0
-424 -121 0
-424 -122 0
-424 -123 0
-424 -124 0
-424 -125 0
-424 -126 0
-424 -127 0
-424 -128 0
-425 -97 0
-425 -98 0
-425 -99 0
-425 -100 0
-425 -101 0
-425 -102 0
-425 -103 0
-425 -104 0
-425 -105 41 0
-425 105 -41 0
-425 -106 42 0
-425 106 -42 0
-425 -107 43 0
-425 107 -43 0
-425 -108 44 0
-425 108 -44 0
-425 -109 45 0
-425 109 -45 0
-425 -110 46 0
-425 110 -46 0
-425 -111 47 0
-425 111 -47 0
-425 -112 48 0
-425 112 -48 0
-425 -113 0
-425 -114 0
-425 -115 0
-425 -116 0
-425 -117 0
-425 -118 0
-425 -119 0
-425 -120 0
-425 -121 57 0
-425 121 -57 0
-425 -122 58 0
-425 122 -58 0
-425 -123 59 0
-425 123 -59 0
-425 -124 60 0
-425 124 -60 0
-425 -125 61 0
-425 125 -61 0
-425 -126 62 0
-425 126 -62 0
-425 -127 63 0
-425 127 -63 0
-425 -128 64 0
-425 128 -64 0
-426 -97 0
-426 -98 0
-426 -99 0
-426 -100 0
-426 -101 0
-426 -102 0
-426 -103 0
-426 -104 0
-426 -105 -41 0
-426 105 41 0
-426 -106 -42 0
-426 106 42 0
-426 -107 -43 0
-426 107 43 0
-426 -108 -44 0
-426 108 44 0
-426 -109 -45 0
-426 109 45 0
-426 -110 -46 0
-426 110 46 0
-426 -111 -47 0
-426 111 47 0
-426 -112 -48 0
-426 112 48 0
-426 -113 0
-426 -114 0
-426 -115 0
-426 -116 0
-426 -117 0
-426 -118 0
-426 -119 0
-426 -120 0
-426 -121 -57 0
-426 121 57 0
-426 -122 -58 0
-426 122 58 0
-426 -123 -59 0
-426 123 59 0
-426 -124 -60 0
-426 124 60 0
-426 -125 -61 0
-426 125 61 0
-426 -126 -62 0
-426 126 62 0
-426 -127 -63 0
-426 127 63 0
-426 -128 -64 0
-426 128 64 0
-427 -97 33 0
-427 97 -33 0
-427 -98 34 0
-427 98 -34 0
-427 -99 35 0
-427 99 -35 0
-427 -100 36 0
-427 100 -36 0
-427 -101 37 0
-427 101 -37 0
-427 -102 38 0
-427 102 -38 0
-427 -103 39 0
-427 103 -39 0
-427 -104 40 0
-427 104 -40 0
-427 -105 0
-427 -106 0
-427 -107 0
-427 -108 0
-427 -109 0
-427 -110 0
-427 -111 0
-427 -112 0
-427 -113 49 0
-427 113 -49 0
-427 -114 50 0
-427 114 -50 0
-427 -115 51 0
-427 115 -51 0
-427 -116 52 0
-427 116 -52 0
-427 -117 53 0
-427 117 -53 0
-427 -118 54 0
-427 118 -54 0
-427 -119 55 0
-427 119 -55 0
-427 -120 56 0
-427 120 -56 0
-427 -121 0
-427 -122 0
-427 -123 0
-427 -124 0
-427 -125 0
-427 -126 0
-427 -127 0
-427 -128 0
-428 -97 -33 0
-428 97 33 0
-428 -98 -34 0
-428 98 34 0
-428 -99 -35 0
-428 99 35 0
-428 -100 -36 0
-428 100 36 0
-428 -101 -37 0
-428 101 37 0
-428 -102 -38 0
-428 102 38 0
-428 -103 -39 0
-428 103 39 0
-428 -104 -40 0
-428 104 40 0
-428 -105 0
-428 -106 0
-428 -107 0
-428 -108 0
-428 -109 0
-428 -110 0
-428 -111 0
-428 -112 0
-428 -113 -49 0
-428 113 49 0
-428 -114 -50 0
-428 114 50 0
-428 -115 -51 0
-428 115 51 0
-428 -116 -52 0
-428 116 52 0
-428 -117 -53 0
-428 117 53 0
-428 -118 -54 0
-428 118 54 0
-428 -119 -55 0
-428 119 55 0
-428 -120 -56 0
-428 120 56 0
-428 -121 0
-428 -122 0
-428 -123 0
-428 -124 0
-428 -125 0
-428 -126 0
-428 -127 0
-428 -128 0
-429 -97 0
-429 -98 0
-429 -99 0
-429 -100 0
-429 -101 0
-429 -102 0
-429 -103 0
-429 -104 0
-429 -105 73 0
-429 105 -73 0
-429 -106 74 0
-429 106 -74 0
-429 -107 75 0
-429 107 -75 0
-429 -108 76 0
-429 108 -76 0
-429 -109 77 0
-429 109 -77 0
-429 -110 78 0
-429 110 -78 0
-429 -111 79 0
-429 111 -79 0
-429 -112 80 0
-429 112 -80 0
-429 -113 0
-429 -114 0
-429 -115 0
-429 -116 0
-429 -117 0
-429 -118 0
-429 -119 0
-429 -120 0
-429 -121 89 0
-429 121 -89 0
-429 -122 90 0
-429 122 -90 0
-429 -123 91 0
-429 123 -91 0
-429 -124 92 0
-429 124 -92 0
-429 -125 93 0
-429 125 -93 0
-429 -126 94 0
-429 126 -94 0
-429 -127 95 0
-429 127 -95 0
-429 -128 96 0
-429 128 -96 0
-430 -97 0
-430 -98 0
-430 -99 0
-430 -100 0
-430 -101 0
-430 -102 0
-430 -103 0
-430 -104 0
-430 -105 -73 0
-430 105 73 0
-430 -106 -74 0
-430 106 74 0
-430 -107 -75 0
-430 107 75 0
-430 -108 -76 0
-430 108 76 0
-430 -109 -77 0
-430 109 77 0
-430 -110 -78 0
-430 110 78 0
-430 -111 -79 0
-430 111 79 0
-430 -112 -80 0
-430 112 80 0
-430 -113 0
-430 -114 0
-430 -115 0
-430 -116 0
-430 -117 0
-430 -118 0
-430 -119 0
-430 -120 0
-430 -121 -89 0
-430 121 89 0
-430 -122 -90 0
-430 122 90 0
-430 -123 -91 0
-430 123 91 0
-430 -124 -92 0
-430 124 92 0
-430 -125 -93 0
-430 125 93 0
-430 -126 -94 0
-430 126 94 0
-430 -127 -95 0
-430 127 95 0
-430 -128 -96 0
-430 128 96 0
-431 -97 65 0
-431 97 -65 0
-431 -98 66 0
-431 98 -66 0
-431 -99 67 0
-431 99 -67 0
-431 -100 68 0
-431 100 -68 0
-431 -101 69 0
-431 101 -69 0
-431 -102 70 0
-431 102 -70 0
-431 -103 71 0
-431 103 -71 0
-431 -104 72 0
-431 104 -72 0
-431 -105 0
-431 -106 0
-431 -107 0
-431 -108 0
-431 -109 0
-431 -110 0
-431 -111 0
-431 -112 0
-431 -113 81 0
-431 113 -81 0
-431 -114 82 0
-431 114 -82 0
-431 -115 83 0
-431 115 -83 0
-431 -116 84 0
-431 116 -84 0
-431 -117 85 0
-431 117 -85 0
-431 -118 86 0
-431 118 -86 0
-431 -119 87 0
-431 119 -87 0
-431 -120 88 0
-431 120 -88 0
-431 -121 0
-431 -122 0
-431 -123 0
-431 -124 0
-431 -125 0
-431 -126 0
-431 -127 0
-431 -128 0
-432 -97 -65 0
-432 97 65 0
-432 -98 -66 0
-432 98 66 0
-432 -99 -67 0
-432 99 67 0
-432 -100 -68 0
-432 100 68 0
-432 -101 -69 0
-432 101 69 0
-432 -102 -70 0
-432 102 70 0
-432 -103 -71 0
-432 103 71 0
-432 -104 -72 0
-432 104 72 0
-432 -105 0
-432 -106 0
-432 -107 0
-432 -108 0
-432 -109 0
-432 -110 0
-432 -111 0
-432 -112 0
-432 -113 -81 0
-432 113 81 0
-432 -114 -82 0
-432 114 82 0
-432 -115 -83 0
-432 115 83 0
-432 -116 -84 0
-432 116 84 0
-432 -117 -85 0
-432 117 85 0
-432 -118 -86 0
-432 118 86 0
-432 -119 -87 0
-432 119 87 0
-432 -120 -88 0
-432 120 88 0
-432 -121 0
-432 -122 0
-432 -123 0
-432 -124 0
-432 -125 0
-432 -126 0
-432 -127 0
-432 -128 0
-433 -97 0
-433 -98 0
-433 -99 0
-433 -100 0
-433 -101 0
-433 -102 0
-433 -103 0
-433 -104 0
-433 -105 0
-433 -106 0
-433 -107 0
-433 -108 0
-433 -109 0
-433 -110 0
-433 -111 0
-433 -112 0
-433 -113 17 0
-433 113 -17 0
-433 -114 18 0
-433 114 -18 0
-433 -115 19 0
-433 115 -19 0
-433 -116 20 0
-433 116 -20 0
-433 -117 21 0
-433 117 -21 0
-433 -118 22 0
-433 118 -22 0
-433 -119 23 0
-433 119 -23 0
-433 -120 24 0
-433 120 -24 0
-433 -121 25 0
-433 121 -25 0
-433 -122 26 0
-433 122 -26 0
-433 -123 27 0
-433 123 -27 0
-433 -124 28 0
-433 124 -28 0
-433 -125 29 0
-433 125 -29 0
-433 -126 30 0
-433 126 -30 0
-433 -127 31 0
-433 127 -31 0
-433 -128 32 0
-433 128 -32 0
-434 -97 0
-434 -98 0
-434 -99 0
-434 -100 0
-434 -101 0
-434 -102 0
-434 -103 0
-434 -104 0
-434 -105 0
-434 -106 0
-434 -107 0
-434 -108 0
-434 -109 0
-434 -110 0
-434 -111 0
-434 -112 0
-434 -113 -17 0
-434 113 17 0
-434 -114 -18 0
-434 114 18 0
-434 -115 -19 0
-434 115 19 0
-434 -116 -20 0
-434 116 20 0
-434 -117 -21 0
-434 117 21 0
-434 -118 -22 0
-434 118 22 0
-434 -119 -23 0
-434 119 23 0
-434 -120 -24 0
-434 120 24 0
-434 -121 -25 0
-434 121 25 0
-434 -122 -26 0
-434 122 26 0
-434 -123 -27 0
-434 123 27 0
-434 -124 -28 0
-434 124 28 0
-434 -125 -29 0
-434 125 29 0
-434 -126 -30 0
-434 126 30 0
-434 -127 -31 0
-434 127 31 0
-434 -128 -32 0
-434 128 32 0
-435 -97 1 0
-435 97 -1 0
-435 -98 2 0
-435 98 -2 0
-435 -99 3 0
-435 99 -3 0
-435 -100 4 0
-435 100 -4 0
-435 -101 5 0
-435 101 -5 0
-435 -102 6 0
-435 102 -6 0
-435 -103 7 0
-435 103 -7 0
-435 -104 8 0
-435 104 -8 0
-435 -105 9 0
-435 105 -9 0
-435 -106 10 0
-435 106 -10 0
-435 -107 11 0
-435 107 -11 0
-435 -108 12 0
-435 108 -12 0
-435 -109 13 0
-435 109 -13 0
-435 -110 14 0
-435 110 -14 0
-435 -111 15 0
-435 111 -15 0
-435 -112 16 0
-435 112 -16 0
-435 -113 0
-435 -114 0
-435 -115 0
-435 -116 0
-435 -117 0
-435 -118 0
-435 -119 0
-435 -120 0
-435 -121 0
-435 -122 0
-435 -123 0
-435 -124 0
-435 -125 0
-435 -126 0
-435 -127 0
-435 -128 0
-436 -97 -1 0
-436 97 1 0
-436 -98 -2 0
-436 98 2 0
-436 -99 -3 0
-436 99 3 0
-436 -100 -4 0
-436 100 4 0
-436 -101 -5 0
-436 101 5 0
-436 -102 -6 0
-436 102 6 0
-436 -103 -7 0
-436 103 7 0
-436 -104 -8 0
-436 104 8 0
-436 -105 -9 0
-436 105 9 0
-436 -106 -10 0
-436 106 10 0
-436 -107 -11 0
-436 107 11 0
-436 -108 -12 0
-436 108 12 0
-436 -109 -13 0
-436 109 13 0
-436 -110 -14 0
-436 110 14 0
-436 -111 -15 0
-436 111 15 0
-436 -112 -16 0
-436 112 16 0
-436 -113 0
-436 -114 0
-436 -115 0
-436 -116 0
-436 -117 0
-436 -118 0
-436 -119 0
-436 -120 0
-436 -121 0
-436 -122 0
-436 -123 0
-436 -124 0
-436 -125 0
-436 -126 0
-436 -127 0
-436 -128 0
-437 -97 0
-437 -98 0
-437 -99 0
-437 -100 0
-437 -101 0
-437 -102 0
-437 -103 0
-437 -104 0
-437 -105 0
-437 -106 0
-437 -107 0
-437 -108 0
-437 -109 0
-437 -110 0
-437 -111 0
-437 -112 0
-437 -113 49 0
-437 113 -49 0
-437 -114 50 0
-437 114 -50 0
-437 -115 51 0
-437 115 -51 0
-437 -116 52 0
-437 116 -52 0
-437 -117 53 0
-437 117 -53 0
-437 -118 54 0
-437 118 -54 0
-437 -119 55 0
-437 119 -55 0
-437 -120 56 0
-437 120 -56 0
-437 -121 57 0
-437 121 -57 0
-437 -122 58 0
-437 122 -58 0
-437 -123 59 0
-437 123 -59 0
-437 -124 60 0
-437 124 -60 0
-437 -125 61 0
-437 125 -61 0
-437 -126 62 0
-437 126 -62 0
-437 -127 63 0
-437 127 -63 0
-437 -128 64 0
-437 128 -64 0
-438 -97 0
-438 -98 0
-438 -99 0
-438 -100 0
-438 -101 0
-438 -102 0
-438 -103 0
-438 -104 0
-438 -105 0
-438 -106 0
-438 -107 0
-438 -108 0
-438 -109 0
-438 -110 0
-438 -111 0
-438 -112 0
-438 -113 -49 0
-438 113 49 0
-438 -114 -50 0
-438 114 50 0
-438 -115 -51 0
-438 115 51 0
-438 -116 -52 0
-438 116 52 0
-438 -117 -53 0
-438 117 53 0
-438 -118 -54 0
-438 118 54 0
-438 -119 -55 0
-438 119 55 0
-438 -120 -56 0
-438 120 56 0
-438 -121 -57 0
-438 121 57 0
-438 -122 -58 0
-438 122 58 0
-438 -123 -59 0
-438 123 59 0
-438 -124 -60 0
-438 124 60 0
-438 -125 -61 0
-438 125 61 0
-438 -126 -62 0
-438 126 62 0
-438 -127 -63 0
-438 127 63 0
-438 -128 -64 0
-438 128 64 0
-439 -97 33 0
-439 97 -33 0
-439 -98 34 0
-439 98 -34 0
-439 -99 35 0
-439 99 -35 0
-439 -100 36 0
-439 100 -36 0
-439 -101 37 0
-439 101 -37 0
-439 -102 38 0
-439 102 -38 0
-439 -103 39 0
-439 103 -39 0
-439 -104 40 0
-439 104 -40 0
-439 -105 41 0
-439 105 -41 0
-439 -106 42 0
-439 106 -42 0
-439 -107 43 0
-439 107 -43 0
-439 -108 44 0
-439 108 -44 0
-439 -109 45 0
-439 109 -45 0
-439 -110 46 0
-439 110 -46 0
-439 -111 47 0
-439 111 -47 0
-439 -112 48 0
-439 112 -48 0
-439 -113 0
-439 -114 0
-439 -115 0
-439 -116 0
-439 -117 0
-439 -118 0
-439 -119 0
-439 -120 0
-439 -121 0
-439 -122 0
-439 -123 0
-439 -124 0
-439 -125 0
-439 -126 0
-439 -127 0
-439 -128 0
-440 -97 -33 0
-440 97 33 0
-440 -98 -34 0
-440 98 34 0
-440 -99 -35 0
-440 99 35 0
-440 -100 -36 0
-440 100 36 0
-440 -101 -37 0
-440 101 37 0
-440 -102 -38 0
-440 102 38 0
-440 -103 -39 0
-440 103 39 0
-440 -104 -40 0
-440 104 40 0
-440 -105 -41 0
-440 105 41 0
-440 -106 -42 0
-440 106 42 0
-440 -107 -43 0
-440 107 43 0
-440 -108 -44 0
-440 108 44 0
-440 -109 -45 0
-440 109 45 0
-440 -110 -46 0
-440 110 46 0
-440 -111 -47 0
-440 111 47 0
-440 -112 -48 0
-440 112 48 0
-440 -113 0
-440 -114 0
-440 -115 0
-440 -116 0
-440 -117 0
-440 -118 0
-440 -119 0
-440 -120 0
-440 -121 0
-440 -122 0
-440 -123 0
-440 -124 0
-440 -125 0
-440 -126 0
-440 -127 0
-440 -128 0
-441 -97 0
-441 -98 0
-441 -99 0
-441 -100 0
-441 -101 0
-441 -102 0
-441 -103 0
-441 -104 0
-441 -105 0
-441 -106 0
-441 -107 0
-441 -108 0
-441 -109 0
-441 -110 0
-441 -111 0
-441 -112 0
-441 -113 81 0
-441 113 -81 0
-441 -114 82 0
-441 114 -82 0
-441 -115 83 0
-441 115 -83 0
-441 -116 84 0
-441 116 -84 0
-441 -117 85 0
-441 117 -85 0
-441 -118 86 0
-441 118 -86 0
-441 -119 87 0
-441 119 -87 0
-441 -120 88 0
-441 120 -88 0
-441 -121 89 0
-441 121 -89 0
-441 -122 90 0
-441 122 -90 0
-441 -123 91 0
-441 123 -91 0
-441 -124 92 0
-441 124 -92 0
-441 -125 93 0
-441 125 -93 0
-441 -126 94 0
-441 126 -94 0
-441 -127 95 0
-441 127 -95 0
-441 -128 96 0
-441 128 -96 0
-442 -97 0
-442 -98 0
-442 -99 0
-442 -100 0
-442 -101 0
-442 -102 0
-442 -103 0
-442 -104 0
-442 -105 0
-442 -106 0
-442 -107 0
-442 -108 0
-442 -109 0
-442 -110 0
-442 -111 0
-442 -112 0
-442 -113 -81 0
-442 113 81 0
-442 -114 -82 0
-442 114 82 0
-442 -115 -83 0
-442 115 83 0
-442 -116 -84 0
-442 116 84 0
-442 -117 -85 0
-442 117 85 0
-442 -118 -86 0
-442 118 86 0
-442 -119 -87 0
-442 119 87 0
-442 -120 -88 0
-442 120 88 0
-442 -121 -89 0
-442 121 89 0
-442 -122 -90 0
-442 122 90 0
-442 -123 -91 0
-442 123 91 0
-442 -124 -92 0
-442 124 92 0
-442 -125 -93 0
-442 125 93 0
-442 -126 -94 0
-442 126 94 0
-442 -127 -95 0
-442 127 95 0
-442 -128 -96 0
-442 128 96 0
-443 -97 65 0
-443 97 -65 0
-443 -98 66 0
-443 98 -66 0
-443 -99 67 0
-443 99 -67 0
-443 -100 68 0
-443 100 -68 0
-443 -101 69 0
-443 101 -69 0
-443 -102 70 0
-443 102 -70 0
-443 -103 71 0
-443 103 -71 0
-443 -104 72 0
-443 104 -72 0
-443 -105 73 0
-443 105 -73 0
-443 -106 74 0
-443 106 -74 0
-443 -107 75 0
-443 107 -75 0
-443 -108 76 0
-443 108 -76 0
-443 -109 77 0
-443 109 -77 0
-443 -110 78 0
-443 110 -78 0
-443 -111 79 0
-443 111 -79 0
-443 -112 80 0
-443 112 -80 0
-443 -113 0
-443 -114 0
-443 -115 0
-443 -116 0
-443 -117 0
-443 -118 0
-443 -119 0
-443 -120 0
-443 -121 0
-443 -122 0
-443 -123 0
-443 -124 0
-443 -125 0
-443 -126 0
-443 -127 0
-443 -128 0
-444 -97 -65 0
-444 97 65 0
-444 -98 -66 0
-444 98 66 0
-444 -99 -67 0
-444 99 67 0
-444 -100 -68 0
-444 100 68 0
-444 -101 -69 0
-444 101 69 0
-444 -102 -70 0
-444 102 70 0
-444 -103 -71 0
-444 103 71 0
-444 -104 -72 0
-444 104 72 0
-444 -105 -73 0
-444 105 73 0
-444 -106 -74 0
-444 106 74 0
-444 -107 -75 0
-444 107 75 0
-444 -108 -76 0
-444 108 76 0
-444 -109 -77 0
-444 109 77 0
-444 -110 -78 0
-444 110 78 0
-444 -111 -79 0
-444 111 79 0
-444 -112 -80 0
-444 112 80 0
-444 -113 0
-444 -114 0
-444 -115 0
-444 -116 0
-444 -117 0
-444 -118 0
-444 -119 0
-444 -120 0
-444 -121 0
-444 -122 0
-444 -123 0
-444 -124 0
-444 -125 0
-444 -126 0
-444 -127 0
-444 -128 0
-445 -97 1 0
-445 -97 33 0
-445 97 -1 -33 0
-445 -98 2 0
-445 -98 34 0
-445 98 -2 -34 0
-445 -99 3 0
-445 -99 35 0
-445 99 -3 -35 0
-445 -100 4 0
-445 -100 36 0
-445 100 -4 -36 0
-445 -101 5 0
-445 -101 37 0
-445 101 -5 -37 0
-445 -102 6 0
-445 -102 38 0
-445 102 -6 -38 0
-445 -103 7 0
-445 -103 39 0
-445 103 -7 -39 0
-445 -104 8 0
-445 -104 40 0
-445 104 -8 -40 0
-445 -105 9 0
-445 -105 41 0
-445 105 -9 -41 0
-445 -106 10 0
-445 -106 42 0
-445 106 -10 -42 0
-445 -107 11 0
-445 -107 43 0
-445 107 -11 -43 0
-445 -108 12 0
-445 -108 44 0
-445 108 -12 -44 0
-445 -109 13 0
-445 -109 45 0
-445 109 -13 -45 0
-445 -110 14 0
-445 -110 46 0
-445 110 -14 -46 0
-445 -111 15 0
-445 -111 47 0
-445 111 -15 -47 0
-445 -112 16 0
-445 -112 48 0
-445 112 -16 -48 0
-445 -113 17 0
-445 -113 49 0
-445 113 -17 -49 0
-445 -114 18 0
-445 -114 50 0
-445 114 -18 -50 0
-445 -115 19 0
-445 -115 51 0
-445 115 -19 -51 0
-445 -116 20 0
-445 -116 52 0
-445 116 -20 -52 0
-445 -117 21 0
-445 -117 53 0
-445 117 -21 -53 0
-445 -118 22 0
-445 -118 54 0
-445 118 -22 -54 0
-445 -119 23 0
-445 -119 55 0
-445 119 -23 -55 0
-445 -120 24 0
-445 -120 56 0
-445 120 -24 -56 0
-445 -121 25 0
-445 -121 57 0
-445 121 -25 -57 0
-445 -122 26 0
-445 -122 58 0
-445 122 -26 -58 0
-445 -123 27 0
-445 -123 59 0
-445 123 -27 -59 0
-445 -124 28 0
-445 -124 60 0
-445 124 -28 -60 0
-445 -125 29 0
-445 -125 61 0
-445 125 -29 -61 0
-445 -126 30 0
-445 -126 62 0
-445 126 -30 -62 0
-445 -127 31 0
-445 -127 63 0
-445 127 -31 -63 0
-445 -128 32 0
-445 -128 64 0
-445 128 -32 -64 0
-446 -97 1 0
-446 -97 -33 0
-446 97 -1 33 0
-446 -98 2 0
-446 -98 -34 0
-446 98 -2 34 0
-446 -99 3 0
-446 -99 -35 0
-446 99 -3 35 0
-446 -100 4 0
-446 -100 -36 0
-446 100 -4 36 0
-446 -101 5 0
-446 -101 -37 0
-446 101 -5 37 0
-446 -102 6 0
-446 -102 -38 0
-446 102 -6 38 0
-446 -103 7 0
-446 -103 -39 0
-446 103 -7 39 0
-446 -104 8 0
-446 -104 -40 0
-446 104 -8 40 0
-446 -105 9 0
-446 -105 -41 0
-446 105 -9 41 0
-446 -106 10 0
-446 -106 -42 0
-446 106 -10 42 0
-446 -107 11 0
-446 -107 -43 0
-446 107 -11 43 0
-446 -108 12 0
-446 -108 -44 0
-446 108 -12 44 0
-446 -109 13 0
-446 -109 -45 0
-446 109 -13 45 0
-446 -110 14 0
-446 -110 -46 0
-446 110 -14 46 0
-446 -111 15 0
-446 -111 -47 0
-446 111 -15 47 0
-446 -112 16 0
-446 -112 -48 0
-446 112 -16 48 0
-446 -113 17 0
-446 -113 -49 0
-446 113 -17 49 0
-446 -114 18 0
-446 -114 -50 0
-446 114 -18 50 0
-446 -115 19 0
-446 -115 -51 0
-446 115 -19 51 0
-446 -116 20 0
-446 -116 -52 0
-446 116 -20 52 0
-446 -117 21 0
-446 -117 -53 0
-446 117 -21 53 0
-446 -118 22 0
-446 -118 -54 0
-446 118 -22 54 0
-446 -119 23 0
-446 -119 -55 0
-446 119 -23 55 0
-446 -120 24 0
-446 -120 -56 0
-446 120 -24 56 0
-446 -121 25 0
-446 -121 -57 0
-446 121 -25 57 0
-446 -122 26 0
-446 -122 -58 0
-446 122 -26 58 0
-446 -123 27 0
-446 -123 -59 0
-446 123 -27 59 0
-446 -124 28 0
-446 -124 -60 0
-446 124 -28 60 0
-446 -125 29 0
-446 -125 -61 0
-446 125 -29 61 0
-446 -126 30 0
-446 -126 -62 0
-446 126 -30 62 0
-446 -127 31 0
-446 -127 -63 0
-446 127 -31 63 0
-446 -128 32 0
-446 -128 -64 0
-446 128 -32 64 0
-447 -97 -1 0
-447 -97 33 0
-447 97 1 -33 0
-447 -98 -2 0
-447 -98 34 0
-447 98 2 -34 0
-447 -99 -3 0
-447 -99 35 0
-447 99 3 -35 0
-447 -100 -4 0
-447 -100 36 0
-447 100 4 -36 0
-447 -101 -5 0
-447 -101 37 0
-447 101 5 -37 0
-447 -102 -6 0
-447 -102 38 0
-447 102 6 -38 0
-447 -103 -7 0
-447 -103 39 0
-447 103 7 -39 0
-447 -104 -8 0
-447 -104 40 0
-447 104 8 -40 0
-447 -105 -9 0
-447 -105 41 0
-447 105 9 -41 0
-447 -106 -10 0
-447 -106 42 0
-447 106 10 -42 0
-447 -107 -11 0
-447 -107 43 0
-447 107 11 -43 0
-447 -108 -12 0
-447 -108 44 0
-447 108 12 -44 0
-447 -109 -13 0
-447 -109 45 0
-447 109 13 -45 0
-447 -110 -14 0
-447 -110 46 0
-447 110 14 -46 0
-447 -111 -15 0
-447 -111 47 0
-447 111 15 -47 0
-447 -112 -16 0
-447 -112 48 0
-447 112 16 -48 0
-447 -113 -17 0
-447 -113 49 0
-447 113 17 -49 0
-447 -114 -18 0
-447 -114 50 0
-447 114 18 -50 0
-447 -115 -19 0
-447 -115 51 0
-447 115 19 -51 0
-447 -116 -20 0
-447 -116 52 0
-447 116 20 -52 0
-447 -117 -21 0
-447 -117 53 0
-447 117 21 -53 0
-447 -118 -22 0
-447 -118 54 0
-447 118 22 -54 0
-447 -119 -23 0
-447 -119 55 0
-447 119 23 -55 0
-447 -120 -24 0
-447 -120 56 0
-447 120 24 -56 0
-447 -121 -25 0
-447 -121 57 0
-447 121 25 -57 0
-447 -122 -26 0
-447 -122 58 0
-447 122 26 -58 0
-447 -123 -27 0
-447 -123 59 0
-447 123 27 -59 0
-447 -124 -28 0
-447 -124 60 0
-447 124 28 -60 0
-447 -125 -29 0
-447 -125 61 0
-447 125 29 -61 0
-447 -126 -30 0
-447 -126 62 0
-447 126 30 -62 0
-447 -127 -31 0
-447 -127 63 0
-447 127 31 -63 0
-447 -128 -32 0
-447 -128 64 0
-447 128 32 -64 0
-448 -97 -1 0
-448 -97 -33 0
-448 97 1 33 0
-448 -98 -2 0
-448 -98 -34 0
-448 98 2 34 0
-448 -99 -3 0
-448 -99 -35 0
-448 99 3 35 0
-448 -100 -4 0
-448 -100 -36 0
-448 100 4 36 0
-448 -101 -5 0
-448 -101 -37 0
-448 101 5 37 0
-448 -102 -6 0
-448 -102 -38 0
-448 102 6 38 0
-448 -103 -7 0
-448 -103 -39 0
-448 103 7 39 0
-448 -104 -8 0
-448 -104 -40 0
-448 104 8 40 0
-448 -105 -9 0
-448 -105 -41 0
-448 105 9 41 0
-448 -106 -10 0
-448 -106 -42 0
-448 106 10 42 0
-448 -107 -11 0
-448 -107 -43 0
-448 107 11 43 0
-448 -108 -12 0
-448 -108 -44 0
-448 108 12 44 0
-448 -109 -13 0
-448 -109 -45 0
-448 109 13 45 0
-448 -110 -14 0
-448 -110 -46 0
-448 110 14 46 0
-448 -111 -15 0
-448 -111 -47 0
-448 111 15 47 0
-448 -112 -16 0
-448 -112 -48 0
-448 112 16 48 0
-448 -113 -17 0
-448 -113 -49 0
-448 113 17 49 0
-448 -114 -18 0
-448 -114 -50 0
-448 114 18 50 0
-448 -115 -19 0
-448 -115 -51 0
-448 115 19 51 0
-448 -116 -20 0
-448 -116 -52 0
-448 116 20 52 0
-448 -117 -21 0
-448 -117 -53 0
-448 117 21 53 0
-448 -118 -22 0
-448 -118 -54 0
-448 118 22 54 0
-448 -119 -23 0
-448 -119 -55 0
-448 119 23 55 0
-448 -120 -24 0
-448 -120 -56 0
-448 120 24 56 0
-448 -121 -25 0
-448 -121 -57 0
-448 121 25 57 0
-448 -122 -26 0
-448 -122 -58 0
-448 122 26 58 0
-448 -123 -27 0
-448 -123 -59 0
-448 123 27 59 0
-448 -124 -28 0
-448 -124 -60 0
-448 124 28 60 0
-448 -125 -29 0
-448 -125 -61 0
-448 125 29 61 0
-448 -126 -30 0
-448 -126 -62 0
-448 126 30 62 0
-448 -127 -31 0
-448 -127 -63 0
-448 127 31 63 0
-448 -128 -32 0
-448 -128 -64 0
-448 128 32 64 0
-449 -97 1 0
-449 -97 65 0
-449 97 -1 -65 0
-449 -98 2 0
-449 -98 66 0
-449 98 -2 -66 0
-449 -99 3 0
-449 -99 67 0
-449 99 -3 -67 0
-449 -100 4 0
-449 -100 68 0
-449 100 -4 -68 0
-449 -101 5 0
-449 -101 69 0
-449 101 -5 -69 0
-449 -102 6 0
-449 -102 70 0
-449 102 -6 -70 0
-449 -103 7 0
-449 -103 71 0
-449 103 -7 -71 0
-449 -104 8 0
-449 -104 72 0
-449 104 -8 -72 0
-449 -105 9 0
-449 -105 73 0
-449 105 -9 -73 0
-449 -106 10 0
-449 -106 74 0
-449 106 -10 -74 0
-449 -107 11 0
-449 -107 75 0
-449 107 -11 -75 0
-449 -108 12 0
-449 -108 76 0
-449 108 -12 -76 0
-449 -109 13 0
-449 -109 77 0
-449 109 -13 -77 0
-449 -110 14 0
-449 -110 78 0
-449 110 -14 -78 0
-449 -111 15 0
-449 -111 79 0
-449 111 -15 -79 0
-449 -112 16 0
-449 -112 80 0
-449 112 -16 -80 0
-449 -113 17 0
-449 -113 81 0
-449 113 -17 -81 0
-449 -114 18 0
-449 -114 82 0
-449 114 -18 -82 0
-449 -115 19 0
-449 -115 83 0
-449 115 -19 -83 0
-449 -116 20 0
-449 -116 84 0
-449 116 -20 -84 0
-449 -117 21 0
-449 -117 85 0
-449 117 -21 -85 0
-449 -118 22 0
-449 -118 86 0
-449 118 -22 -86 0
-449 -119 23 0
-449 -119 87 0
-449 119 -23 -87 0
-449 -120 24 0
-449 -120 88 0
-449 120 -24 -88 0
-449 -121 25 0
-449 -121 89 0
-449 121 -25 -89 0
-449 -122 26 0
-449 -122 90 0
-449 122 -26 -90 0
-449 -123 27 0
-449 -123 91 0
-449 123 -27 -91 0
-449 -124 28 0
-449 -124 92 0
-449 124 -28 -92 0
-449 -125 29 0
-449 -125 93 0
-449 125 -29 -93 0
-449 -126 30 0
-449 -126 94 0
-449 126 -30 -94 0
-449 -127 31 0
-449 -127 95 0
-449 127 -31 -95 0
-449 -128 32 0
-449 -128 96 0
-449 128 -32 -96 0
-450 -97 1 0
-450 -97 -65 0
-450 97 -1 65 0
-450 -98 2 0
-450 -98 -66 0
-450 98 -2 66 0
-450 -99 3 0
-450 -99 -67 0
-450 99 -3 67 0
-450 -100 4 0
-450 -100 -68 0
-450 100 -4 68 0
-450 -101 5 0
-450 -101 -69 0
-450 101 -5 69 0
-450 -102 6 0
-450 -102 -70 0
-450 102 -6 70 0
-450 -103 7 0
-450 -103 -71 0
-450 103 -7 71 0
-450 -104 8 0
-450 -104 -72 0
-450 104 -8 72 0
-450 -105 9 0
-450 -105 -73 0
-450 105 -9 73 0
-450 -106 10 0
-450 -106 -74 0
-450 106 -10 74 0
-450 -107 11 0
-450 -107 -75 0
-450 107 -11 75 0
-450 -108 12 0
-450 -108 -76 0
-450 108 -12 76 0
-450 -109 13 0
-450 -109 -77 0
-450 109 -13 77 0
-450 -110 14 0
-450 -110 -78 0
-450 110 -14 78 0
-450 -111 15 0
-450 -111 -79 0
-450 111 -15 79 0
-450 -112 16 0
-450 -112 -80 0
-450 112 -16 80 0
-450 -113 17 0
-450 -113 -81 0
-450 113 -17 81 0
-450 -114 18 0
-450 -114 -82 0
-450 114 -18 82 0
-450 -115 19 0
-450 -115 -83 0
-450 115 -19 83 0
-450 -116 20 0
-450 -116 -84 0
-450 116 -20 84 0
-450 -117 21 0
-450 -117 -85 0
-450 117 -21 85 0
-450 -118 22 0
-450 -118 -86 0
-450 118 -22 86 0
-450 -119 23 0
-450 -119 -87 0
-450 119 -23 87 0
-450 -120 24 0
-450 -120 -88 0
-450 120 -24 88 0
-450 -121 25 0
-450 -121 -89 0
-450 121 -25 89 0
-450 -122 26 0
-450 -122 -90 0
-450 122 -26 90 0
-450 -123 27 0
-450 -123 -91 0
-450 123 -27 91 0
-450 -124 28 0
-450 -124 -92 0
-450 124 -28 92 0
-450 -125 29 0
-450 -125 -93 0
-450 125 -29 93 0
-450 -126 30 0
-450 -126 -94 0
-450 126 -30 94 0
-450 -127 31 0
-450 -127 -95 0
-450 127 -31 95 0
-450 -128 32 0
-450 -128 -96 0
-450 128 -32 96 0
-451 -97 -1 0
-451 -97 65 0
-451 97 1 -65 0
-451 -98 -2 0
-451 -98 66 0
-451 98 2 -66 0
-451 -99 -3 0
-451 -99 67 0
-451 99 3 -67 0
-451 -100 -4 0
-451 -100 68 0
-451 100 4 -68 0
-451 -101 -5 0
-451 -101 69 0
-451 101 5 -69 0
-451 -102 -6 0
-451 -102 70 0
-451 102 6 -70 0
-451 -103 -7 0
-451 -103 71 0
-451 103 7 -71 0
-451 -104 -8 0
-451 -104 72 0
-451 104 8 -72 0
-451 -105 -9 0
-451 -105 73 0
-451 105 9 -73 0
-451 -106 -10 0
-451 -106 74 0
-451 106 10 -74 0
-451 -107 -11 0
-451 -107 75 0
-451 107 11 -75 0
-451 -108 -12 0
-451 -108 76 0
-451 108 12 -76 0
-451 -109 -13 0
-451 -109 77 0
-451 109 13 -77 0
-451 -110 -14 0
-451 -110 78 0
-451 110 14 -78 0
-451 -111 -15 0
-451 -111 79 0
-451 111 15 -79 0
-451 -112 -16 0
-451 -112 80 0
-451 112 16 -80 0
-451 -113 -17 0
-451 -113 81 0
-451 113 17 -81 0
-451 -114 -18 0
-451 -114 82 0
-451 114 18 -82 0
-451 -115 -19 0
-451 -115 83 0
-451 115 19 -83 0
-451 -116 -20 0
-451 -116 84 0
-451 116 20 -84 0
-451 -117 -21 0
-451 -117 85 0
-451 117 21 -85 0
-451 -118 -22 0
-451 -118 86 0
-451 118 22 -86 0
-451 -119 -23 0
-451 -119 87 0
-451 119 23 -87 0
-451 -120 -24 0
-451 -120 88 0
-451 120 24 -88 0
-451 -121 -25 0
-451 -121 89 0
-451 121 25 -89 0
-451 -122 -26 0
-451 -122 90 0
-451 122 26 -90 0
-451 -123 -27 0
-451 -123 91 0
-451 123 27 -91 0
-451 -124 -28 0
-451 -124 92 0
-451 124 28 -92 0
-451 -125 -29 0
-451 -125 93 0
-451 125 29 -93 0
-451 -126 -30 0
-451 -126 94 0
-451 126 30 -94 0
-451 -127 -31 0
-451 -127 95 0
-451 127 31 -95 0
-451 -128 -32 0
-451 -128 96 0
-451 128 32 -96 0
-452 -97 -1 0
-452 -97 -65 0
-452 97 1 65 0
-452 -98 -2 0
-452 -98 -66 0
-452 98 2 66 0
-452 -99 -3 0
-452 -99 -67 0
-452 99 3 67 0
-452 -100 -4 0
-452 -100 -68 0
-452 100 4 68 0
-452 -101 -5 0
-452 -101 -69 0
-452 101 5 69 0
-452 -102 -6 0
-452 -102 -70 0
-452 102 6 70 0
-452 -103 -7 0
-452 -103 -71 0
-452 103 7 71 0
-452 -104 -8 0
-452 -104 -72 0
-452 104 8 72 0
-452 -105 -9 0
-452 -105 -73 0
-452 105 9 73 0
-452 -106 -10 0
-452 -106 -74 0
-452 106 10 74 0
-452 -107 -11 0
-452 -107 -75 0
-452 107 11 75 0
-452 -108 -12 0
-452 -108 -76 0
-452 108 12 76 0
-452 -109 -13 0
-452 -109 -77 0
-452 109 13 77 0
-452 -110 -14 0
-452 -110 -78 0
-452 110 14 78 0
-452 -111 -15 0
-452 -111 -79 0
-452 111 15 79 0
-452 -112 -16 0
-452 -112 -80 0
-452 112 16 80 0
-452 -113 -17 0
-452 -113 -81 0
-452 113 17 81 0
-452 -114 -18 0
-452 -114 -82 0
-452 114 18 82 0
-452 -115 -19 0
-452 -115 -83 0
-452 115 19 83 0
-452 -116 -20 0
-452 -116 -84 0
-452 116 20 84 0
-452 -117 -21 0
-452 -117 -85 0
-452 117 21 85 0
-452 -118 -22 0
-452 -118 -86 0
-452 118 22 86 0
-452 -119 -23 0
-452 -119 -87 0
-452 119 23 87 0
-452 -120 -24 0
-452 -120 -88 0
-452 120 24 88 0
-452 -121 -25 0
-452 -121 -89 0
-452 121 25 89 0
-452 -122 -26 0
-452 -122 -90 0
-452 122 26 90 0
-452 -123 -27 0
-452 -123 -91 0
-452 123 27 91 0
-452 -124 -28 0
-452 -124 -92 0
-452 124 28 92 0
-452 -125 -29 0
-452 -125 -93 0
-452 125 29 93 0
-452 -126 -30 0
-452 -126 -94 0
-452 126 30 94 0
-452 -127 -31 0
-452 -127 -95 0
-452 127 31 95 0
-452 -128 -32 0
-452 -128 -96 0
-452 128 32 96 0
-453 -97 33 0
-453 -97 65 0
-453 97 -33 -65 0
-453 -98 34 0
-453 -98 66 0
-453 98 -34 -66 0
-453 -99 35 0
-453 -99 67 0
-453 99 -35 -67 0
-453 -100 36 0
-453 -100 68 0
-453 100 -36 -68 0
-453 -101 37 0
-453 -101 69 0
-453 101 -37 -69 0
-453 -102 38 0
-453 -102 70 0
-453 102 -38 -70 0
-453 -103 39 0
-453 -103 71 0
-453 103 -39 -71 0
-453 -104 40 0
-453 -104 72 0
-453 104 -40 -72 0
-453 -105 41 0
-453 -105 73 0
-453 105 -41 -73 0
-453 -106 42 0
-453 -106 74 0
-453 106 -42 -74 0
-453 -107 43 0
-453 -107 75 0
-453 107 -43 -75 0
-453 -108 44 0
-453 -108 76 0
-453 108 -44 -76 0
-453 -109 45 0
-453 -109 77 0
-453 109 -45 -77 0
-453 -110 46 0
-453 -110 78 0
-453 110 -46 -78 0
-453 -111 47 0
-453 -111 79 0
-453 111 -47 -79 0
-453 -112 48 0
-453 -112 80 0
-453 112 -48 -80 0
-453 -113 49 0
-453 -113 81 0
-453 113 -49 -81 0
-453 -114 50 0
-453 -114 82 0
-453 114 -50 -82 0
-453 -115 51 0
-453 -115 83 0
-453 115 -51 -83 0
-453 -116 52 0
-453 -116 84 0
-453 116 -52 -84 0
-453 -117 53 0
-453 -117 85 0
-453 117 -53 -85 0
-453 -118 54 0
-453 -118 86 0
-453 118 -54 -86 0
-453 -119 55 0
-453 -119 87 0
-453 119 -55 -87 0
-453 -120 56 0
-453 -120 88 0
-453 120 -56 -88 0
-453 -121 57 0
-453 -121 89 0
-453 121 -57 -89 0
-453 -122 58 0
-453 -122 90 0
-453 122 -58 -90 0
-453 -123 59 0
-453 -123 91 0
-453 123 -59 -91 0
-453 -124 60 0
-453 -124 92 0
-453 124 -60 -92 0
-453 -125 61 0
-453 -125 93 0
-453 125 -61 -93 0
-453 -126 62 0
-453 -126 94 0
-453 126 -62 -94 0
-453 -127 63 0
-453 -127 95 0
-453 127 -63 -95 0
-453 -128 64 0
-453 -128 96 0
-453 128 -64 -96 0
-454 -97 33 0
-454 -97 -65 0
-454 97 -33 65 0
-454 -98 34 0
-454 -98 -66 0
-454 98 -34 66 0
-454 -99 35 0
-454 -99 -67 0
-454 99 -35 67 0
-454 -100 36 0
-454 -100 -68 0
-454 100 -36 68 0
-454 -101 37 0
-454 -101 -69 0
-454 101 -37 69 0
-454 -102 38 0
-454 -102 -70 0
-454 102 -38 70 0
-454 -103 39 0
-454 -103 -71 0
-454 103 -39 71 0
-454 -104 40 0
-454 -104 -72 0
-454 104 -40 72 0
-454 -105 41 0
-454 -105 -73 0
-454 105 -41 73 0
-454 -106 42 0
-454 -106 -74 0
-454 106 -42 74 0
-454 -107 43 0
-454 -107 -75 0
-454 107 -43 75 0
-454 -108 44 0
-454 -108 -76 0
-454 108 -44 76 0
-454 -109 45 0
-454 -109 -77 0
-454 109 -45 77 0
-454 -110 46 0
-454 -110 -78 0
-454 110 -46 78 0
-454 -111 47 0
-454 -111 -79 0
-454 111 -47 79 0
-454 -112 48 0
-454 -112 -80 0
-454 112 -48 80 0
-454 -113 49 0
-454 -113 -81 0
-454 113 -49 81 0
-454 -114 50 0
-454 -114 -82 0
-454 114 -50 82 0
-454 -115 51 0
-454 -115 -83 0
-454 115 -51 83 0
-454 -116 52 0
-454 -116 -84 0
-454 116 -52 84 0
-454 -117 53 0
-454 -117 -85 0
-454 117 -53 85 0
-454 -118 54 0
-454 -118 -86 0
-454 118 -54 86 0
-454 -119 55 0
-454 -119 -87 0
-454 119 -55 87 0
-454 -120 56 0
-454 -120 -88 0
-454 120 -56 88 0
-454 -121 57 0
-454 -121 -89 0
-454 121 -57 89 0
-454 -122 58 0
-454 -122 -90 0
-454 122 -58 90 0
-454 -123 59 0
-454 -123 -91 0
-454 123 -59 91 0
-454 -124 60 0
-454 -124 -92 0
-454 124 -60 92 0
-454 -125 61 0
-454 -125 -93 0
-454 125 -61 93 0
-454 -126 62 0
-454 -126 -94 0
-454 126 -62 94 0
-454 -127 63 0
-454 -127 -95 0
-454 127 -63 95 0
-454 -128 64 0
-454 -128 -96 0
-454 128 -64 96 0
-455 -97 -33 0
-455 -97 65 0
-455 97 33 -65 0
-455 -98 -34 0
-455 -98 66 0
-455 98 34 -66 0
-455 -99 -35 0
-455 -99 67 0
-455 99 35 -67 0
-455 -100 -36 0
-455 -100 68 0
-455 100 36 -68 0
-455 -101 -37 0
-455 -101 69 0
-455 101 37 -69 0
-455 -102 -38 0
-455 -102 70 0
-455 102 38 -70 0
-455 -103 -39 0
-455 -103 71 0
-455 103 39 -71 0
-455 -104 -40 0
-455 -104 72 0
-455 104 40 -72 0
-455 -105 -41 0
-455 -105 73 0
-455 105 41 -73 0
-455 -106 -42 0
-455 -106 74 0
-455 106 42 -74 0
-455 -107 -43 0
-455 -107 75 0
-455 107 43 -75 0
-455 -108 -44 0
-455 -108 76 0
-455 108 44 -76 0
-455 -109 -45 0
-455 -109 77 0
-455 109 45 -77 0
-455 -110 -46 0
-455 -110 78 0
-455 110 46 -78 0
-455 -111 -47 0
-455 -111 79 0
-455 111 47 -79 0
-455 -112 -48 0
-455 -112 80 0
-455 112 48 -80 0
-455 -113 -49 0
-455 -113 81 0
-455 113 49 -81 0
-455 -114 -50 0
-455 -114 82 0
-455 114 50 -82 0
-455 -115 -51 0
-455 -115 83 0
-455 115 51 -83 0
-455 -116 -52 0
-455 -116 84 0
-455 116 52 -84 0
-455 -117 -53 0
-455 -117 85 0
-455 117 53 -85 0
-455 -118 -54 0
-455 -118 86 0
-455 118 54 -86 0
-455 -119 -55 0
-455 -119 87 0
-455 119 55 -87 0
-455 -120 -56 0
-455 -120 88 0
-455 120 56 -88 0
-455 -121 -57 0
-455 -121 89 0
-455 121 57 -89 0
-455 -122 -58 0
-455 -122 90 0
-455 122 58 -90 0
-455 -123 -59 0
-455 -123 91 0
-455 123 59 -91 0
-455 -124 -60 0
-455 -124 92 0
-455 124 60 -92 0
-455 -125 -61 0
-455 -125 93 0
-455 125 61 -93 0
-455 -126 -62 0
-455 -126 94 0
-455 126 62 -94 0
-455 -127 -63 0
-455 -127 95 0
-455 127 63 -95 0
-455 -128 -64 0
-455 -128 96 0
-455 128 64 -96 0
-456 -97 -33 0
-456 -97 -65 0
-456 97 33 65 0
-456 -98 -34 0
-456 -98 -66 0
-456 98 34 66 0
-456 -99 -35 0
-456 -99 -67 0
-456 99 35 67 0
-456 -100 -36 0
-456 -100 -68 0
-456 100 36 68 0
-456 -101 -37 0
-456 -101 -69 0
-456 101 37 69 0
-456 -102 -38 0
-456 -102 -70 0
-456 102 38 70 0
-456 -103 -39 0
-456 -103 -71 0
-456 103 39 71 0
-456 -104 -40 0
-456 -104 -72 0
-456 104 40 72 0
-456 -105 -41 0
-456 -105 -73 0
-456 105 41 73 0
-456 -106 -42 0
-456 -106 -74 0
-456 106 42 74 0
-456 -107 -43 0
-456 -107 -75 0
-456 107 43 75 0
-456 -108 -44 0
-456 -108 -76 0
-456 108 44 76 0
-456 -109 -45 0
-456 -109 -77 0
-456 109 45 77 0
-456 -110 -46 0
-456 -110 -78 0
-456 110 46 78 0
-456 -111 -47 0
-456 -111 -79 0
-456 111 47 79 0
-456 -112 -48 0
-456 -112 -80 0
-456 112 48 80 0
-456 -113 -49 0
-456 -113 -81 0
-456 113 49 81 0
-456 -114 -50 0
-456 -114 -82 0
-456 114 50 82 0
-456 -115 -51 0
-456 -115 -83 0
-456 115 51 83 0
-456 -116 -52 0
-456 -116 -84 0
-456 116 52 84 0
-456 -117 -53 0
-456 -117 -85 0
-456 117 53 85 0
-456 -118 -54 0
-456 -118 -86 0
-456 118 54 86 0
-456 -119 -55 0
-456 -119 -87 0
-456 119 55 87 0
-456 -120 -56 0
-456 -120 -88 0
-456 120 56 88 0
-456 -121 -57 0
-456 -121 -89 0
-456 121 57 89 0
-456 -122 -58 0
-456 -122 -90 0
-456 122 58 90 0
-456 -123 -59 0
-456 -123 -91 0
-456 123 59 91 0
-456 -124 -60 0
-456 -124 -92 0
-456 124 60 92 0
-456 -125 -61 0
-456 -125 -93 0
-456 125 61 93 0
-456 -126 -62 0
-456 -126 -94 0
-456 126 62 94 0
-456 -127 -63 0
-456 -127 -95 0
-456 127 63 95 0
-456 -128 -64 0
-456 -128 -96 0
-456 128 64 96 0
457 458 459 460 461 462 463 464 465 466 467 468 469 470 471 472 473 474 475 476 477 478 479 480 481 482 483 484 485 486 487 488 489 490 491 492 493 494 495 496 497 498 499 500 501 502 503 504 505 506 507 508 509 510 511 512 513 514 515 516 517 518 519 520 521 522 523 524 525 526 527 528 529 530 531 532 533 534 535 536 537 538 539 540 541 542 543 544 545 546 547 548 549 550 551 552 553 554 555 556 557 558 559 560 561 562 563 564 565 566 567 568 569 570 571 572 573 574 575 576 577 578 579 580 581 582 583 584 585 586 587 588 589 590 591 592 593 594 595 596 597 598 599 600 0
-457 -458 0
-457 -459 0
-457 -460 0
-457 -461 0
-457 -462 0
-457 -463 0
-457 -464 0
-457 -465 0
-457 -466 0
-457 -467 0
-457 -468 0
-457 -469 0
-457 -470 0
-457 -471 0
-457 -472 0
-457 -473 0
-457 -474 0
-457 -475 0
-457 -476 0
-457 -477 0
-457 -478 0
-457 -479 0
-457 -480 0
-457 -481 0
-457 -482 0
-457 -483 0
-457 -484 0
-457 -485 0
-457 -486 0
-457 -487 0
-457 -488 0
-457 -489 0
-457 -490 0
-457 -491 0
-457 -492 0
-457 -493 0
-457 -494 0
-457 -495 0
-457 -496 0
-457 -497 0
-457 -498 0
-457 -499 0
-457 -500 0
-457 -501 0
-457 -502 0
-457 -503 0
-457 -504 0
-457 -505 0
-457 -506 0
-457 -507 0
-457 -508 0
-457 -509 0
-457 -510 0
-457 -511 0
-457 -512 0
-457 -513 0
-457 -514 0
-457 -515 0
-457 -516 0
-457 -517 0
-457 -518 0
-457 -519 0
-457 -520 0
-457 -521 0
-457 -522 0
-457 -523 0
-457 -524 0
-457 -525 0
-457 -526 0
-457 -527 0
-457 -528 0
-457 -529 0
-457 -530 0
-457 -531 0
-457 -532 0
-457 -533 0
-457 -534 0
-457 -535 0
-457 -536 0
-457 -537 0
-457 -538 0
-457 -539 0
-457 -540 0
-457 -541 0
-457 -542 0
-457 -543 0
-457 -544 0
-457 -545 0
-457 -546 0
-457 -547 0
-457 -548 0
-457 -549 0
-457 -550 0
-457 -551 0
-457 -552 0
-457 -553 0
-457 -554 0
-457 -555 0
-457 -556 0
-457 -557 0
-457 -558 0
-457 -559 0
-457 -560 0
-457 -561 0
-457 -562 0
-457 -563 0
-457 -564 0
-457 -565 0
-457 -566 0
-457 -567 0
-457 -568 0
-457 -569 0
-457 -570 0
-457 -571 0
-457 -572 0
-457 -573 0
-457 -574 0
-457 -575 0
-457 -576 0
-457 -577 0
-457 -578 0
-457 -579 0
-457 -580 0
-457 -581 0
-457 -582 0
-457 -583 0
-457 -584 0
-457 -585 0
-457 -586 0
-457 -587 0
-457 -588 0
-457 -589 0
-457 -590 0
-457 -591 0
-457 -592 0
-457 -593 0
-457 -594 0
-457 -595 0
-457 -596 0
-457 -597 0
-457 -598 0
-457 -599 0
-457 -600 0
-458 -459 0
-458 -460 0
-458 -461 0
-458 -462 0
-458 -463 0
-458 -464 0
-458 -465 0
-458 -466 0
-458 -467 0
-458 -468 0
-458 -469 0
-458 -470 0
-458 -471 0
-458 -472 0
-458 -473 0
-458 -474 0
-458 -475 0
-458 -476 0
-458 -477 0
-458 -478 0
-458 -479 0
-458 -480 0
-458 -481 0
-458 -482 0
-458 -483 0
-458 -484 0
-458 -485 0
-458 -486 0
-458 -487 0
-458 -488 0
-458 -489 0
-458 -490 0
-458 -491 0
-458 -492 0
-458 -493 0
-458 -494 0
-458 -495 0
-458 -496 0
-458 -497 0
-458 -498 0
-458 -499 0
-458 -500 0
-458 -501 0
-458 -502 0
-458 -503 0
-458 -504 0
-458 -505 0
-458 -506 0
-458 -507 0
-458 -508 0
-458 -509 0
-458 -510 0
-458 -511 0
-458 -512 0
-458 -513 0
-458 -514 0
-458 -515 0
-458 -516 0
-458 -517 0
-458 -518 0
-458 -519 0
-458 -520 0
-458 -521 0
-458 -522 0
-458 -523 0
-458 -524 0
-458 -525 0
-458 -526 0
-458 -527 0
-458 -528 0
-458 -529 0
-458 -530 0
-458 -531 0
-458 -532 0
-458 -533 0
-458 -534 0
-458 -535 0
-458 -536 0
-458 -537 0
-458 -538 0
-458 -539 0
-458 -540 0
-458 -541 0
-458 -542 0
-458 -543 0
-458 -544 0
-458 -545 0
-458 -546 0
-458 -547 0
-458 -548 0
-458 -549 0
-458 -550 0
-458 -551 0
-458 -552 0
-458 -553 0
-458 -554 0
-458 -555 0
-458 -556 0
-458 -557 0
-458 -558 0
-458 -559 0
-458 -560 0
-458 -561 0
-458 -562 0
-458 -563 0
-458 -564 0
-458 -565 0
-458 -566 0
-458 -567 0
-458 -568 0
-458 -569 0
-458 -570 0
-458 -571 0
-458 -572 0
-458 -573 0
-458 -574 0
-458 -575 0
-458 -576 0
-458 -577 0
-458 -578 0
-458 -579 0
-458 -580 0
-458 -581 0
-458 -582 0
-458 -583 0
-458 -584 0
-458 -585 0
-458 -586 0
-458 -587 0
-458 -588 0
-458 -589 0
-458 -590 0
-458 -591 0
-458 -592 0
-458 -593 0
-458 -594 0
-458 -595 0
-458 -596 0
-458 -597 0
-458 -598 0
-458 -599 0
-458 -600 0
-459 -460 0
-459 -461 0
-459 -462 0
-459 -463 0
-459 -464 0
-459 -465 0
-459 -466 0
-459 -467 0
-459 -468 0
-459 -469 0
-459 -470 0
-459 -471 0
-459 -472 0
-459 -473 0
-459 -474 0
-459 -475 0
-459 -476 0
-459 -477 0
-459 -478 0
-459 -479 0
-459 -480 0
-459 -481 0
-459 -482 0
-459 -483 0
-459 -484 0
-459 -485 0
-459 -486 0
-459 -487 0
-459 -488 0
-459 -489 0
-459 -490 0
-459 -491 0
-459 -492 0
-459 -493 0
-459 -494 0
-459 -495 0
-459 -496 0
-459 -497 0
-459 -498 0
-459 -499 0
-459 -500 0
-459 -501 0
-459 -502 0
-459 -503 0
-459 -504 0
-459 -505 0
-459 -506 0
-459 -507 0
-459 -508 0
-459 -509 0
-459 -510 0
-459 -511 0
-459 -512 0
-459 -513 0
-459 -514 0
-459 -515 0
-459 -516 0
-459 -517 0
-459 -518 0
-459 -519 0
-459 -520 0
-459 -521 0
-459 -522 0
-459 -523 0
-459 -524 0
-459 -525 0
-459 -526 0
-459 -527 0
-459 -528 0
-459 -529 0
-459 -530 0
-459 -531 0
-459 -532 0
-459 -533 0
-459 -534 0
-459 -535 0
-459 -536 0
-459 -537 0
-459 -538 0
-459 -539 0
-459 -540 0
-459 -541 0
-459 -542 0
-459 -543 0
-459 -544 0
-459 -545 0
-459 -546 0
-459 -547 0
-459 -548 0
-459 -549 0
-459 -550 0
-459 -551 0
-459 -552 0
-459 -553 0
-459 -554 0
-459 -555 0
-459 -556 0
-459 -557 0
-459 -558 0
-459 -559 0
-459 -560 0
-459 -561 0
-459 -562 0
-459 -563 0
-459 -564 0
-459 -565 0
-459 -566 0
-459 -567 0
-459 -568 0
-459 -569 0
-459 -570 0
-459 -571 0
-459 -572 0
-459 -573 0
-459 -574 0
-459 -575 0
-459 -576 0
-459 -577 0
-459 -578 0
-459 -579 0
-459 -580 0
-459 -581 0
-459 -582 0
-459 -583 0
-459 -584 0
-459 -585 0
-459 -586 0
-459 -587 0
-459 -588 0
-459 -589 0
-459 -590 0
-459 -591 0
-459 -592 0
-459 -593 0
-459 -594 0
-459 -595 0
-459 -596 0
-459 -597 0
-459 -598 0
-459 -599 0
-459 -600 0
-460 -461 0
-460 -462 0
-460 -463 0
-460 -464 0
-460 -465 0
-460 -466 0
-460 -467 0
-460 -468 0
-460 -469 0
-460 -470 0
-460 -471 0
-460 -472 0
-460 -473 0
-460 -474 0
-460 -475 0
-460 -476 0
-460 -477 0
-460 -478 0
-460 -479 0
-460 -480 0
-460 -481 0
-460 -482 0
-460 -483 0
-460 -484 0
-460 -485 0
-460 -486 0
-460 -487 0
-460 -488 0
-460 -489 0
-460 -490 0
-460 -491 0
-460 -492 0
-460 -493 0
-460 -494 0
-460 -495 0
-460 -496 0
-460 -497 0
-460 -498 0
-460 -499 0
-460 -500 0
-460 -501 0
-460 -502 0
-460 -503 0
-460 -504 0
-460 -505 0
-460 -506 0
-460 -507 0
-460 -508 0
-460 -509 0
-460 -510 0
-460 -511 0
-460 -512 0
-460 -513 0
-460 -514 0
-460 -515 0
-460 -516 0
-460 -517 0
-460 -518 0
-460 -519 0
-460 -520 0
-460 -521 0
-460 -522 0
-460 -523 0
-460 -524 0
-460 -525 0
-460 -526 0
-460 -527 0
-460 -528 0
-460 -529 0
-460 -530 0
-460 -531 0
-460 -532 0
-460 -533 0
-460 -534 0
-460 -535 0
-460 -536 0
-460 -537 0
-460 -538 0
-460 -539 0
-460 -540 0
-460 -541 0
-460 -542 0
-460 -543 0
-460 -544 0
-460 -545 0
-460 -546 0
-460 -547 0
-460 -548 0
-460 -549 0
-460 -550 0
-460 -551 0
-460 -552 0
-460 -553 0
-460 -554 0
-460 -555 0
-460 -556 0
-460 -557 0
-460 -558 0
-460 -559 0
-460 -560 0
-460 -561 0
-460 -562 0
-460 -563 0
-460 -564 0
-460 -565 0
-460 -566 0
-460 -567 0
-460 -568 0
-460 -569 0
-460 -570 0
-460 -571 0
-460 -572 0
-460 -573 0
-460 -574 0
-460 -575 0
-460 -576 0
-460 -577 0
-460 -578 0
-460 -579 0
-460 -580 0
-460 -581 0
-460 -582 0
-460 -583 0
-460 -584 0
-460 -585 0
-460 -586 0
-460 -587 0
-460 -588 0
-460 -589 0
-460 -590 0
-460 -591 0
-460 -592 0
-460 -593 0
-460 -594 0
-460 -595 0
-460 -596 0
-460 -597 0
-460 -598 0
-460 -599 0
-460 -600 0
-461 -462 0
-461 -463 0
-461 -464 0
-461 -465 0
-461 -466 0
-461 -467 0
-461 -468 0
-461 -469 0
-461 -470 0
-461 -471 0
-461 -472 0
-461 -473 0
-461 -474 0
-461 -475 0
-461 -476 0
-461 -477 0
-461 -478 0
-461 -479 0
-461 -480 0
-461 -481 0
-461 -482 0
-461 -483 0
-461 -484 0
-461 -485 0
-461 -486 0
-461 -487 0
-461 -488 0
-461 -489 0
-461 -490 0
-461 -491 0
-461 -492 0
-461 -493 0
-461 -494 0
-461 -495 0
-461 -496 0
-461 -497 0
-461 -498 0
-461 -499 0
-461 -500 0
-461 -501 0
-461 -502 0
-461 -503 0
-461 -504 0
-461 -505 0
-461 -506 0
-461 -507 0
-461 -508 0
-461 -509 0
-461 -510 0
-461 -511 0
-461 -512 0
-461 -513 0
-461 -514 0
-461 -515 0
-461 -516 0
-461 -517 0
-461 -518 0
-461 -519 0
-461 -520 0
-461 -521 0
-461 -522 0
-461 -523 0
-461 -524 0
-461 -525 0
-461 -526 0
-461 -527 0
-461 -528 0
-461 -529 0
-461 -530 0
-461 -531 0
-461 -532 0
-461 -533 0
-461 -534 0
-461 -535 0
-461 -536 0
-461 -537 0
-461 -538 0
-461 -539 0
-461 -540 0
-461 -541 0
-461 -542 0
-461 -543 0
-461 -544 0
-461 -545 0
-461 -546 0
-461 -547 0
-461 -548 0
-461 -549 0
-461 -550 0
-461 -551 0
-461 -552 0
-461 -553 0
-461 -554 0
-461 -555 0
-461 -556 0
-461 -557 0
-461 -558 0
-461 -559 0
-461 -560 0
-461 -561 0
-461 -562 0
-461 -563 0
-461 -564 0
-461 -565 0
-461 -566 0
-461 -567 0
-461 -568 0
-461 -569 0
-461 -570 0
-461 -571 0
-461 -572 0
-461 -573 0
-461 -574 0
-461 -575 0
-461 -576 0
-461 -577 0
-461 -578 0
-461 -579 0
-461 -580 0
-461 -581 0
-461 -582 0
-461 -583 0
-461 -584 0
-461 -585 0
-461 -586 0
-461 -587 0
-461 -588 0
-461 -589 0
-461 -590 0
-461 -591 0
-461 -592 0
-461 -593 0
-461 -594 0
-461 -595 0
-461 -596 0
-461 -597 0
-461 -598 0
-461 -599 0
-461 -600 0
-462 -463 0
-462 -464 0
-462 -465 0
-462 -466 0
-462 -467 0
-462 -468 0
-462 -469 0
-462 -470 0
-462 -471 0
-462 -472 0
-462 -473 0
-462 -474 0
-462 -475 0
-462 -476 0
-462 -477 0
-462 -478 0
-462 -479 0
-462 -480 0
-462 -481 0
-462 -482 0
-462 -483 0
-462 -484 0
-462 -485 0
-462 -486 0
-462 -487 0
-462 -488 0
-462 -489 0
-462 -490 0
-462 -491 0
-462 -492 0
-462 -493 0
-462 -494 0
-462 -495 0
-462 -496 0
-462 -497 0
-462 -498 0
-462 -499 0
-462 -500 0
-462 -501 0
-462 -502 0
-462 -503 0
-462 -504 0
-462 -505 0
-462 -506 0
-462 -507 0
-462 -508 0
-462 -509 0
-462 -510 0
-462 -511 0
-462 -512 0
-462 -513 0
-462 -514 0
-462 -515 0
-462 -516 0
-462 -517 0
-462 -518 0
-462 -519 0
-462 -520 0
-462 -521 0
-462 -522 0
-462 -523 0
-462 -524 0
-462 -525 0
-462 -526 0
-462 -527 0
-462 -528 0
-462 -529 0
-462 -530 0
-462 -531 0
-462 -532 0
-462 -533 0
-462 -534 0
-462 -535 0
-462 -536 0
-462 -537 0
-462 -538 0
-462 -539 0
-462 -540 0
-462 -541 0
-462 -542 0
-462 -543 0
-462 -544 0
-462 -545 0
-462 -546 0
-462 -547 0
-462 -548 0
-462 -549 0
-462 -550 0
-462 -551 0
-462 -552 0
-462 -553 0
-462 -554 0
-462 -555 0
-462 -556 0
-462 -557 0
-462 -558 0
-462 -559 0
-462 -560 0
-462 -561 0
-462 -562 0
-462 -563 0
-462 -564 0
-462 -565 0
-462 -566 0
-462 -567 0
-462 -568 0
-462 -569 0
-462 -570 0
-462 -571 0
-462 -572 0
-462 -573 0
-462 -574 0
-462 -575 0
-462 -576 0
-462 -577 0
-462 -578 0
-462 -579 0
-462 -580 0
-462 -581 0
-462 -582 0
-462 -583 0
-462 -584 0
-462 -585 0
-462 -586 0
-462 -587 0
-462 -588 0
-462 -589 0
-462 -590 0
-462 -591 0
-462 -592 0
-462 -593 0
-462 -594 0
-462 -595 0
-462 -596 0
-462 -597 0
-462 -598 0
-462 -599 0
-462 -600 0
-463 -464 0
-463 -465 0
-463 -466 0
-463 -467 0
-463 -468 0
-463 -469 0
-463 -470 0
-463 -471 0
-463 -472 0
-463 -473 0
-463 -474 0
-463 -475 0
-463 -476 0
-463 -477 0
-463 -478 0
-463 -479 0
-463 -480 0
-463 -481 0
-463 -482 0
-463 -483 0
-463 -484 0
-463 -485 0
-463 -486 0
-463 -487 0
-463 -488 0
-463 -489 0
-463 -490 0
-463 -491 0
-463 -492 0
-463 -493 0
-463 -494 0
-463 -495 0
-463 -496 0
-463 -497 0
-463 -498 0
-463 -499 0
-463 -500 0
-463 -501 0
-463 -502 0
-463 -503 0
-463 -504 0
-463 -505 0
-463 -506 0
-463 -507 0
-463 -508 0
-463 -509 0
-463 -510 0
-463 -511 0
-463 -512 0
-463 -513 0
-463 -514 0
-463 -515 0
-463 -516 0
-463 -517 0
-463 -518 0
-463 -519 0
-463 -520 0
-463 -521 0
-463 -522 0
-463 -523 0
-463 -524 0
-463 -525 0
-463 -526 0
-463 -527 0
-463 -528 0
-463 -529 0
-463 -530 0
-463 -531 0
-463 -532 0
-463 -533 0
-463 -534 0
-463 -535 0
-463 -536 0
-463 -537 0
-463 -538 0
-463 -539 0
-463 -540 0
-463 -541 0
-463 -542 0
-463 -543 0
-463 -544 0
-463 -545 0
-463 -546 0
-463 -547 0
-463 -548 0
-463 -549 0
-463 -550 0
-463 -551 0
-463 -552 0
-463 -553 0
-463 -554 0
-463 -555 0
-463 -556 0
-463 -557 0
-463 -558 0
-463 -559 0
-463 -560 0
-463 -561 0
-463 -562 0
-463 -563 0
-463 -564 0
-463 -565 0
-463 -566 0
-463 -567 0
-463 -568 0
-463 -569 0
-463 -570 0
-463 -571 0
-463 -572 0
-463 -573 0
-463 -574 0
-463 -575 0
-463 -576 0
-463 -577 0
-463 -578 0
-463 -579 0
-463 -580 0
-463 -581 0
-463 -582 0
-463 -583 0
-463 -584 0
-463 -585 0
-463 -586 0
-463 -587 0
-463 -588 0
-463 -589 0
-463 -590 0
-463 -591 0
-463 -592 0
-463 -593 0
-463 -594 0
-463 -595 0
-463 -596 0
-463 -597 0
-463 -598 0
-463 -599 0
-463 -600 0
-464 -465 0
-464 -466 0
-464 -467 0
-464 -468 0
-464 -469 0
-464 -470 0
-464 -471 0
-464 -472 0
-464 -473 0
-464 -474 0
-464 -475 0
-464 -476 0
-464 -477 0
-464 -478 0
-464 -479 0
-464 -480 0
-464 -481 0
-464 -482 0
-464 -483 0
-464 -484 0
-464 -485 0
-464 -486 0
-464 -487 0
-464 -488 0
-464 -489 0
-464 -490 0
-464 -491 0
-464 -492 0
-464 -493 0
-464 -494 0
-464 -495 0
-464 -496 0
-464 -497 0
-464 -498 0
-464 -499 0
-464 -500 0
-464 -501 0
-464 -502 0
-464 -503 0
-464 -504 0
-464 -505 0
-464 -506 0
-464 -507 0
-464 -508 0
-464 -509 0
-464 -510 0
-464 -511 0
-464 -512 0
-464 -513 0
-464 -514 0
-464 -515 0
-464 -516 0
-464 -517 0
-464 -518 0
-464 -519 0
-464 -520 0
-464 -521 0
-464 -522 0
-464 -523 0
-464 -524 0
-464 -525 0
-464 -526 0
-464 -527 0
-464 -528 0
-464 -529 0
-464 -530 0
-464 -531 0
-464 -532 0
-464 -533 0
-464 -534 0
-464 -535 0
-464 -536 0
-464 -537 0
-464 -538 0
-464 -539 0
-464 -540 0
-464 -541 0
-464 -542 0
-464 -543 0
-464 -544 0
-464 -545 0
-464 -546 0
-464 -547 0
-464 -548 0
-464 -549 0
-464 -550 0
-464 -551 0
-464 -552 0
-464 -553 0
-464 -554 0
-464 -555 0
-464 -556 0
-464 -557 0
-464 -558 0
-464 -559 0
-464 -560 0
-464 -561 0
-464 -562 0
-464 -563 0
-464 -564 0
-464 -565 0
-464 -566 0
-464 -567 0
-464 -568 0
-464 -569 0
-464 -570 0
-464 -571 0
-464 -572 0
-464 -573 0
-464 -574 0
-464 -575 0
-464 -576 0
-464 -577 0
-464 -578 0
-464 -579 0
-464 -580 0
-464 -581 0
-464 -582 0
-464 -583 0
-464 -584 0
-464 -585 0
-464 -586 0
-464 -587 0
-464 -588 0
-464 -589 0
-464 -590 0
-464 -591 0
-464 -592 0
-464 -593 0
-464 -594 0
-464 -595 0
-464 -596 0
-464 -597 0
-464 -598 0
-464 -599 0
-464 -600 0
-465 -466 0
-465 -467 0
-465 -468 0
-465 -469 0
-465 -470 0
-465 -471 0
-465 -472 0
-465 -473 0
-465 -474 0
-465 -475 0
-465 -476 0
-465 -477 0
-465 -478 0
-465 -479 0
-465 -480 0
-465 -481 0
-465 -482 0
-465 -483 0
-465 -484 0
-465 -485 0
-465 -486 0
-465 -487 0
-465 -488 0
-465 -489 0
-465 -490 0
-465 -491 0
-465 -492 0
-465 -493 0
-465 -494 0
-465 -495 0
-465 -496 0
-465 -497 0
-465 -498 0
-465 -499 0
-465 -500 0
-465 -501 0
-465 -502 0
-465 -503 0
-465 -504 0
-465 -505 0
-465 -506 0
-465 -507 0
-465 -508 0
-465 -509 0
-465 -510 0
-465 -511 0
-465 -512 0
-465 -513 0
-465 -514 0
-465 -515 0
-465 -516 0
-465 -517 0
-465 -518 0
-465 -519 0
-465 -520 0
-465 -521 0
-465 -522 0
-465 -523 0
-465 -524 0
-465 -525 0
-465 -526 0
-465 -527 0
-465 -528 0
-465 -529 0
-465 -530 0
-465 -531 0
-465 -532 0
-465 -533 0
-465 -534 0
-465 -535 0
-465 -536 0
-465 -537 0
-465 -538 0
-465 -539 0
-465 -540 0
-465 -541 0
-465 -542 0
-465 -543 0
-465 -544 0
-465 -545 0
-465 -546 0
-465 -547 0
-465 -548 0
-465 -549 0
-465 -550 0
-465 -551 0
-465 -552 0
-465 -553 0
-465 -554 0
-465 -555 0
-465 -556 0
-465 -557 0
-465 -558 0
-465 -559 0
-465 -560 0
-465 -561 0
-465 -562 0
-465 -563 0
-465 -564 0
-465 -565 0
-465 -566 0
-465 -567 0
-465 -568 0
-465 -569 0
-465 -570 0
-465 -571 0
-465 -572 0
-465 -573 0
-465 -574 0
-465 -575 0
-465 -576 0
-465 -577 0
-465 -578 0
-465 -579 0
-465 -580 0
-465 -581 0
-465 -582 0
-465 -583 0
-465 -584 0
-465 -585 0
-465 -586 0
-465 -587 0
-465 -588 0
-465 -589 0
-465 -590 0
-465 -591 0
-465 -592 0
-465 -593 0
-465 -594 0
-465 -595 0
-465 -596 0
-465 -597 0
-465 -598 0
-465 -599 0
-465 -600 0
-466 -467 0
-466 -468 0
-466 -469 0
-466 -470 0
-466 -471 0
-466 -472 0
-466 -473 0
-466 -474 0
-466 -475 0
-466 -476 0
-466 -477 0
-466 -478 0
-466 -479 0
-466 -480 0
-466 -481 0
-466 -482 0
-466 -483 0
-466 -484 0
-466 -485 0
-466 -486 0
-466 -487 0
-466 -488 0
-466 -489 0
-466 -490 0
-466 -491 0
-466 -492 0
-466 -493 0
-466 -494 0
-466 -495 0
-466 -496 0
-466 -497 0
-466 -498 0
-466 -499 0
-466 -500 0
-466 -501 0
-466 -502 0
-466 -503 0
-466 -504 0
-466 -505 0
-466 -506 0
-466 -507 0
-466 -508 0
-466 -509 0
-466 -510 0
-466 -511 0
-466 -512 0
-466 -513 0
-466 -514 0
-466 -515 0
-466 -516 0
-466 -517 0
-466 -518 0
-466 -519 0
-466 -520 0
-466 -521 0
-466 -522 0
-466 -523 0
-466 -524 0
-466 -525 0
-466 -526 0
-466 -527 0
-466 -528 0
-466 -529 0
-466 -530 0
-466 -531 0
-466 -532 0
-466 -533 0
-466 -534 0
-466 -535 0
-466 -536 0
-466 -537 0
-466 -538 0
-466 -539 0
-466 -540 0
-466 -541 0
-466 -542 0
-466 -543 0
-466 -544 0
-466 -545 0
-466 -546 0
-466 -547 0
-466 -548 0
-466 -549 0
-466 -550 0
-466 -551 0
-466 -552 0
-466 -553 0
-466 -554 0
-466 -555 0
-466 -556 0
-466 -557 0
-466 -558 0
-466 -559 0
-466 -560 0
-466 -561 0
-466 -562 0
-466 -563 0
-466 -564 0
-466 -565 0
-466 -566 0
-466 -567 0
-466 -568 0
-466 -569 0
-466 -570 0
-466 -571 0
-466 -572 0
-466 -573 0
-466 -574 0
-466 -575 0
-466 -576 0
-466 -577 0
-466 -578 0
-466 -579 0
-466 -580 0
-466 -581 0
-466 -582 0
-466 -583 0
-466 -584 0
-466 -585 0
-466 -586 0
-466 -587 0
-466 -588 0
-466 -589 0
-466 -590 0
-466 -591 0
-466 -592 0
-466 -593 0
-466 -594 0
-466 -595 0
-466 -596 0
-466 -597 0
-466 -598 0
-466 -599 0
-466 -600 0
-467 -468 0
-467 -469 0
-467 -470 0
-467 -471 0
-467 -472 0
-467 -473 0
-467 -474 0
-467 -475 0
-467 -476 0
-467 -477 0
-467 -478 0
-467 -479 0
-467 -480 0
-467 -481 0
-467 -482 0
-467 -483 0
-467 -484 0
-467 -485 0
-467 -486 0
-467 -487 0
-467 -488 0
-467 -489 0
-467 -490 0
-467 -491 0
-467 -492 0
-467 -493 0
-467 -494 0
-467 -495 0
-467 -496 0
-467 -497 0
-467 -498 0
-467 -499 0
-467 -500 0
-467 -501 0
-467 -502 0
-467 -503 0
-467 -504 0
-467 -505 0
-467 -506 0
-467 -507 0
-467 -508 0
-467 -509 0
-467 -510 0
-467 -511 0
-467 -512 0
-467 -513 0
-467 -514 0
-467 -515 0
-467 -516 0
-467 -517 0
-467 -518 0
-467 -519 0
-467 -520 0
-467 -521 0
-467 -522 0
-467 -523 0
-467 -524 0
-467 -525 0
-467 -526 0
-467 -527 0
-467 -528 0
-467 -529 0
-467 -530 0
-467 -531 0
-467 -532 0
-467 -533 0
-467 -534 0
-467 -535 0
-467 -536 0
-467 -537 0
-467 -538 0
-467 -539 0
-467 -540 0
-467 -541 0
-467 -542 0
-467 -543 0
-467 -544 0
-467 -545 0
-467 -546 0
-467 -547 0
-467 -548 0
-467 -549 0
-467 -550 0
-467 -551 0
-467 -552 0
-467 -553 0
-467 -554 0
-467 -555 0
-467 -556 0
-467 -557 0
-467 -558 0
-467 -559 0
-467 -560 0
-467 -561 0
-467 -562 0
-467 -563 0
-467 -564 0
-467 -565 0
-467 -566 0
-467 -567 0
-467 -568 0
-467 -569 0
-467 -570 0
-467 -571 0
-467 -572 0
-467 -573 0
-467 -574 0
-467 -575 0
-467 -576 0
-467 -577 0
-467 -578 0
-467 -579 0
-467 -580 0
-467 -581 0
-467 -582 0
-467 -583 0
-467 -584 0
-467 -585 0
-467 -586 0
-467 -587 0
-467 -588 0
-467 -589 0
-467 -590 0
-467 -591 0
-467 -592 0
-467 -593 0
-467 -594 0
-467 -595 0
-467 -596 0
-467 -597 0
-467 -598 0
-467 -599 0
-467 -600 0
-468 -469 0
-468 -470 0
-468 -471 0
-468 -472 0
-468 -473 0
-468 -474 0
-468 -475 0
-468 -476 0
-468 -477 0
-468 -478 0
-468 -479 0
-468 -480 0
-468 -481 0
-468 -482 0
-468 -483 0
-468 -484 0
-468 -485 0
-468 -486 0
-468 -487 0
-468 -488 0
-468 -489 0
-468 -490 0
-468 -491 0
-468 -492 0
-468 -493 0
-468 -494 0
-468 -495 0
-468 -496 0
-468 -497 0
-468 -498 0
-468 -499 0
-468 -500 0
-468 -501 0
-468 -502 0
-468 -503 0
-468 -504 0
-468 -505 0
-468 -506 0
-468 -507 0
-468 -508 0
-468 -509 0
-468 -510 0
-468 -511 0
-468 -512 0
-468 -513 0
-468 -514 0
-468 -515 0
-468 -516 0
-468 -517 0
-468 -518 0
-468 -519 0
-468 -520 0
-468 -521 0
-468 -522 0
-468 -523 0
-468 -524 0
-468 -525 0
-468 -526 0
-468 -527 0
-468 -528 0
-468 -529 0
-468 -530 0
-468 -531 0
-468 -532 0
-468 -533 0
-468 -534 0
-468 -535 0
-468 -536 0
-468 -537 0
-468 -538 0
-468 -539 0
-468 -540 0
-468 -541 0
-468 -542 0
-468 -543 0
-468 -544 0
-468 -545 0
-468 -546 0
-468 -547 0
-468 -548 0
-468 -549 0
-468 -550 0
-468 -551 0
-468 -552 0
-468 -553 0
-468 -554 0
-468 -555 0
-468 -556 0
-468 -557 0
-468 -558 0
-468 -559 0
-468 -560 0
-468 -561 0
-468 -562 0
-468 -563 0
-468 -564 0
-468 -565 0
-468 -566 0
-468 -567 0
-468 -568 0
-468 -569 0
-468 -570 0
-468 -571 0
-468 -572 0
-468 -573 0
-468 -574 0
-468 -575 0
-468 -576 0
-468 -577 0
-468 -578 0
-468 -579 0
-468 -580 0
-468 -581 0
-468 -582 0
-468 -583 0
-468 -584 0
-468 -585 0
-468 -586 0
-468 -587 0
-468 -588 0
-468 -589 0
-468 -590 0
-468 -591 0
-468 -592 0
-468 -593 0
-468 -594 0
-468 -595 0
-468 -596 0
-468 -597 0
-468 -598 0
-468 -599 0
-468 -600 0
-469 -470 0
-469 -471 0
-469 -472 0
-469 -473 0
-469 -474 0
-469 -475 0
-469 -476 0
-469 -477 0
-469 -478 0
-469 -479 0
-469 -480 0
-469 -481 0
-469 -482 0
-469 -483 0
-469 -484 0
-469 -485 0
-469 -486 0
-469 -487 0
-469 -488 0
-469 -489 0
-469 -490 0
-469 -491 0
-469 -492 0
-469 -493 0
-469 -494 0
-469 -495 0
-469 -496 0
-469 -497 0
-469 -498 0
-469 -499 0
-469 -500 0
-469 -501 0
-469 -502 0
-469 -503 0
-469 -504 0
-469 -505 0
-469 -506 0
-469 -507 0
-469 -508 0
-469 -509 0
-469 -510 0
-469 -511 0
-469 -512 0
-469 -513 0
-469 -514 0
-469 -515 0
-469 -516 0
-469 -517 0
-469 -518 0
-469 -519 0
-469 -520 0
-469 -521 0
-469 -522 0
-469 -523 0
-469 -524 0
-469 -525 0
-469 -526 0
-469 -527 0
-469 -528 0
-469 -529 0
-469 -530 0
-469 -531 0
-469 -532 0
-469 -533 0
-469 -534 0
-469 -535 0
-469 -536 0
-469 -537 0
-469 -538 0
-469 -539 0
-469 -540 0
-469 -541 0
-469 -542 0
-469 -543 0
-469 -544 0
-469 -545 0
-469 -546 0
-469 -547 0
-469 -548 0
-469 -549 0
-469 -550 0
-469 -551 0
-469 -552 0
-469 -553 0
-469 -554 0
-469 -555 0
-469 -556 0
-469 -557 0
-469 -558 0
-469 -559 0
-469 -560 0
-469 -561 0
-469 -562 0
-469 -563 0
-469 -564 0
-469 -565 0
-469 -566 0
-469 -567 0
-469 -568 0
-469 -569 0
-469 -570 0
-469 -571 0
-469 -572 0
-469 -573 0
-469 -574 0
-469 -575 0
-469 -576 0
-469 -577 0
-469 -578 0
-469 -579 0
-469 -580 0
-469 -581 0
-469 -582 0
-469 -583 0
-469 -584 0
-469 -585 0
-469 -586 0
-469 -587 0
-469 -588 0
-469 -589 0
-469 -590 0
-469 -591 0
-469 -592 0
-469 -593 0
-469 -594 0
-469 -595 0
-469 -596 0
-469 -597 0
-469 -598 0
-469 -599 0
-469 -600 0
-470 -471 0
-470 -472 0
-470 -473 0
-470 -474 0
-470 -475 0
-470 -476 0
-470 -477 0
-470 -478 0
-470 -479 0
-470 -480 0
-470 -481 0
-470 -482 0
-470 -483 0
-470 -484 0
-470 -485 0
-470 -486 0
-470 -487 0
-470 -488 0
-470 -489 0
-470 -490 0
-470 -491 0
-470 -492 0
-470 -493 0
-470 -494 0
-470 -495 0
-470 -496 0
-470 -497 0
-470 -498 0
-470 -499 0
-470 -500 0
-470 -501 0
-470 -502 0
-470 -503 0
-470 -504 0
-470 -505 0
-470 -506 0
-470 -507 0
-470 -508 0
-470 -509 0
-470 -510 0
-470 -511 0
-470 -512 0
-470 -513 0
-470 -514 0
-470 -515 0
-470 -516 0
-470 -517 0
-470 -518 0
-470 -519 0
-470 -520 0
-470 -521 0
-470 -522 0
-470 -523 0
-470 -524 0
-470 -525 0
-470 -526 0
-470 -527 0
-470 -528 0
-470 -529 0
-470 -530 0
-470 -531 0
-470 -532 0
-470 -533 0
-470 -534 0
-470 -535 0
-470 -536 0
-470 -537 0
-470 -538 0
-470 -539 0
-470 -540 0
-470 -541 0
-470 -542 0
-470 -543 0
-470 -544 0
-470 -545 0
-470 -546 0
-470 -547 0
-470 -548 0
-470 -549 0
-470 -550 0
-470 -551 0
-470 -552 0
-470 -553 0
-470 -554 0
-470 -555 0
-470 -556 0
-470 -557 0
-470 -558 0
-470 -559 0
-470 -560 0
-470 -561 0
-470 -562 0
-470 -563 0
-470 -564 0
-470 -565 0
-470 -566 0
-470 -567 0
-470 -568 0
-470 -569 0
-470 -570 0
-470 -571 0
-470 -572 0
-470 -573 0
-470 -574 0
-470 -575 0
-470 -576 0
-470 -577 0
-470 -578 0
-470 -579 0
-470 -580 0
-470 -581 0
-470 -582 0
-470 -583 0
-470 -584 0
-470 -585 0
-470 -586 0
-470 -587 0
-470 -588 0
-470 -589 0
-470 -590 0
-470 -591 0
-470 -592 0
-470 -593 0
-470 -594 0
-470 -595 0
-470 -596 0
-470 -597 0
-470 -598 0
-470 -599 0
-470 -600 0
-471 -472 0
-471 -473 0
-471 -474 0
-471 -475 0
-471 -476 0
-471 -477 0
-471 -478 0
-471 -479 0
-471 -480 0
-471 -481 0
-471 -482 0
-471 -483 0
-471 -484 0
-471 -485 0
-471 -486 0
-471 -487 0
-471 -488 0
-471 -489 0
-471 -490 0
-471 -491 0
-471 -492 0
-471 -493 0
-471 -494 0
-471 -495 0
-471 -496 0
-471 -497 0
-471 -498 0
-471 -499 0
-471 -500 0
-471 -501 0
-471 -502 0
-471 -503 0
-471 -504 0
-471 -505 0
-471 -506 0
-471 -507 0
-471 -508 0
-471 -509 0
-471 -510 0
-471 -511 0
-471 -512 0
-471 -513 0
-471 -514 0
-471 -515 0
-471 -516 0
-471 -517 0
-471 -518 0
-471 -519 0
-471 -520 0
-471 -521 0
-471 -522 0
-471 -523 0
-471 -524 0
-471 -525 0
-471 -526 0
-471 -527 0
-471 -528 0
-471 -529 0
-471 -530 0
-471 -531 0
-471 -532 0
-471 -533 0
-471 -534 0
-471 -535 0
-471 -536 0
-471 -537 0
-471 -538 0
-471 -539 0
-471 -540 0
-471 -541 0
-471 -542 0
-471 -543 0
-471 -544 0
-471 -545 0
-471 -546 0
-471 -547 0
-471 -548 0
-471 -549 0
-471 -550 0
-471 -551 0
-471 -552 0
-471 -553 0
-471 -554 0
-471 -555 0
-471 -556 0
-471 -557 0
-471 -558 0
-471 -559 0
-471 -560 0
-471 -561 0
-471 -562 0
-471 -563 0
-471 -564 0
-471 -565 0
-471 -566 0
-471 -567 0
-471 -568 0
-471 -569 0
-471 -570 0
-471 -571 0
-471 -572 0
-471 -573 0
-471 -574 0
-471 -575 0
-471 -576 0
-471 -577 0
-471 -578 0
-471 -579 0
-471 -580 0
-471 -581 0
-471 -582 0
-471 -583 0
-471 -584 0
-471 -585 0
-471 -586 0
-471 -587 0
-471 -588 0
-471 -589 0
-471 -590 0
-471 -591 0
-471 -592 0
-471 -593 0
-471 -594 0
-471 -595 0
-471 -596 0
-471 -597 0
-471 -598 0
-471 -599 0
-471 -600 0
-472 -473 0
-472 -474 0
-472 -475 0
-472 -476 0
-472 -477 0
-472 -478 0
-472 -479 0
-472 -480 0
-472 -481 0
-472 -482 0
-472 -483 0
-472 -484 0
-472 -485 0
-472 -486 0
-472 -487 0
-472 -488 0
-472 -489 0
-472 -490 0
-472 -491 0
-472 -492 0
-472 -493 0
-472 -494 0
-472 -495 0
-472 -496 0
-472 -497 0
-472 -498 0
-472 -499 0
-472 -500 0
-472 -501 0
-472 -502 0
-472 -503 0
-472 -504 0
-472 -505 0
-472 -506 0
-472 -507 0
-472 -508 0
-472 -509 0
-472 -510 0
-472 -511 0
-472 -512 0
-472 -513 0
-472 -514 0
-472 -515 0
-472 -516 0
-472 -517 0
-472 -518 0
-472 -519 0
-472 -520 0
-472 -521 0
-472 -522 0
-472 -523 0
-472 -524 0
-472 -525 0
-472 -526 0
-472 -527 0
-472 -528 0
-472 -529 0
-472 -530 0
-472 -531 0
-472 -532 0
-472 -533 0
-472 -534 0
-472 -535 0
-472 -536 0
-472 -537 0
-472 -538 0
-472 -539 0
-472 -540 0
-472 -541 0
-472 -542 0
-472 -543 0
-472 -544 0
-472 -545 0
-472 -546 0
-472 -547 0
-472 -548 0
-472 -549 0
-472 -550 0
-472 -551 0
-472 -552 0
-472 -553 0
-472 -554 0
-472 -555 0
-472 -556 0
-472 -557 0
-472 -558 0
-472 -559 0
-472 -560 0
-472 -561 0
-472 -562 0
-472 -563 0
-472 -564 0
-472 -565 0
-472 -566 0
-472 -567 0
-472 -568 0
-472 -569 0
-472 -570 0
-472 -571 0
-472 -572 0
-472 -573 0
-472 -574 0
-472 -575 0
-472 -576 0
-472 -577 0
-472 -578 0
-472 -579 0
-472 -580 0
-472 -581 0
-472 -582 0
-472 -583 0
-472 -584 0
-472 -585 0
-472 -586 0
-472 -587 0
-472 -588 0
-472 -589 0
-472 -590 0
-472 -591 0
-472 -592 0
-472 -593 0
-472 -594 0
-472 -595 0
-472 -596 0
-472 -597 0
-472 -598 0
-472 -599 0
-472 -600 0
-473 -474 0
-473 -475 0
-473 -476 0
-473 -477 0
-473 -478 0
-473 -479 0
-473 -480 0
-473 -481 0
-473 -482 0
-473 -483 0
-473 -484 0
-473 -485 0
-473 -486 0
-473 -487 0
-473 -488 0
-473 -489 0
-473 -490 0
-473 -491 0
-473 -492 0
-473 -493 0
-473 -494 0
-473 -495 0
-473 -496 0
-473 -497 0
-473 -498 0
-473 -499 0
-473 -500 0
-473 -501 0
-473 -502 0
-473 -503 0
-473 -504 0
-473 -505 0
-473 -506 0
-473 -507 0
-473 -508 0
-473 -509 0
-473 -510 0
-473 -511 0
-473 -512 0
-473 -513 0
-473 -514 0
-473 -515 0
-473 -516 0
-473 -517 0
-473 -518 0
-473 -519 0
-473 -520 0
-473 -521 0
-473 -522 0
-473 -523 0
-473 -524 0
-473 -525 0
-473 -526 0
-473 -527 0
-473 -528 0
-473 -529 0
-473 -530 0
-473 -531 0
-473 -532 0
-473 -533 0
-473 -534 0
-473 -535 0
-473 -536 0
-473 -537 0
-473 -538 0
-473 -539 0
-473 -540 0
-473 -541 0
-473 -542 0
-473 -543 0
-473 -544 0
-473 -545 0
-473 -546 0
-473 -547 0
-473 -548 0
-473 -549 0
-473 -550 0
-473 -551 0
-473 -552 0
-473 -553 0
-473 -554 0
-473 -555 0
-473 -556 0
-473 -557 0
-473 -558 0
-473 -559 0
-473 -560 0
-473 -561 0
-473 -562 0
-473 -563 0
-473 -564 0
-473 -565 0
-473 -566 0
-473 -567 0
-473 -568 0
-473 -569 0
-473 -570 0
-473 -571 0
-473 -572 0
-473 -573 0
-473 -574 0
-473 -575 0
-473 -576 0
-473 -577 0
-473 -578 0
-473 -579 0
-473 -580 0
-473 -581 0
-473 -582 0
-473 -583 0
-473 -584 0
-473 -585 0
-473 -586 0
-473 -587 0
-473 -588 0
-473 -589 0
-473 -590 0
-473 -591 0
-473 -592 0
-473 -593 0
-473 -594 0
-473 -595 0
-473 -596 0
-473 -597 0
-473 -598 0
-473 -599 0
-473 -600 0
-474 -475 0
-474 -476 0
-474 -477 0
-474 -478 0
-474 -479 0
-474 -480 0
-474 -481 0
-474 -482 0
-474 -483 0
-474 -484 0
-474 -485 0
-474 -486 0
-474 -487 0
-474 -488 0
-474 -489 0
-474 -490 0
-474 -491 0
-474 -492 0
-474 -493 0
-474 -494 0
-474 -495 0
-474 -496 0
-474 -497 0
-474 -498 0
-474 -499 0
-474 -500 0
-474 -501 0
-474 -502 0
-474 -503 0
-474 -504 0
-474 -505 0
-474 -506 0
-474 -507 0
-474 -508 0
-474 -509 0
-474 -510 0
-474 -511 0
-474 -512 0
-474 -513 0
-474 -514 0
-474 -515 0
-474 -516 0
-474 -517 0
-474 -518 0
-474 -519 0
-474 -520 0
-474 -521 0
-474 -522 0
-474 -523 0
-474 -524 0
-474 -525 0
-474 -526 0
-474 -527 0
-474 -528 0
-474 -529 0
-474 -530 0
-474 -531 0
-474 -532 0
-474 -533 0
-474 -534 0
-474 -535 0
-474 -536 0
-474 -537 0
-474 -538 0
-474 -539 0
-474 -540 0
-474 -541 0
-474 -542 0
-474 -543 0
-474 -544 0
-474 -545 0
-474 -546 0
-474 -547 0
-474 -548 0
-474 -549 0
-474 -550 0
-474 -551 0
-474 -552 0
-474 -553 0
-474 -554 0
-474 -555 0
-474 -556 0
-474 -557 0
-474 -558 0
-474 -559 0
-474 -560 0
-474 -561 0
-474 -562 0
-474 -563 0
-474 -564 0
-474 -565 0
-474 -566 0
-474 -567 0
-474 -568 0
-474 -569 0
-474 -570 0
-474 -571 0
-474 -572 0
-474 -573 0
-474 -574 0
-474 -575 0
-474 -576 0
-474 -577 0
-474 -578 0
-474 -579 0
-474 -580 0
-474 -581 0
-474 -582 0
-474 -583 0
-474 -584 0
-474 -585 0
-474 -586 0
-474 -587 0
-474 -588 0
-474 -589 0
-474 -590 0
-474 -591 0
-474 -592 0
-474 -593 0
-474 -594 0
-474 -595 0
-474 -596 0
-474 -597 0
-474 -598 0
-474 -599 0
-474 -600 0
-475 -476 0
-475 -477 0
-475 -478 0
-475 -479 0
-475 -480 0
-475 -481 0
-475 -482 0
-475 -483 0
-475 -484 0
-475 -485 0
-475 -486 0
-475 -487 0
-475 -488 0
-475 -489 0
-475 -490 0
-475 -491 0
-475 -492 0
-475 -493 0
-475 -494 0
-475 -495 0
-475 -496 0
-475 -497 0
-475 -498 0
-475 -499 0
-475 -500 0
-475 -501 0
-475 -502 0
-475 -503 0
-475 -504 0
-475 -505 0
-475 -506 0
-475 -507 0
-475 -508 0
-475 -509 0
-475 -510 0
-475 -511 0
-475 -512 0
-475 -513 0
-475 -514 0
-475 -515 0
-475 -516 0
-475 -517 0
-475 -518 0
-475 -519 0
-475 -520 0
-475 -521 0
-475 -522 0
-475 -523 0
-475 -524 0
-475 -525 0
-475 -526 0
-475 -527 0
-475 -528 0
-475 -529 0
-475 -530 0
-475 -531 0
-475 -532 0
-475 -533 0
-475 -534 0
-475 -535 0
-475 -536 0
-475 -537 0
-475 -538 0
-475 -539 0
-475 -540 0
-475 -541 0
-475 -542 0
-475 -543 0
-475 -544 0
-475 -545 0
-475 -546 0
-475 -547 0
-475 -548 0
-475 -549 0
-475 -550 0
-475 -551 0
-475 -552 0
-475 -553 0
-475 -554 0
-475 -555 0
-475 -556 0
-475 -557 0
-475 -558 0
-475 -559 0
-475 -560 0
-475 -561 0
-475 -562 0
-475 -563 0
-475 -564 0
-475 -565 0
-475 -566 0
-475 -567 0
-475 -568 0
-475 -569 0
-475 -570 0
-475 -571 0
-475 -572 0
-475 -573 0
-475 -574 0
-475 -575 0
-475 -576 0
-475 -577 0
-475 -578 0
-475 -579 0
-475 -580 0
-475 -581 0
-475 -582 0
-475 -583 0
-475 -584 0
-475 -585 0
-475 -586 0
-475 -587 0
-475 -588 0
-475 -589 0
-475 -590 0
-475 -591 0
-475 -592 0
-475 -593 0
-475 -594 0
-475 -595 0
-475 -596 0
-475 -597 0
-475 -598 0
-475 -599 0
-475 -600 0
-476 -477 0
-476 -478 0
-476 -479 0
-476 -480 0
-476 -481 0
-476 -482 0
-476 -483 0
-476 -484 0
-476 -485 0
-476 -486 0
-476 -487 0
-476 -488 0
-476 -489 0
-476 -490 0
-476 -491 0
-476 -492 0
-476 -493 0
-476 -494 0
-476 -495 0
-476 -496 0
-476 -497 0
-476 -498 0
-476 -499 0
-476 -500 0
-476 -501 0
-476 -502 0
-476 -503 0
-476 -504 0
-476 -505 0
-476 -506 0
-476 -507 0
-476 -508 0
-476 -509 0
-476 -510 0
-476 -511 0
-476 -512 0
-476 -513 0
-476 -514 0
-476 -515 0
-476 -516 0
-476 -517 0
-476 -518 0
-476 -519 0
-476 -520 0
-476 -521 0
-476 -522 0
-476 -523 0
-476 -524 0
-476 -525 0
-476 -526 0
-476 -527 0
-476 -528 0
-476 -529 0
-476 -530 0
-476 -531 0
-476 -532 0
-476 -533 0
-476 -534 0
-476 -535 0
-476 -536 0
-476 -537 0
-476 -538 0
-476 -539 0
-476 -540 0
-476 -541 0
-476 -542 0
-476 -543 0
-476 -544 0
-476 -545 0
-476 -546 0
-476 -547 0
-476 -548 0
-476 -549 0
-476 -550 0
-476 -551 0
-476 -552 0
-476 -553 0
-476 -554 0
-476 -555 0
-476 -556 0
-476 -557 0
-476 -558 0
-476 -559 0
-476 -560 0
-476 -561 0
-476 -562 0
-476 -563 0
-476 -564 0
-476 -565 0
-476 -566 0
-476 -567 0
-476 -568 0
-476 -569 0
-476 -570 0
-476 -571 0
-476 -572 0
-476 -573 0
-476 -574 0
-476 -575 0
-476 -576 0
-476 -577 0
-476 -578 0
-476 -579 0
-476 -580 0
-476 -581 0
-476 -582 0
-476 -583 0
-476 -584 0
-476 -585 0
-476 -586 0
-476 -587 0
-476 -588 0
-476 -589 0
-476 -590 0
-476 -591 0
-476 -592 0
-476 -593 0
-476 -594 0
-476 -595 0
-476 -596 0
-476 -597 0
-476 -598 0
-476 -599 0
-476 -600 0
-477 -478 0
-477 -479 0
-477 -480 0
-477 -481 0
-477 -482 0
-477 -483 0
-477 -484 0
-477 -485 0
-477 -486 0
-477 -487 0
-477 -488 0
-477 -489 0
-477 -490 0
-477 -491 0
-477 -492 0
-477 -493 0
-477 -494 0
-477 -495 0
-477 -496 0
-477 -497 0
-477 -498 0
-477 -499 0
-477 -500 0
-477 -501 0
-477 -502 0
-477 -503 0
-477 -504 0
-477 -505 0
-477 -506 0
-477 -507 0
-477 -508 0
-477 -509 0
-477 -510 0
-477 -511 0
-477 -512 0
-477 -513 0
-477 -514 0
-477 -515 0
-477 -516 0
-477 -517 0
-477 -518 0
-477 -519 0
-477 -520 0
-477 -521 0
-477 -522 0
-477 -523 0
-477 -524 0
-477 -525 0
-477 -526 0
-477 -527 0
-477 -528 0
-477 -529 0
-477 -530 0
-477 -531 0
-477 -532 0
-477 -533 0
-477 -534 0
-477 -535 0
-477 -536 0
-477 -537 0
-477 -538 0
-477 -539 0
-477 -540 0
-477 -541 0
-477 -542 0
-477 -543 0
-477 -544 0
-477 -545 0
-477 -546 0
-477 -547 0
-477 -548 0
-477 -549 0
-477 -550 0
-477 -551 0
-477 -552 0
-477 -553 0
-477 -554 0
-477 -555 0
-477 -556 0
-477 -557 0
-477 -558 0
-477 -559 0
-477 -560 0
-477 -561 0
-477 -562 0
-477 -563 0
-477 -564 0
-477 -565 0
-477 -566 0
-477 -567 0
-477 -568 0
-477 -569 0
-477 -570 0
-477 -571 0
-477 -572 0
-477 -573 0
-477 -574 0
-477 -575 0
-477 -576 0
-477 -577 0
-477 -578 0
-477 -579 0
-477 -580 0
-477 -581 0
-477 -582 0
-477 -583 0
-477 -584 0
-477 -585 0
-477 -586 0
-477 -587 0
-477 -588 0
-477 -589 0
-477 -590 0
-477 -591 0
-477 -592 0
-477 -593 0
-477 -594 0
-477 -595 0
-477 -596 0
-477 -597 0
-477 -598 0
-477 -599 0
-477 -600 0
-478 -479 0
-478 -480 0
-478 -481 0
-478 -482 0
-478 -483 0
-478 -484 0
-478 -485 0
-478 -486 0
-478 -487 0
-478 -488 0
-478 -489 0
-478 -490 0
-478 -491 0
-478 -492 0
-478 -493 0
-478 -494 0
-478 -495 0
-478 -496 0
-478 -497 0
-478 -498 0
-478 -499 0
-478 -500 0
-478 -501 0
-478 -502 0
-478 -503 0
-478 -504 0
-478 -505 0
-478 -506 0
-478 -507 0
-478 -508 0
-478 -509 0
-478 -510 0
-478 -511 0
-478 -512 0
-478 -513 0
-478 -514 0
-478 -515 0
-478 -516 0
-478 -517 0
-478 -518 0
-478 -519 0
-478 -520 0
-478 -521 0
-478 -522 0
-478 -523 0
-478 -524 0
-478 -525 0
-478 -526 0
-478 -527 0
-478 -528 0
-478 -529 0
-478 -530 0
-478 -531 0
-478 -532 0
-478 -533 0
-478 -534 0
-478 -535 0
-478 -536 0
-478 -537 0
-478 -538 0
-478 -539 0
-478 -540 0
-478 -541 0
-478 -542 0
-478 -543 0
-478 -544 0
-478 -545 0
-478 -546 0
-478 -547 0
-478 -548 0
-478 -549 0
-478 -550 0
-478 -551 0
-478 -552 0
-478 -553 0
-478 -554 0
-478 -555 0
-478 -556 0
-478 -557 0
-478 -558 0
-478 -559 0
-478 -560 0
-478 -561 0
-478 -562 0
-478 -563 0
-478 -564 0
-478 -565 0
-478 -566 0
-478 -567 0
-478 -568 0
-478 -569 0
-478 -570 0
-478 -571 0
-478 -572 0
-478 -573 0
-478 -574 0
-478 -575 0
-478 -576 0
-478 -577 0
-478 -578 0
-478 -579 0
-478 -580 0
-478 -581 0
-478 -582 0
-478 -583 0
-478 -584 0
-478 -585 0
-478 -586 0
-478 -587 0
-478 -588 0
-478 -589 0
-478 -590 0
-478 -591 0
-478 -592 0
-478 -593 0
-478 -594 0
-478 -595 0
-478 -596 0
-478 -597 0
-478 -598 0
-478 -599 0
-478 -600 0
-479 -480 0
-479 -481 0
-479 -482 0
-479 -483 0
-479 -484 0
-479 -485 0
-479 -486 0
-479 -487 0
-479 -488 0
-479 -489 0
-479 -490 0
-479 -491 0
-479 -492 0
-479 -493 0
-479 -494 0
-479 -495 0
-479 -496 0
-479 -497 0
-479 -498 0
-479 -499 0
-479 -500 0
-479 -501 0
-479 -502 0
-479 -503 0
-479 -504 0
-479 -505 0
-479 -506 0
-479 -507 0
-479 -508 0
-479 -509 0
-479 -510 0
-479 -511 0
-479 -512 0
-479 -513 0
-479 -514 0
-479 -515 0
-479 -516 0
-479 -517 0
-479 -518 0
-479 -519 0
-479 -520 0
-479 -521 0
-479 -522 0
-479 -523 0
-479 -524 0
-479 -525 0
-479 -526 0
-479 -527 0
-479 -528 0
-479 -529 0
-479 -530 0
-479 -531 0
-479 -532 0
-479 -533 0
-479 -534 0
-479 -535 0
-479 -536 0
-479 -537 0
-479 -538 0
-479 -539 0
-479 -540 0
-479 -541 0
-479 -542 0
-479 -543 0
-479 -544 0
-479 -545 0
-479 -546 0
-479 -547 0
-479 -548 0
-479 -549 0
-479 -550 0
-479 -551 0
-479 -552 0
-479 -553 0
-479 -554 0
-479 -555 0
-479 -556 0
-479 -557 0
-479 -558 0
-479 -559 0
-479 -560 0
-479 -561 0
-479 -562 0
-479 -563 0
-479 -564 0
-479 -565 0
-479 -566 0
-479 -567 0
-479 -568 0
-479 -569 0
-479 -570 0
-479 -571 0
-479 -572 0
-479 -573 0
-479 -574 0
-479 -575 0
-479 -576 0
-479 -577 0
-479 -578 0
-479 -579 0
-479 -580 0
-479 -581 0
-479 -582 0
-479 -583 0
-479 -584 0
-479 -585 0
-479 -586 0
-479 -587 0
-479 -588 0
-479 -589 0
-479 -590 0
-479 -591 0
-479 -592 0
-479 -593 0
-479 -594 0
-479 -595 0
-479 -596 0
-479 -597 0
-479 -598 0
-479 -599 0
-479 -600 0
-480 -481 0
-480 -482 0
-480 -483 0
-480 -484 0
-480 -485 0
-480 -486 0
-480 -487 0
-480 -488 0
-480 -489 0
-480 -490 0
-480 -491 0
-480 -492 0
-480 -493 0
-480 -494 0
-480 -495 0
-480 -496 0
-480 -497 0
-480 -498 0
-480 -499 0
-480 -500 0
-480 -501 0
-480 -502 0
-480 -503 0
-480 -504 0
-480 -505 0
-480 -506 0
-480 -507 0
-480 -508 0
-480 -509 0
-480 -510 0
-480 -511 0
-480 -512 0
-480 -513 0
-480 -514 0
-480 -515 0
-480 -516 0
-480 -517 0
-480 -518 0
-480 -519 0
-480 -520 0
-480 -521 0
-480 -522 0
-480 -523 0
-480 -524 0
-480 -525 0
-480 -526 0
-480 -527 0
-480 -528 0
-480 -529 0
-480 -530 0
-480 -531 0
-480 -532 0
-480 -533 0
-480 -534 0
-480 -535 0
-480 -536 0
-480 -537 0
-480 -538 0
-480 -539 0
-480 -540 0
-480 -541 0
-480 -542 0
-480 -543 0
-480 -544 0
-480 -545 0
-480 -546 0
-480 -547 0
-480 -548 0
-480 -549 0
-480 -550 0
-480 -551 0
-480 -552 0
-480 -553 0
-480 -554 0
-480 -555 0
-480 -556 0
-480 -557 0
-480 -558 0
-480 -559 0
-480 -560 0
-480 -561 0
-480 -562 0
-480 -563 0
-480 -564 0
-480 -565 0
-480 -566 0
-480 -567 0
-480 -568 0
-480 -569 0
-480 -570 0
-480 -571 0
-480 -572 0
-480 -573 0
-480 -574 0
-480 -575 0
-480 -576 0
-480 -577 0
-480 -578 0
-480 -579 0
-480 -580 0
-480 -581 0
-480 -582 0
-480 -583 0
-480 -584 0
-480 -585 0
-480 -586 0
-480 -587 0
-480 -588 0
-480 -589 0
-480 -590 0
-480 -591 0
-480 -592 0
-480 -593 0
-480 -594 0
-480 -595 0
-480 -596 0
-480 -597 0
-480 -598 0
-480 -599 0
-480 -600 0
-481 -482 0
-481 -483 0
-481 -484 0
-481 -485 0
-481 -486 0
-481 -487 0
-481 -488 0
-481 -489 0
-481 -490 0
-481 -491 0
-481 -492 0
-481 -493 0
-481 -494 0
-481 -495 0
-481 -496 0
-481 -497 0
-481 -498 0
-481 -499 0
-481 -500 0
-481 -501 0
-481 -502 0
-481 -503 0
-481 -504 0
-481 -505 0
-481 -506 0
-481 -507 0
-481 -508 0
-481 -509 0
-481 -510 0
-481 -511 0
-481 -512 0
-481 -513 0
-481 -514 0
-481 -515 0
-481 -516 0
-481 -517 0
-481 -518 0
-481 -519 0
-481 -520 0
-481 -521 0
-481 -522 0
-481 -523 0
-481 -524 0
-481 -525 0
-481 -526 0
-481 -527 0
-481 -528 0
-481 -529 0
-481 -530 0
-481 -531 0
-481 -532 0
-481 -533 0
-481 -534 0
-481 -535 0
-481 -536 0
-481 -537 0
-481 -538 0
-481 -539 0
-481 -540 0
-481 -541 0
-481 -542 0
-481 -543 0
-481 -544 0
-481 -545 0
-481 -546 0
-481 -547 0
-481 -548 0
-481 -549 0
-481 -550 0
-481 -551 0
-481 -552 0
-481 -553 0
-481 -554 0
-481 -555 0
-481 -556 0
-481 -557 0
-481 -558 0
-481 -559 0
-481 -560 0
-481 -561 0
-481 -562 0
-481 -563 0
-481 -564 0
-481 -565 0
-481 -566 0
-481 -567 0
-481 -568 0
-481 -569 0
-481 -570 0
-481 -571 0
-481 -572 0
-481 -573 0
-481 -574 0
-481 -575 0
-481 -576 0
-481 -577 0
-481 -578 0
-481 -579 0
-481 -580 0
-481 -581 0
-481 -582 0
-481 -583 0
-481 -584 0
-481 -585 0
-481 -586 0
-481 -587 0
-481 -588 0
-481 -589 0
-481 -590 0
-481 -591 0
-481 -592 0
-481 -593 0
-481 -594 0
-481 -595 0
-481 -596 0
-481 -597 0
-481 -598 0
-481 -599 0
-481 -600 0
-482 -483 0
-482 -484 0
-482 -485 0
-482 -486 0
-482 -487 0
-482 -488 0
-482 -489 0
-482 -490 0
-482 -491 0
-482 -492 0
-482 -493 0
-482 -494 0
-482 -495 0
-482 -496 0
-482 -497 0
-482 -498 0
-482 -499 0
-482 -500 0
-482 -501 0
-482 -502 0
-482 -503 0
-482 -504 0
-482 -505 0
-482 -506 0
-482 -507 0
-482 -508 0
-482 -509 0
-482 -510 0
-482 -511 0
-482 -512 0
-482 -513 0
-482 -514 0
-482 -515 0
-482 -516 0
-482 -517 0
-482 -518 0
-482 -519 0
-482 -520 0
-482 -521 0
-482 -522 0
-482 -523 0
-482 -524 0
-482 -525 0
-482 -526 0
-482 -527 0
-482 -528 0
-482 -529 0
-482 -530 0
-482 -531 0
-482 -532 0
-482 -533 0
-482 -534 0
-482 -535 0
-482 -536 0
-482 -537 0
-482 -538 0
-482 -539 0
-482 -540 0
-482 -541 0
-482 -542 0
-482 -543 0
-482 -544 0
-482 -545 0
-482 -546 0
-482 -547 0
-482 -548 0
-482 -549 0
-482 -550 0
-482 -551 0
-482 -552 0
-482 -553 0
-482 -554 0
-482 -555 0
-482 -556 0
-482 -557 0
-482 -558 0
-482 -559 0
-482 -560 0
-482 -561 0
-482 -562 0
-482 -563 0
-482 -564 0
-482 -565 0
-482 -566 0
-482 -567 0
-482 -568 0
-482 -569 0
-482 -570 0
-482 -571 0
-482 -572 0
-482 -573 0
-482 -574 0
-482 -575 0
-482 -576 0
-482 -577 0
-482 -578 0
-482 -579 0
-482 -580 0
-482 -581 0
-482 -582 0
-482 -583 0
-482 -584 0
-482 -585 0
-482 -586 0
-482 -587 0
-482 -588 0
-482 -589 0
-482 -590 0
-482 -591 0
-482 -592 0
-482 -593 0
-482 -594 0
-482 -595 0
-482 -596 0
-482 -597 0
-482 -598 0
-482 -599 0
-482 -600 0
-483 -484 0
-483 -485 0
-483 -486 0
-483 -487 0
-483 -488 0
-483 -489 0
-483 -490 0
-483 -491 0
-483 -492 0
-483 -493 0
-483 -494 0
-483 -495 0
-483 -496 0
-483 -497 0
-483 -498 0
-483 -499 0
-483 -500 0
-483 -501 0
-483 -502 0
-483 -503 0
-483 -504 0
-483 -505 0
-483 -506 0
-483 -507 0
-483 -508 0
-483 -509 0
-483 -510 0
-483 -511 0
-483 -512 0
-483 -513 0
-483 -514 0
-483 -515 0
-483 -516 0
-483 -517 0
-483 -518 0
-483 -519 0
-483 -520 0
-483 -521 0
-483 -522 0
-483 -523 0
-483 -524 0
-483 -525 0
-483 -526 0
-483 -527 0
-483 -528 0
-483 -529 0
-483 -530 0
-483 -531 0
-483 -532 0
-483 -533 0
-483 -534 0
-483 -535 0
-483 -536 0
-483 -537 0
-483 -538 0
-483 -539 0
-483 -540 0
-483 -541 0
-483 -542 0
-483 -543 0
-483 -544 0
-483 -545 0
-483 -546 0
-483 -547 0
-483 -548 0
-483 -549 0
-483 -550 0
-483 -551 0
-483 -552 0
-483 -553 0
-483 -554 0
-483 -555 0
-483 -556 0
-483 -557 0
-483 -558 0
-483 -559 0
-483 -560 0
-483 -561 0
-483 -562 0
-483 -563 0
-483 -564 0
-483 -565 0
-483 -566 0
-483 -567 0
-483 -568 0
-483 -569 0
-483 -570 0
-483 -571 0
-483 -572 0
-483 -573 0
-483 -574 0
-483 -575 0
-483 -576 0
-483 -577 0
-483 -578 0
-483 -579 0
-483 -580 0
-483 -581 0
-483 -582 0
-483 -583 0
-483 -584 0
-483 -585 0
-483 -586 0
-483 -587 0
-483 -588 0
-483 -589 0
-483 -590 0
-483 -591 0
-483 -592 0
-483 -593 0
-483 -594 0
-483 -595 0
-483 -596 0
-483 -597 0
-483 -598 0
-483 -599 0
-483 -600 0
-484 -485 0
-484 -486 0
-484 -487 0
-484 -488 0
-484 -489 0
-484 -490 0
-484 -491 0
-484 -492 0
-484 -493 0
-484 -494 0
-484 -495 0
-484 -496 0
-484 -497 0
-484 -498 0
-484 -499 0
-484 -500 0
-484 -501 0
-484 -502 0
-484 -503 0
-484 -504 0
-484 -505 0
-484 -506 0
-484 -507 0
-484 -508 0
-484 -509 0
-484 -510 0
-484 -511 0
-484 -512 0
-484 -513 0
-484 -514 0
-484 -515 0
-484 -516 0
-484 -517 0
-484 -518 0
-484 -519 0
-484 -520 0
-484 -521 0
-484 -522 0
-484 -523 0
-484 -524 0
-484 -525 0
-484 -526 0
-484 -527 0
-484 -528 0
-484 -529 0
-484 -530 0
-484 -531 0
-484 -532 0
-484 -533 0
-484 -534 0
-484 -535 0
-484 -536 0
-484 -537 0
-484 -538 0
-484 -539 0
-484 -540 0
-484 -541 0
-484 -542 0
-484 -543 0
-484 -544 0
-484 -545 0
-484 -546 0
-484 -547 0
-484 -548 0
-484 -549 0
-484 -550 0
-484 -551 0
-484 -552 0
-484 -553 0
-484 -554 0
-484 -555 0
-484 -556 0
-484 -557 0
-484 -558 0
-484 -559 0
-484 -560 0
-484 -561 0
-484 -562 0
-484 -563 0
-484 -564 0
-484 -565 0
-484 -566 0
-484 -567 0
-484 -568 0
-484 -569 0
-484 -570 0
-484 -571 0
-484 -572 0
-484 -573 0
-484 -574 0
-484 -575 0
-484 -576 0
-484 -577 0
-484 -578 0
-484 -579 0
-484 -580 0
-484 -581 0
-484 -582 0
-484 -583 0
-484 -584 0
-484 -585 0
-484 -586 0
-484 -587 0
-484 -588 0
-484 -589 0
-484 -590 0
-484 -591 0
-484 -592 0
-484 -593 0
-484 -594 0
-484 -595 0
-484 -596 0
-484 -597 0
-484 -598 0
-484 -599 0
-484 -600 0
-485 -486 0
-485 -487 0
-485 -488 0
-485 -489 0
-485 -490 0
-485 -491 0
-485 -492 0
-485 -493 0
-485 -494 0
-485 -495 0
-485 -496 0
-485 -497 0
-485 -498 0
-485 -499 0
-485 -500 0
-485 -501 0
-485 -502 0
-485 -503 0
-485 -504 0
-485 -505 0
-485 -506 0
-485 -507 0
-485 -508 0
-485 -509 0
-485 -510 0
-485 -511 0
-485 -512 0
-485 -513 0
-485 -514 0
-485 -515 0
-485 -516 0
-485 -517 0
-485 -518 0
-485 -519 0
-485 -520 0
-485 -521 0
-485 -522 0
-485 -523 0
-485 -524 0
-485 -525 0
-485 -526 0
-485 -527 0
-485 -528 0
-485 -529 0
-485 -530 0
-485 -531 0
-485 -532 0
-485 -533 0
-485 -534 0
-485 -535 0
-485 -536 0
-485 -537 0
-485 -538 0
-485 -539 0
-485 -540 0
-485 -541 0
-485 -542 0
-485 -543 0
-485 -544 0
-485 -545 0
-485 -546 0
-485 -547 0
-485 -548 0
-485 -549 0
-485 -550 0
-485 -551 0
-485 -552 0
-485 -553 0
-485 -554 0
-485 -555 0
-485 -556 0
-485 -557 0
-485 -558 0
-485 -559 0
-485 -560 0
-485 -561 0
-485 -562 0
-485 -563 0
-485 -564 0
-485 -565 0
-485 -566 0
-485 -567 0
-485 -568 0
-485 -569 0
-485 -570 0
-485 -571 0
-485 -572 0
-485 -573 0
-485 -574 0
-485 -575 0
-485 -576 0
-485 -577 0
-485 -578 0
-485 -579 0
-485 -580 0
-485 -581 0
-485 -582 0
-485 -583 0
-485 -584 0
-485 -585 0
-485 -586 0
-485 -587 0
-485 -588 0
-485 -589 0
-485 -590 0
-485 -591 0
-485 -592 0
-485 -593 0
-485 -594 0
-485 -595 0
-485 -596 0
-485 -597 0
-485 -598 0
-485 -599 0
-485 -600 0
-486 -487 0
-486 -488 0
-486 -489 0
-486 -490 0
-486 -491 0
-486 -492 0
-486 -493 0
-486 -494 0
-486 -495 0
-486 -496 0
-486 -497 0
-486 -498 0
-486 -499 0
-486 -500 0
-486 -501 0
-486 -502 0
-486 -503 0
-486 -504 0
-486 -505 0
-486 -506 0
-486 -507 0
-486 -508 0
-486 -509 0
-486 -510 0
-486 -511 0
-486 -512 0
-486 -513 0
-486 -514 0
-486 -515 0
-486 -516 0
-486 -517 0
-486 -518 0
-486 -519 0
-486 -520 0
-486 -521 0
-486 -522 0
-486 -523 0
-486 -524 0
-486 -525 0
-486 -526 0
-486 -527 0
-486 -528 0
-486 -529 0
-486 -530 0
-486 -531 0
-486 -532 0
-486 -533 0
-486 -534 0
-486 -535 0
-486 -536 0
-486 -537 0
-486 -538 0
-486 -539 0
-486 -540 0
-486 -541 0
-486 -542 0
-486 -543 0
-486 -544 0
-486 -545 0
-486 -546 0
-486 -547 0
-486 -548 0
-486 -549 0
-486 -550 0
-486 -551 0
-486 -552 0
-486 -553 0
-486 -554 0
-486 -555 0
-486 -556 0
-486 -557 0
-486 -558 0
-486 -559 0
-486 -560 0
-486 -561 0
-486 -562 0
-486 -563 0
-486 -564 0
-486 -565 0
-486 -566 0
-486 -567 0
-486 -568 0
-486 -569 0
-486 -570 0
-486 -571 0
-486 -572 0
-486 -573 0
-486 -574 0
-486 -575 0
-486 -576 0
-486 -577 0
-486 -578 0
-486 -579 0
-486 -580 0
-486 -581 0
-486 -582 0
-486 -583 0
-486 -584 0
-486 -585 0
-486 -586 0
-486 -587 0
-486 -588 0
-486 -589 0
-486 -590 0
-486 -591 0
-486 -592 0
-486 -593 0
-486 -594 0
-486 -595 0
-486 -596 0
-486 -597 0
-486 -598 0
-486 -599 0
-486 -600 0
-487 -488 0
-487 -489 0
-487 -490 0
-487 -491 0
-487 -492 0
-487 -493 0
-487 -494 0
-487 -495 0
-487 -496 0
-487 -497 0
-487 -498 0
-487 -499 0
-487 -500 0
-487 -501 0
-487 -502 0
-487 -503 0
-487 -504 0
-487 -505 0
-487 -506 0
-487 -507 0
-487 -508 0
-487 -509 0
-487 -510 0
-487 -511 0
-487 -512 0
-487 -513 0
-487 -514 0
-487 -515 0
-487 -516 0
-487 -517 0
-487 -518 0
-487 -519 0
-487 -520 0
-487 -521 0
-487 -522 0
-487 -523 0
-487 -524 0
-487 -525 0
-487 -526 0
-487 -527 0
-487 -528 0
-487 -529 0
-487 -530 0
-487 -531 0
-487 -532 0
-487 -533 0
-487 -534 0
-487 -535 0
-487 -536 0
-487 -537 0
-487 -538 0
-487 -539 0
-487 -540 0
-487 -541 0
-487 -542 0
-487 -543 0
-487 -544 0
-487 -545 0
-487 -546 0
-487 -547 0
-487 -548 0
-487 -549 0
-487 -550 0
-487 -551 0
-487 -552 0
-487 -553 0
-487 -554 0
-487 -555 0
-487 -556 0
-487 -557 0
-487 -558 0
-487 -559 0
-487 -560 0
-487 -561 0
-487 -562 0
-487 -563 0
-487 -564 0
-487 -565 0
-487 -566 0
-487 -567 0
-487 -568 0
-487 -569 0
-487 -570 0
-487 -571 0
-487 -572 0
-487 -573 0
-487 -574 0
-487 -575 0
-487 -576 0
-487 -577 0
-487 -578 0
-487 -579 0
-487 -580 0
-487 -581 0
-487 -582 0
-487 -583 0
-487 -584 0
-487 -585 0
-487 -586 0
-487 -587 0
-487 -588 0
-487 -589 0
-487 -590 0
-487 -591 0
-487 -592 0
-487 -593 0
-487 -594 0
-487 -595 0
-487 -596 0
-487 -597 0
-487 -598 0
-487 -599 0
-487 -600 0
-488 -489 0
-488 -490 0
-488 -491 0
-488 -492 0
-488 -493 0
-488 -494 0
-488 -495 0
-488 -496 0
-488 -497 0
-488 -498 0
-488 -499 0
-488 -500 0
-488 -501 0
-488 -502 0
-488 -503 0
-488 -504 0
-488 -505 0
-488 -506 0
-488 -507 0
-488 -508 0
-488 -509 0
-488 -510 0
-488 -511 0
-488 -512 0
-488 -513 0
-488 -514 0
-488 -515 0
-488 -516 0
-488 -517 0
-488 -518 0
-488 -519 0
-488 -520 0
-488 -521 0
-488 -522 0
-488 -523 0
-488 -524 0
-488 -525 0
-488 -526 0
-488 -527 0
-488 -528 0
-488 -529 0
-488 -530 0
-488 -531 0
-488 -532 0
-488 -533 0
-488 -534 0
-488 -535 0
-488 -536 0
-488 -537 0
-488 -538 0
-488 -539 0
-488 -540 0
-488 -541 0
-488 -542 0
-488 -543 0
-488 -544 0
-488 -545 0
-488 -546 0
-488 -547 0
-488 -548 0
-488 -549 0
-488 -550 0
-488 -551 0
-488 -552 0
-488 -553 0
-488 -554 0
-488 -555 0
-488 -556 0
-488 -557 0
-488 -558 0
-488 -559 0
-488 -560 0
-488 -561 0
-488 -562 0
-488 -563 0
-488 -564 0
-488 -565 0
-488 -566 0
-488 -567 0
-488 -568 0
-488 -569 0
-488 -570 0
-488 -571 0
-488 -572 0
-488 -573 0
-488 -574 0
-488 -575 0
-488 -576 0
-488 -577 0
-488 -578 0
-488 -579 0
-488 -580 0
-488 -581 0
-488 -582 0
-488 -583 0
-488 -584 0
-488 -585 0
-488 -586 0
-488 -587 0
-488 -588 0
-488 -589 0
-488 -590 0
-488 -591 0
-488 -592 0
-488 -593 0
-488 -594 0
-488 -595 0
-488 -596 0
-488 -597 0
-488 -598 0
-488 -599 0
-488 -600 0
-489 -490 0
-489 -491 0
-489 -492 0
-489 -493 0
-489 -494 0
-489 -495 0
-489 -496 0
-489 -497 0
-489 -498 0
-489 -499 0
-489 -500 0
-489 -501 0
-489 -502 0
-489 -503 0
-489 -504 0
-489 -505 0
-489 -506 0
-489 -507 0
-489 -508 0
-489 -509 0
-489 -510 0
-489 -511 0
-489 -512 0
-489 -513 0
-489 -514 0
-489 -515 0
-489 -516 0
-489 -517 0
-489 -518 0
-489 -519 0
-489 -520 0
-489 -521 0
-489 -522 0
-489 -523 0
-489 -524 0
-489 -525 0
-489 -526 0
-489 -527 0
-489 -528 0
-489 -529 0
-489 -530 0
-489 -531 0
-489 -532 0
-489 -533 0
-489 -534 0
-489 -535 0
-489 -536 0
-489 -537 0
-489 -538 0
-489 -539 0
-489 -540 0
-489 -541 0
-489 -542 0
-489 -543 0
-489 -544 0
-489 -545 0
-489 -546 0
-489 -547 0
-489 -548 0
-489 -549 0
-489 -550 0
-489 -551 0
-489 -552 0
-489 -553 0
-489 -554 0
-489 -555 0
-489 -556 0
-489 -557 0
-489 -558 0
-489 -559 0
-489 -560 0
-489 -561 0
-489 -562 0
-489 -563 0
-489 -564 0
-489 -565 0
-489 -566 0
-489 -567 0
-489 -568 0
-489 -569 0
-489 -570 0
-489 -571 0
-489 -572 0
-489 -573 0
-489 -574 0
-489 -575 0
-489 -576 0
-489 -577 0
-489 -578 0
-489 -579 0
-489 -580 0
-489 -581 0
-489 -582 0
-489 -583 0
-489 -584 0
-489 -585 0
-489 -586 0
-489 -587 0
-489 -588 0
-489 -589 0
-489 -590 0
-489 -591 0
-489 -592 0
-489 -593 0
-489 -594 0
-489 -595 0
-489 -596 0
-489 -597 0
-489 -598 0
-489 -599 0
-489 -600 0
-490 -491 0
-490 -492 0
-490 -493 0
-490 -494 0
-490 -495 0
-490 -496 0
-490 -497 0
-490 -498 0
-490 -499 0
-490 -500 0
-490 -501 0
-490 -502 0
-490 -503 0
-490 -504 0
-490 -505 0
-490 -506 0
-490 -507 0
-490 -508 0
-490 -509 0
-490 -510 0
-490 -511 0
-490 -512 0
-490 -513 0
-490 -514 0
-490 -515 0
-490 -516 0
-490 -517 0
-490 -518 0
-490 -519 0
-490 -520 0
-490 -521 0
-490 -522 0
-490 -523 0
-490 -524 0
-490 -525 0
-490 -526 0
-490 -527 0
-490 -528 0
-490 -529 0
-490 -530 0
-490 -531 0
-490 -532 0
-490 -533 0
-490 -534 0
-490 -535 0
-490 -536 0
-490 -537 0
-490 -538 0
-490 -539 0
-490 -540 0
-490 -541 0
-490 -542 0
-490 -543 0
-490 -544 0
-490 -545 0
-490 -546 0
-490 -547 0
-490 -548 0
-490 -549 0
-490 -550 0
-490 -551 0
-490 -552 0
-490 -553 0
-490 -554 0
-490 -555 0
-490 -556 0
-490 -557 0
-490 -558 0
-490 -559 0
-490 -560 0
-490 -561 0
-490 -562 0
-490 -563 0
-490 -564 0
-490 -565 0
-490 -566 0
-490 -567 0
-490 -568 0
-490 -569 0
-490 -570 0
-490 -571 0
-490 -572 0
-490 -573 0
-490 -574 0
-490 -575 0
-490 -576 0
-490 -577 0
-490 -578 0
-490 -579 0
-490 -580 0
-490 -581 0
-490 -582 0
-490 -583 0
-490 -584 0
-490 -585 0
-490 -586 0
-490 -587 0
-490 -588 0
-490 -589 0
-490 -590 0
-490 -591 0
-490 -592 0
-490 -593 0
-490 -594 0
-490 -595 0
-490 -596 0
-490 -597 0
-490 -598 0
-490 -599 0
-490 -600 0
-491 -492 0
-491 -493 0
-491 -494 0
-491 -495 0
-491 -496 0
-491 -497 0
-491 -498 0
-491 -499 0
-491 -500 0
-491 -501 0
-491 -502 0
-491 -503 0
-491 -504 0
-491 -505 0
-491 -506 0
-491 -507 0
-491 -508 0
-491 -509 0
-491 -510 0
-491 -511 0
-491 -512 0
-491 -513 0
-491 -514 0
-491 -515 0
-491 -516 0
-491 -517 0
-491 -518 0
-491 -519 0
-491 -520 0
-491 -521 0
-491 -522 0
-491 -523 0
-491 -524 0
-491 -525 0
-491 -526 0
-491 -527 0
-491 -528 0
-491 -529 0
-491 -530 0
-491 -531 0
-491 -532 0
-491 -533 0
-491 -534 0
-491 -535 0
-491 -536 0
-491 -537 0
-491 -538 0
-491 -539 0
-491 -540 0
-491 -541 0
-491 -542 0
-491 -543 0
-491 -544 0
-491 -545 0
-491 -546 0
-491 -547 0
-491 -548 0
-491 -549 0
-491 -550 0
-491 -551 0
-491 -552 0
-491 -553 0
-491 -554 0
-491 -555 0
-491 -556 0
-491 -557 0
-491 -558 0
-491 -559 0
-491 -560 0
-491 -561 0
-491 -562 0
-491 -563 0
-491 -564 0
-491 -565 0
-491 -566 0
-491 -567 0
-491 -568 0
-491 -569 0
-491 -570 0
-491 -571 0
-491 -572 0
-491 -573 0
-491 -574 0
-491 -575 0
-491 -576 0
-491 -577 0
-491 -578 0
-491 -579 0
-491 -580 0
-491 -581 0
-491 -582 0
-491 -583 0
-491 -584 0
-491 -585 0
-491 -586 0
-491 -587 0
-491 -588 0
-491 -589 0
-491 -590 0
-491 -591 0
-491 -592 0
-491 -593 0
-491 -594 0
-491 -595 0
-491 -596 0
-491 -597 0
-491 -598 0
-491 -599 0
-491 -600 0
-492 -493 0
-492 -494 0
-492 -495 0
-492 -496 0
-492 -497 0
-492 -498 0
-492 -499 0
-492 -500 0
-492 -501 0
-492 -502 0
-492 -503 0
-492 -504 0
-492 -505 0
-492 -506 0
-492 -507 0
-492 -508 0
-492 -509 0
-492 -510 0
-492 -511 0
-492 -512 0
-492 -513 0
-492 -514 0
-492 -515 0
-492 -516 0
-492 -517 0
-492 -518 0
-492 -519 0
-492 -520 0
-492 -521 0
-492 -522 0
-492 -523 0
-492 -524 0
-492 -525 0
-492 -526 0
-492 -527 0
-492 -528 0
-492 -529 0
-492 -530 0
-492 -531 0
-492 -532 0
-492 -533 0
-492 -534 0
-492 -535 0
-492 -536 0
-492 -537 0
-492 -538 0
-492 -539 0
-492 -540 0
-492 -541 0
-492 -542 0
-492 -543 0
-492 -544 0
-492 -545 0
-492 -546 0
-492 -547 0
-492 -548 0
-492 -549 0
-492 -550 0
-492 -551 0
-492 -552 0
-492 -553 0
-492 -554 0
-492 -555 0
-492 -556 0
-492 -557 0
-492 -558 0
-492 -559 0
-492 -560 0
-492 -561 0
-492 -562 0
-492 -563 0
-492 -564 0
-492 -565 0
-492 -566 0
-492 -567 0
-492 -568 0
-492 -569 0
-492 -570 0
-492 -571 0
-492 -572 0
-492 -573 0
-492 -574 0
-492 -575 0
-492 -576 0
-492 -577 0
-492 -578 0
-492 -579 0
-492 -580 0
-492 -581 0
-492 -582 0
-492 -583 0
-492 -584 0
-492 -585 0
-492 -586 0
-492 -587 0
-492 -588 0
-492 -589 0
-492 -590 0
-492 -591 0
-492 -592 0
-492 -593 0
-492 -594 0
-492 -595 0
-492 -596 0
-492 -597 0
-492 -598 0
-492 -599 0
-492 -600 0
-493 -494 0
-493 -495 0
-493 -496 0
-493 -497 0
-493 -498 0
-493 -499 0
-493 -500 0
-493 -501 0
-493 -502 0
-493 -503 0
-493 -504 0
-493 -505 0
-493 -506 0
-493 -507 0
-493 -508 0
-493 -509 0
-493 -510 0
-493 -511 0
-493 -512 0
-493 -513 0
-493 -514 0
-493 -515 0
-493 -516 0
-493 -517 0
-493 -518 0
-493 -519 0
-493 -520 0
-493 -521 0
-493 -522 0
-493 -523 0
-493 -524 0
-493 -525 0
-493 -526 0
-493 -527 0
-493 -528 0
-493 -529 0
-493 -530 0
-493 -531 0
-493 -532 0
-493 -533 0
-493 -534 0
-493 -535 0
-493 -536 0
-493 -537 0
-493 -538 0
-493 -539 0
-493 -540 0
-493 -541 0
-493 -542 0
-493 -543 0
-493 -544 0
-493 -545 0
-493 -546 0
-493 -547 0
-493 -548 0
-493 -549 0
-493 -550 0
-493 -551 0
-493 -552 0
-493 -553 0
-493 -554 0
-493 -555 0
-493 -556 0
-493 -557 0
-493 -558 0
-493 -559 0
-493 -560 0
-493 -561 0
-493 -562 0
-493 -563 0
-493 -564 0
-493 -565 0
-493 -566 0
-493 -567 0
-493 -568 0
-493 -569 0
-493 -570 0
-493 -571 0
-493 -572 0
-493 -573 0
-493 -574 0
-493 -575 0
-493 -576 0
-493 -577 0
-493 -578 0
-493 -579 0
-493 -580 0
-493 -581 0
-493 -582 0
-493 -583 0
-493 -584 0
-493 -585 0
-493 -586 0
-493 -587 0
-493 -588 0
-493 -589 0
-493 -590 0
-493 -591 0
-493 -592 0
-493 -593 0
-493 -594 0
-493 -595 0
-493 -596 0
-493 -597 0
-493 -598 0
-493 -599 0
-493 -600 0
-494 -495 0
-494 -496 0
-494 -497 0
-494 -498 0
-494 -499 0
-494 -500 0
-494 -501 0
-494 -502 0
-494 -503 0
-494 -504 0
-494 -505 0
-494 -506 0
-494 -507 0
-494 -508 0
-494 -509 0
-494 -510 0
-494 -511 0
-494 -512 0
-494 -513 0
-494 -514 0
-494 -515 0
-494 -516 0
-494 -517 0
-494 -518 0
-494 -519 0
-494 -520 0
-494 -521 0
-494 -522 0
-494 -523 0
-494 -524 0
-494 -525 0
-494 -526 0
-494 -527 0
-494 -528 0
-494 -529 0
-494 -530 0
-494 -531 0
-494 -532 0
-494 -533 0
-494 -534 0
-494 -535 0
-494 -536 0
-494 -537 0
-494 -538 0
-494 -539 0
-494 -540 0
-494 -541 0
-494 -542 0
-494 -543 0
-494 -544 0
-494 -545 0
-494 -546 0
-494 -547 0
-494 -548 0
-494 -549 0
-494 -550 0
-494 -551 0
-494 -552 0
-494 -553 0
-494 -554 0
-494 -555 0
-494 -556 0
-494 -557 0
-494 -558 0
-494 -559 0
-494 -560 0
-494 -561 0
-494 -562 0
-494 -563 0
-494 -564 0
-494 -565 0
-494 -566 0
-494 -567 0
-494 -568 0
-494 -569 0
-494 -570 0
-494 -571 0
-494 -572 0
-494 -573 0
-494 -574 0
-494 -575 0
-494 -576 0
-494 -577 0
-494 -578 0
-494 -579 0
-494 -580 0
-494 -581 0
-494 -582 0
-494 -583 0
-494 -584 0
-494 -585 0
-494 -586 0
-494 -587 0
-494 -588 0
-494 -589 0
-494 -590 0
-494 -591 0
-494 -592 0
-494 -593 0
-494 -594 0
-494 -595 0
-494 -596 0
-494 -597 0
-494 -598 0
-494 -599 0
-494 -600 0
-495 -496 0
-495 -497 0
-495 -498 0
-495 -499 0
-495 -500 0
-495 -501 0
-495 -502 0
-495 -503 0
-495 -504 0
-495 -505 0
-495 -506 0
-495 -507 0
-495 -508 0
-495 -509 0
-495 -510 0
-495 -511 0
-495 -512 0
-495 -513 0
-495 -514 0
-495 -515 0
-495 -516 0
-495 -517 0
-495 -518 0
-495 -519 0
-495 -520 0
-495 -521 0
-495 -522 0
-495 -523 0
-495 -524 0
-495 -525 0
-495 -526 0
-495 -527 0
-495 -528 0
-495 -529 0
-495 -530 0
-495 -531 0
-495 -532 0
-495 -533 0
-495 -534 0
-495 -535 0
-495 -536 0
-495 -537 0
-495 -538 0
-495 -539 0
-495 -540 0
-495 -541 0
-495 -542 0
-495 -543 0
-495 -544 0
-495 -545 0
-495 -546 0
-495 -547 0
-495 -548 0
-495 -549 0
-495 -550 0
-495 -551 0
-495 -552 0
-495 -553 0
-495 -554 0
-495 -555 0
-495 -556 0
-495 -557 0
-495 -558 0
-495 -559 0
-495 -560 0
-495 -561 0
-495 -562 0
-495 -563 0
-495 -564 0
-495 -565 0
-495 -566 0
-495 -567 0
-495 -568 0
-495 -569 0
-495 -570 0
-495 -571 0
-495 -572 0
-495 -573 0
-495 -574 0
-495 -575 0
-495 -576 0
-495 -577 0
-495 -578 0
-495 -579 0
-495 -580 0
-495 -581 0
-495 -582 0
-495 -583 0
-495 -584 0
-495 -585 0
-495 -586 0
-495 -587 0
-495 -588 0
-495 -589 0
-495 -590 0
-495 -591 0
-495 -592 0
-495 -593 0
-495 -594 0
-495 -595 0
-495 -596 0
-495 -597 0
-495 -598 0
-495 -599 0
-495 -600 0
-496 -497 0
-496 -498 0
-496 -499 0
-496 -500 0
-496 -501 0
-496 -502 0
-496 -503 0
-496 -504 0
-496 -505 0
-496 -506 0
-496 -507 0
-496 -508 0
-496 -509 0
-496 -510 0
-496 -511 0
-496 -512 0
-496 -513 0
-496 -514 0
-496 -515 0
-496 -516 0
-496 -517 0
-496 -518 0
-496 -519 0
-496 -520 0
-496 -521 0
-496 -522 0
-496 -523 0
-496 -524 0
-496 -525 0
-496 -526 0
-496 -527 0
-496 -528 0
-496 -529 0
-496 -530 0
-496 -531 0
-496 -532 0
-496 -533 0
-496 -534 0
-496 -535 0
-496 -536 0
-496 -537 0
-496 -538 0
-496 -539 0
-496 -540 0
-496 -541 0
-496 -542 0
-496 -543 0
-496 -544 0
-496 -545 0
-496 -546 0
-496 -547 0
-496 -548 0
-496 -549 0
-496 -550 0
-496 -551 0
-496 -552 0
-496 -553 0
-496 -554 0
-496 -555 0
-496 -556 0
-496 -557 0
-496 -558 0
-496 -559 0
-496 -560 0
-496 -561 0
-496 -562 0
-496 -563 0
-496 -564 0
-496 -565 0
-496 -566 0
-496 -567 0
-496 -568 0
-496 -569 0
-496 -570 0
-496 -571 0
-496 -572 0
-496 -573 0
-496 -574 0
-496 -575 0
-496 -576 0
-496 -577 0
-496 -578 0
-496 -579 0
-496 -580 0
-496 -581 0
-496 -582 0
-496 -583 0
-496 -584 0
-496 -585 0
-496 -586 0
-496 -587 0
-496 -588 0
-496 -589 0
-496 -590 0
-496 -591 0
-496 -592 0
-496 -593 0
-496 -594 0
-496 -595 0
-496 -596 0
-496 -597 0
-496 -598 0
-496 -599 0
-496 -600 0
-497 -498 0
-497 -499 0
-497 -500 0
-497 -501 0
-497 -502 0
-497 -503 0
-497 -504 0
-497 -505 0
-497 -506 0
-497 -507 0
-497 -508 0
-497 -509 0
-497 -510 0
-497 -511 0
-497 -512 0
-497 -513 0
-497 -514 0
-497 -515 0
-497 -516 0
-497 -517 0
-497 -518 0
-497 -519 0
-497 -520 0
-497 -521 0
-497 -522 0
-497 -523 0
-497 -524 0
-497 -525 0
-497 -526 0
-497 -527 0
-497 -528 0
-497 -529 0
-497 -530 0
-497 -531 0
-497 -532 0
-497 -533 0
-497 -534 0
-497 -535 0
-497 -536 0
-497 -537 0
-497 -538 0
-497 -539 0
-497 -540 0
-497 -541 0
-497 -542 0
-497 -543 0
-497 -544 0
-497 -545 0
-497 -546 0
-497 -547 0
-497 -548 0
-497 -549 0
-497 -550 0
-497 -551 0
-497 -552 0
-497 -553 0
-497 -554 0
-497 -555 0
-497 -556 0
-497 -557 0
-497 -558 0
-497 -559 0
-497 -560 0
-497 -561 0
-497 -562 0
-497 -563 0
-497 -564 0
-497 -565 0
-497 -566 0
-497 -567 0
-497 -568 0
-497 -569 0
-497 -570 0
-497 -571 0
-497 -572 0
-497 -573 0
-497 -574 0
-497 -575 0
-497 -576 0
-497 -577 0
-497 -578 0
-497 -579 0
-497 -580 0
-497 -581 0
-497 -582 0
-497 -583 0
-497 -584 0
-497 -585 0
-497 -586 0
-497 -587 0
-497 -588 0
-497 -589 0
-497 -590 0
-497 -591 0
-497 -592 0
-497 -593 0
-497 -594 0
-497 -595 0
-497 -596 0
-497 -597 0
-497 -598 0
-497 -599 0
-497 -600 0
-498 -499 0
-498 -500 0
-498 -501 0
-498 -502 0
-498 -503 0
-498 -504 0
-498 -505 0
-498 -506 0
-498 -507 0
-498 -508 0
-498 -509 0
-498 -510 0
-498 -511 0
-498 -512 0
-498 -513 0
-498 -514 0
-498 -515 0
-498 -516 0
-498 -517 0
-498 -518 0
-498 -519 0
-498 -520 0
-498 -521 0
-498 -522 0
-498 -523 0
-498 -524 0
-498 -525 0
-498 -526 0
-498 -527 0
-498 -528 0
-498 -529 0
-498 -530 0
-498 -531 0
-498 -532 0
-498 -533 0
-498 -534 0
-498 -535 0
-498 -536 0
-498 -537 0
-498 -538 0
-498 -539 0
-498 -540 0
-498 -541 0
-498 -542 0
-498 -543 0
-498 -544 0
-498 -545 0
-498 -546 0
-498 -547 0
-498 -548 0
-498 -549 0
-498 -550 0
-498 -551 0
-498 -552 0
-498 -553 0
-498 -554 0
-498 -555 0
-498 -556 0
-498 -557 0
-498 -558 0
-498 -559 0
-498 -560 0
-498 -561 0
-498 -562 0
-498 -563 0
-498 -564 0
-498 -565 0
-498 -566 0
-498 -567 0
-498 -568 0
-498 -569 0
-498 -570 0
-498 -571 0
-498 -572 0
-498 -573 0
-498 -574 0
-498 -575 0
-498 -576 0
-498 -577 0
-498 -578 0
-498 -579 0
-498 -580 0
-498 -581 0
-498 -582 0
-498 -583 0
-498 -584 0
-498 -585 0
-498 -586 0
-498 -587 0
-498 -588 0
-498 -589 0
-498 -590 0
-498 -591 0
-498 -592 0
-498 -593 0
-498 -594 0
-498 -595 0
-498 -596 0
-498 -597 0
-498 -598 0
-498 -599 0
-498 -600 0
-499 -500 0
-499 -501 0
-499 -502 0
-499 -503 0
-499 -504 0
-499 -505 0
-499 -506 0
-499 -507 0
-499 -508 0
-499 -509 0
-499 -510 0
-499 -511 0
-499 -512 0
-499 -513 0
-499 -514 0
-499 -515 0
-499 -516 0
-499 -517 0
-499 -518 0
-499 -519 0
-499 -520 0
-499 -521 0
-499 -522 0
-499 -523 0
-499 -524 0
-499 -525 0
-499 -526 0
-499 -527 0
-499 -528 0
-499 -529 0
-499 -530 0
-499 -531 0
-499 -532 0
-499 -533 0
-499 -534 0
-499 -535 0
-499 -536 0
-499 -537 0
-499 -538 0
-499 -539 0
-499 -540 0
-499 -541 0
-499 -542 0
-499 -543 0
-499 -544 0
-499 -545 0
-499 -546 0
-499 -547 0
-499 -548 0
-499 -549 0
-499 -550 0
-499 -551 0
-499 -552 0
-499 -553 0
-499 -554 0
-499 -555 0
-499 -556 0
-499 -557 0
-499 -558 0
-499 -559 0
-499 -560 0
-499 -561 0
-499 -562 0
-499 -563 0
-499 -564 0
-499 -565 0
-499 -566 0
-499 -567 0
-499 -568 0
-499 -569 0
-499 -570 0
-499 -571 0
-499 -572 0
-499 -573 0
-499 -574 0
-499 -575 0
-499 -576 0
-499 -577 0
-499 -578 0
-499 -579 0
-499 -580 0
-499 -581 0
-499 -582 0
-499 -583 0
-499 -584 0
-499 -585 0
-499 -586 0
-499 -587 0
-499 -588 0
-499 -589 0
-499 -590 0
-499 -591 0
-499 -592 0
-499 -593 0
-499 -594 0
-499 -595 0
-499 -596 0
-499 -597 0
-499 -598 0
-499 -599 0
-499 -600 0
-500 -501 0
-500 -502 0
-500 -503 0
-500 -504 0
-500 -505 0
-500 -506 0
-500 -507 0
-500 -508 0
-500 -509 0
-500 -510 0
-500 -511 0
-500 -512 0
-500 -513 0
-500 -514 0
-500 -515 0
-500 -516 0
-500 -517 0
-500 -518 0
-500 -519 0
-500 -520 0
-500 -521 0
-500 -522 0
-500 -523 0
-500 -524 0
-500 -525 0
-500 -526 0
-500 -527 0
-500 -528 0
-500 -529 0
-500 -530 0
-500 -531 0
-500 -532 0
-500 -533 0
-500 -534 0
-500 -535 0
-500 -536 0
-500 -537 0
-500 -538 0
-500 -539 0
-500 -540 0
-500 -541 0
-500 -542 0
-500 -543 0
-500 -544 0
-500 -545 0
-500 -546 0
-500 -547 0
-500 -548 0
-500 -549 0
-500 -550 0
-500 -551 0
-500 -552 0
-500 -553 0
-500 -554 0
-500 -555 0
-500 -556 0
-500 -557 0
-500 -558 0
-500 -559 0
-500 -560 0
-500 -561 0
-500 -562 0
-500 -563 0
-500 -564 0
-500 -565 0
-500 -566 0
-500 -567 0
-500 -568 0
-500 -569 0
-500 -570 0
-500 -571 0
-500 -572 0
-500 -573 0
-500 -574 0
-500 -575 0
-500 -576 0
-500 -577 0
-500 -578 0
-500 -579 0
-500 -580 0
-500 -581 0
-500 -582 0
-500 -583 0
-500 -584 0
-500 -585 0
-500 -586 0
-500 -587 0
-500 -588 0
-500 -589 0
-500 -590 0
-500 -591 0
-500 -592 0
-500 -593 0
-500 -594 0
-500 -595 0
-500 -596 0
-500 -597 0
-500 -598 0
-500 -599 0
-500 -600 0
-501 -502 0
-501 -503 0
-501 -504 0
-501 -505 0
-501 -506 0
-501 -507 0
-501 -508 0
-501 -509 0
-501 -510 0
-501 -511 0
-501 -512 0
-501 -513 0
-501 -514 0
-501 -515 0
-501 -516 0
-501 -517 0
-501 -518 0
-501 -519 0
-501 -520 0
-501 -521 0
-501 -522 0
-501 -523 0
-501 -524 0
-501 -525 0
-501 -526 0
-501 -527 0
-501 -528 0
-501 -529 0
-501 -530 0
-501 -531 0
-501 -532 0
-501 -533 0
-501 -534 0
-501 -535 0
-501 -536 0
-501 -537 0
-501 -538 0
-501 -539 0
-501 -540 0
-501 -541 0
-501 -542 0
-501 -543 0
-501 -544 0
-501 -545 0
-501 -546 0
-501 -547 0
-501 -548 0
-501 -549 0
-501 -550 0
-501 -551 0
-501 -552 0
-501 -553 0
-501 -554 0
-501 -555 0
-501 -556 0
-501 -557 0
-501 -558 0
-501 -559 0
-501 -560 0
-501 -561 0
-501 -562 0
-501 -563 0
-501 -564 0
-501 -565 0
-501 -566 0
-501 -567 0
-501 -568 0
-501 -569 0
-501 -570 0
-501 -571 0
-501 -572 0
-501 -573 0
-501 -574 0
-501 -575 0
-501 -576 0
-501 -577 0
-501 -578 0
-501 -579 0
-501 -580 0
-501 -581 0
-501 -582 0
-501 -583 0
-501 -584 0
-501 -585 0
-501 -586 0
-501 -587 0
-501 -588 0
-501 -589 0
-501 -590 0
-501 -591 0
-501 -592 0
-501 -593 0
-501 -594 0
-501 -595 0
-501 -596 0
-501 -597 0
-501 -598 0
-501 -599 0
-501 -600 0
-502 -503 0
-502 -504 0
-502 -505 0
-502 -506 0
-502 -507 0
-502 -508 0
-502 -509 0
-502 -510 0
-502 -511 0
-502 -512 0
-502 -513 0
-502 -514 0
-502 -515 0
-502 -516 0
-502 -517 0
-502 -518 0
-502 -519 0
-502 -520 0
-502 -521 0
-502 -522 0
-502 -523 0
-502 -524 0
-502 -525 0
-502 -526 0
-502 -527 0
-502 -528 0
-502 -529 0
-502 -530 0
-502 -531 0
-502 -532 0
-502 -533 0
-502 -534 0
-502 -535 0
-502 -536 0
-502 -537 0
-502 -538 0
-502 -539 0
-502 -540 0
-502 -541 0
-502 -542 0
-502 -543 0
-502 -544 0
-502 -545 0
-502 -546 0
-502 -547 0
-502 -548 0
-502 -549 0
-502 -550 0
-502 -551 0
-502 -552 0
-502 -553 0
-502 -554 0
-502 -555 0
-502 -556 0
-502 -557 0
-502 -558 0
-502 -559 0
-502 -560 0
-502 -561 0
-502 -562 0
-502 -563 0
-502 -564 0
-502 -565 0
-502 -566 0
-502 -567 0
-502 -568 0
-502 -569 0
-502 -570 0
-502 -571 0
-502 -572 0
-502 -573 0
-502 -574 0
-502 -575 0
-502 -576 0
-502 -577 0
-502 -578 0
-502 -579 0
-502 -580 0
-502 -581 0
-502 -582 0
-502 -583 0
-502 -584 0
-502 -585 0
-502 -586 0
-502 -587 0
-502 -588 0
-502 -589 0
-502 -590 0
-502 -591 0
-502 -592 0
-502 -593 0
-502 -594 0
-502 -595 0
-502 -596 0
-502 -597 0
-502 -598 0
-502 -599 0
-502 -600 0
-503 -504 0
-503 -505 0
-503 -506 0
-503 -507 0
-503 -508 0
-503 -509 0
-503 -510 0
-503 -511 0
-503 -512 0
-503 -513 0
-503 -514 0
-503 -515 0
-503 -516 0
-503 -517 0
-503 -518 0
-503 -519 0
-503 -520 0
-503 -521 0
-503 -522 0
-503 -523 0
-503 -524 0
-503 -525 0
-503 -526 0
-503 -527 0
-503 -528 0
-503 -529 0
-503 -530 0
-503 -531 0
-503 -532 0
-503 -533 0
-503 -534 0
-503 -535 0
-503 -536 0
-503 -537 0
-503 -538 0
-503 -539 0
-503 -540 0
-503 -541 0
-503 -542 0
-503 -543 0
-503 -544 0
-503 -545 0
-503 -546 0
-503 -547 0
-503 -548 0
-503 -549 0
-503 -550 0
-503 -551 0
-503 -552 0
-503 -553 0
-503 -554 0
-503 -555 0
-503 -556 0
-503 -557 0
-503 -558 0
-503 -559 0
-503 -560 0
-503 -561 0
-503 -562 0
-503 -563 0
-503 -564 0
-503 -565 0
-503 -566 0
-503 -567 0
-503 -568 0
-503 -569 0
-503 -570 0
-503 -571 0
-503 -572 0
-503 -573 0
-503 -574 0
-503 -575 0
-503 -576 0
-503 -577 0
-503 -578 0
-503 -579 0
-503 -580 0
-503 -581 0
-503 -582 0
-503 -583 0
-503 -584 0
-503 -585 0
-503 -586 0
-503 -587 0
-503 -588 0
-503 -589 0
-503 -590 0
-503 -591 0
-503 -592 0
-503 -593 0
-503 -594 0
-503 -595 0
-503 -596 0
-503 -597 0
-503 -598 0
-503 -599 0
-503 -600 0
-504 -505 0
-504 -506 0
-504 -507 0
-504 -508 0
-504 -509 0
-504 -510 0
-504 -511 0
-504 -512 0
-504 -513 0
-504 -514 0
-504 -515 0
-504 -516 0
-504 -517 0
-504 -518 0
-504 -519 0
-504 -520 0
-504 -521 0
-504 -522 0
-504 -523 0
-504 -524 0
-504 -525 0
-504 -526 0
-504 -527 0
-504 -528 0
-504 -529 0
-504 -530 0
-504 -531 0
-504 -532 0
-504 -533 0
-504 -534 0
-504 -535 0
-504 -536 0
-504 -537 0
-504 -538 0
-504 -539 0
-504 -540 0
-504 -541 0
-504 -542 0
-504 -543 0
-504 -544 0
-504 -545 0
-504 -546 0
-504 -547 0
-504 -548 0
-504 -549 0
-504 -550 0
-504 -551 0
-504 -552 0
-504 -553 0
-504 -554 0
-504 -555 0
-504 -556 0
-504 -557 0
-504 -558 0
-504 -559 0
-504 -560 0
-504 -561 0
-504 -562 0
-504 -563 0
-504 -564 0
-504 -565 0
-504 -566 0
-504 -567 0
-504 -568 0
-504 -569 0
-504 -570 0
-504 -571 0
-504 -572 0
-504 -573 0
-504 -574 0
-504 -575 0
-504 -576 0
-504 -577 0
-504 -578 0
-504 -579 0
-504 -580 0
-504 -581 0
-504 -582 0
-504 -583 0
-504 -584 0
-504 -585 0
-504 -586 0
-504 -587 0
-504 -588 0
-504 -589 0
-504 -590 0
-504 -591 0
-504 -592 0
-504 -593 0
-504 -594 0
-504 -595 0
-504 -596 0
-504 -597 0
-504 -598 0
-504 -599 0
-504 -600 0
-505 -506 0
-505 -507 0
-505 -508 0
-505 -509 0
-505 -510 0
-505 -511 0
-505 -512 0
-505 -513 0
-505 -514 0
-505 -515 0
-505 -516 0
-505 -517 0
-505 -518 0
-505 -519 0
-505 -520 0
-505 -521 0
-505 -522 0
-505 -523 0
-505 -524 0
-505 -525 0
-505 -526 0
-505 -527 0
-505 -528 0
-505 -529 0
-505 -530 0
-505 -531 0
-505 -532 0
-505 -533 0
-505 -534 0
-505 -535 0
-505 -536 0
-505 -537 0
-505 -538 0
-505 -539 0
-505 -540 0
-505 -541 0
-505 -542 0
-505 -543 0
-505 -544 0
-505 -545 0
-505 -546 0
-505 -547 0
-505 -548 0
-505 -549 0
-505 -550 0
-505 -551 0
-505 -552 0
-505 -553 0
-505 -554 0
-505 -555 0
-505 -556 0
-505 -557 0
-505 -558 0
-505 -559 0
-505 -560 0
-505 -561 0
-505 -562 0
-505 -563 0
-505 -564 0
-505 -565 0
-505 -566 0
-505 -567 0
-505 -568 0
-505 -569 0
-505 -570 0
-505 -571 0
-505 -572 0
-505 -573 0
-505 -574 0
-505 -575 0
-505 -576 0
-505 -577 0
-505 -578 0
-505 -579 0
-505 -580 0
-505 -581 0
-505 -582 0
-505 -583 0
-505 -584 0
-505 -585 0
-505 -586 0
-505 -587 0
-505 -588 0
-505 -589 0
-505 -590 0
-505 -591 0
-505 -592 0
-505 -593 0
-505 -594 0
-505 -595 0
-505 -596 0
-505 -597 0
-505 -598 0
-505 -599 0
-505 -600 0
-506 -507 0
-506 -508 0
-506 -509 0
-506 -510 0
-506 -511 0
-506 -512 0
-506 -513 0
-506 -514 0
-506 -515 0
-506 -516 0
-506 -517 0
-506 -518 0
-506 -519 0
-506 -520 0
-506 -521 0
-506 -522 0
-506 -523 0
-506 -524 0
-506 -525 0
-506 -526 0
-506 -527 0
-506 -528 0
-506 -529 0
-506 -530 0
-506 -531 0
-506 -532 0
-506 -533 0
-506 -534 0
-506 -535 0
-506 -536 0
-506 -537 0
-506 -538 0
-506 -539 0
-506 -540 0
-506 -541 0
-506 -542 0
-506 -543 0
-506 -544 0
-506 -545 0
-506 -546 0
-506 -547 0
-506 -548 0
-506 -549 0
-506 -550 0
-506 -551 0
-506 -552 0
-506 -553 0
-506 -554 0
-506 -555 0
-506 -556 0
-506 -557 0
-506 -558 0
-506 -559 0
-506 -560 0
-506 -561 0
-506 -562 0
-506 -563 0
-506 -564 0
-506 -565 0
-506 -566 0
-506 -567 0
-506 -568 0
-506 -569 0
-506 -570 0
-506 -571 0
-506 -572 0
-506 -573 0
-506 -574 0
-506 -575 0
-506 -576 0
-506 -577 0
-506 -578 0
-506 -579 0
-506 -580 0
-506 -581 0
-506 -582 0
-506 -583 0
-506 -584 0
-506 -585 0
-506 -586 0
-506 -587 0
-506 -588 0
-506 -589 0
-506 -590 0
-506 -591 0
-506 -592 0
-506 -593 0
-506 -594 0
-506 -595 0
-506 -596 0
-506 -597 0
-506 -598 0
-506 -599 0
-506 -600 0
-507 -508 0
-507 -509 0
-507 -510 0
-507 -511 0
-507 -512 0
-507 -513 0
-507 -514 0
-507 -515 0
-507 -516 0
-507 -517 0
-507 -518 0
-507 -519 0
-507 -520 0
-507 -521 0
-507 -522 0
-507 -523 0
-507 -524 0
-507 -525 0
-507 -526 0
-507 -527 0
-507 -528 0
-507 -529 0
-507 -530 0
-507 -531 0
-507 -532 0
-507 -533 0
-507 -534 0
-507 -535 0
-507 -536 0
-507 -537 0
-507 -538 0
-507 -539 0
-507 -540 0
-507 -541 0
-507 -542 0
-507 -543 0
-507 -544 0
-507 -545 0
-507 -546 0
-507 -547 0
-507 -548 0
-507 -549 0
-507 -550 0
-507 -551 0
-507 -552 0
-507 -553 0
-507 -554 0
-507 -555 0
-507 -556 0
-507 -557 0
-507 -558 0
-507 -559 0
-507 -560 0
-507 -561 0
-507 -562 0
-507 -563 0
-507 -564 0
-507 -565 0
-507 -566 0
-507 -567 0
-507 -568 0
-507 -569 0
-507 -570 0
-507 -571 0
-507 -572 0
-507 -573 0
-507 -574 0
-507 -575 0
-507 -576 0
-507 -577 0
-507 -578 0
-507 -579 0
-507 -580 0
-507 -581 0
-507 -582 0
-507 -583 0
-507 -584 0
-507 -585 0
-507 -586 0
-507 -587 0
-507 -588 0
-507 -589 0
-507 -590 0
-507 -591 0
-507 -592 0
-507 -593 0
-507 -594 0
-507 -595 0
-507 -596 0
-507 -597 0
-507 -598 0
-507 -599 0
-507 -600 0
-508 -509 0
-508 -510 0
-508 -511 0
-508 -512 0
-508 -513 0
-508 -514 0
-508 -515 0
-508 -516 0
-508 -517 0
-508 -518 0
-508 -519 0
-508 -520 0
-508 -521 0
-508 -522 0
-508 -523 0
-508 -524 0
-508 -525 0
-508 -526 0
-508 -527 0
-508 -528 0
-508 -529 0
-508 -530 0
-508 -531 0
-508 -532 0
-508 -533 0
-508 -534 0
-508 -535 0
-508 -536 0
-508 -537 0
-508 -538 0
-508 -539 0
-508 -540 0
-508 -541 0
-508 -542 0
-508 -543 0
-508 -544 0
-508 -545 0
-508 -546 0
-508 -547 0
-508 -548 0
-508 -549 0
-508 -550 0
-508 -551 0
-508 -552 0
-508 -553 0
-508 -554 0
-508 -555 0
-508 -556 0
-508 -557 0
-508 -558 0
-508 -559 0
-508 -560 0
-508 -561 0
-508 -562 0
-508 -563 0
-508 -564 0
-508 -565 0
-508 -566 0
-508 -567 0
-508 -568 0
-508 -569 0
-508 -570 0
-508 -571 0
-508 -572 0
-508 -573 0
-508 -574 0
-508 -575 0
-508 -576 0
-508 -577 0
-508 -578 0
-508 -579 0
-508 -580 0
-508 -581 0
-508 -582 0
-508 -583 0
-508 -584 0
-508 -585 0
-508 -586 0
-508 -587 0
-508 -588 0
-508 -589 0
-508 -590 0
-508 -591 0
-508 -592 0
-508 -593 0
-508 -594 0
-508 -595 0
-508 -596 0
-508 -597 0
-508 -598 0
-508 -599 0
-508 -600 0
-509 -510 0
-509 -511 0
-509 -512 0
-509 -513 0
-509 -514 0
-509 -515 0
-509 -516 0
-509 -517 0
-509 -518 0
-509 -519 0
-509 -520 0
-509 -521 0
-509 -522 0
-509 -523 0
-509 -524 0
-509 -525 0
-509 -526 0
-509 -527 0
-509 -528 0
-509 -529 0
-509 -530 0
-509 -531 0
-509 -532 0
-509 -533 0
-509 -534 0
-509 -535 0
-509 -536 0
-509 -537 0
-509 -538 0
-509 -539 0
-509 -540 0
-509 -541 0
-509 -542 0
-509 -543 0
-509 -544 0
-509 -545 0
-509 -546 0
-509 -547 0
-509 -548 0
-509 -549 0
-509 -550 0
-509 -551 0
-509 -552 0
-509 -553 0
-509 -554 0
-509 -555 0
-509 -556 0
-509 -557 0
-509 -558 0
-509 -559 0
-509 -560 0
-509 -561 0
-509 -562 0
-509 -563 0
-509 -564 0
-509 -565 0
-509 -566 0
-509 -567 0
-509 -568 0
-509 -569 0
-509 -570 0
-509 -571 0
-509 -572 0
-509 -573 0
-509 -574 0
-509 -575 0
-509 -576 0
-509 -577 0
-509 -578 0
-509 -579 0
-509 -580 0
-509 -581 0
-509 -582 0
-509 -583 0
-509 -584 0
-509 -585 0
-509 -586 0
-509 -587 0
-509 -588 0
-509 -589 0
-509 -590 0
-509 -591 0
-509 -592 0
-509 -593 0
-509 -594 0
-509 -595 0
-509 -596 0
-509 -597 0
-509 -598 0
-509 -599 0
-509 -600 0
-510 -511 0
-510 -512 0
-510 -513 0
-510 -514 0
-510 -515 0
-510 -516 0
-510 -517 0
-510 -518 0
-510 -519 0
-510 -520 0
-510 -521 0
-510 -522 0
-510 -523 0
-510 -524 0
-510 -525 0
-510 -526 0
-510 -527 0
-510 -528 0
-510 -529 0
-510 -530 0
-510 -531 0
-510 -532 0
-510 -533 0
-510 -534 0
-510 -535 0
-510 -536 0
-510 -537 0
-510 -538 0
-510 -539 0
-510 -540 0
-510 -541 0
-510 -542 0
-510 -543 0
-510 -544 0
-510 -545 0
-510 -546 0
-510 -547 0
-510 -548 0
-510 -549 0
-510 -550 0
-510 -551 0
-510 -552 0
-510 -553 0
-510 -554 0
-510 -555 0
-510 -556 0
-510 -557 0
-510 -558 0
-510 -559 0
-510 -560 0
-510 -561 0
-510 -562 0
-510 -563 0
-510 -564 0
-510 -565 0
-510 -566 0
-510 -567 0
-510 -568 0
-510 -569 0
-510 -570 0
-510 -571 0
-510 -572 0
-510 -573 0
-510 -574 0
-510 -575 0
-510 -576 0
-510 -577 0
-510 -578 0
-510 -579 0
-510 -580 0
-510 -581 0
-510 -582 0
-510 -583 0
-510 -584 0
-510 -585 0
-510 -586 0
-510 -587 0
-510 -588 0
-510 -589 0
-510 -590 0
-510 -591 0
-510 -592 0
-510 -593 0
-510 -594 0
-510 -595 0
-510 -596 0
-510 -597 0
-510 -598 0
-510 -599 0
-510 -600 0
-511 -512 0
-511 -513 0
-511 -514 0
-511 -515 0
-511 -516 0
-511 -517 0
-511 -518 0
-511 -519 0
-511 -520 0
-511 -521 0
-511 -522 0
-511 -523 0
-511 -524 0
-511 -525 0
-511 -526 0
-511 -527 0
-511 -528 0
-511 -529 0
-511 -530 0
-511 -531 0
-511 -532 0
-511 -533 0
-511 -534 0
-511 -535 0
-511 -536 0
-511 -537 0
-511 -538 0
-511 -539 0
-511 -540 0
-511 -541 0
-511 -542 0
-511 -543 0
-511 -544 0
-511 -545 0
-511 -546 0
-511 -547 0
-511 -548 0
-511 -549 0
-511 -550 0
-511 -551 0
-511 -552 0
-511 -553 0
-511 -554 0
-511 -555 0
-511 -556 0
-511 -557 0
-511 -558 0
-511 -559 0
-511 -560 0
-511 -561 0
-511 -562 0
-511 -563 0
-511 -564 0
-511 -565 0
-511 -566 0
-511 -567 0
-511 -568 0
-511 -569 0
-511 -570 0
-511 -571 0
-511 -572 0
-511 -573 0
-511 -574 0
-511 -575 0
-511 -576 0
-511 -577 0
-511 -578 0
-511 -579 0
-511 -580 0
-511 -581 0
-511 -582 0
-511 -583 0
-511 -584 0
-511 -585 0
-511 -586 0
-511 -587 0
-511 -588 0
-511 -589 0
-511 -590 0
-511 -591 0
-511 -592 0
-511 -593 0
-511 -594 0
-511 -595 0
-511 -596 0
-511 -597 0
-511 -598 0
-511 -599 0
-511 -600 0
-512 -513 0
-512 -514 0
-512 -515 0
-512 -516 0
-512 -517 0
-512 -518 0
-512 -519 0
-512 -520 0
-512 -521 0
-512 -522 0
-512 -523 0
-512 -524 0
-512 -525 0
-512 -526 0
-512 -527 0
-512 -528 0
-512 -529 0
-512 -530 0
-512 -531 0
-512 -532 0
-512 -533 0
-512 -534 0
-512 -535 0
-512 -536 0
-512 -537 0
-512 -538 0
-512 -539 0
-512 -540 0
-512 -541 0
-512 -542 0
-512 -543 0
-512 -544 0
-512 -545 0
-512 -546 0
-512 -547 0
-512 -548 0
-512 -549 0
-512 -550 0
-512 -551 0
-512 -552 0
-512 -553 0
-512 -554 0
-512 -555 0
-512 -556 0
-512 -557 0
-512 -558 0
-512 -559 0
-512 -560 0
-512 -561 0
-512 -562 0
-512 -563 0
-512 -564 0
-512 -565 0
-512 -566 0
-512 -567 0
-512 -568 0
-512 -569 0
-512 -570 0
-512 -571 0
-512 -572 0
-512 -573 0
-512 -574 0
-512 -575 0
-512 -576 0
-512 -577 0
-512 -578 0
-512 -579 0
-512 -580 0
-512 -581 0
-512 -582 0
-512 -583 0
-512 -584 0
-512 -585 0
-512 -586 0
-512 -587 0
-512 -588 0
-512 -589 0
-512 -590 0
-512 -591 0
-512 -592 0
-512 -593 0
-512 -594 0
-512 -595 0
-512 -596 0
-512 -597 0
-512 -598 0
-512 -599 0
-512 -600 0
-513 -514 0
-513 -515 0
-513 -516 0
-513 -517 0
-513 -518 0
-513 -519 0
-513 -520 0
-513 -521 0
-513 -522 0
-513 -523 0
-513 -524 0
-513 -525 0
-513 -526 0
-513 -527 0
-513 -528 0
-513 -529 0
-513 -530 0
-513 -531 0
-513 -532 0
-513 -533 0
-513 -534 0
-513 -535 0
-513 -536 0
-513 -537 0
-513 -538 0
-513 -539 0
-513 -540 0
-513 -541 0
-513 -542 0
-513 -543 0
-513 -544 0
-513 -545 0
-513 -546 0
-513 -547 0
-513 -548 0
-513 -549 0
-513 -550 0
-513 -551 0
-513 -552 0
-513 -553 0
-513 -554 0
-513 -555 0
-513 -556 0
-513 -557 0
-513 -558 0
-513 -559 0
-513 -560 0
-513 -561 0
-513 -562 0
-513 -563 0
-513 -564 0
-513 -565 0
-513 -566 0
-513 -567 0
-513 -568 0
-513 -569 0
-513 -570 0
-513 -571 0
-513 -572 0
-513 -573 0
-513 -574 0
-513 -575 0
-513 -576 0
-513 -577 0
-513 -578 0
-513 -579 0
-513 -580 0
-513 -581 0
-513 -582 0
-513 -583 0
-513 -584 0
-513 -585 0
-513 -586 0
-513 -587 0
-513 -588 0
-513 -589 0
-513 -590 0
-513 -591 0
-513 -592 0
-513 -593 0
-513 -594 0
-513 -595 0
-513 -596 0
-513 -597 0
-513 -598 0
-513 -599 0
-513 -600 0
-514 -515 0
-514 -516 0
-514 -517 0
-514 -518 0
-514 -519 0
-514 -520 0
-514 -521 0
-514 -522 0
-514 -523 0
-514 -524 0
-514 -525 0
-514 -526 0
-514 -527 0
-514 -528 0
-514 -529 0
-514 -530 0
-514 -531 0
-514 -532 0
-514 -533 0
-514 -534 0
-514 -535 0
-514 -536 0
-514 -537 0
-514 -538 0
-514 -539 0
-514 -540 0
-514 -541 0
-514 -542 0
-514 -543 0
-514 -544 0
-514 -545 0
-514 -546 0
-514 -547 0
-514 -548 0
-514 -549 0
-514 -550 0
-514 -551 0
-514 -552 0
-514 -553 0
-514 -554 0
-514 -555 0
-514 -556 0
-514 -557 0
-514 -558 0
-514 -559 0
-514 -560 0
-514 -561 0
-514 -562 0
-514 -563 0
-514 -564 0
-514 -565 0
-514 -566 0
-514 -567 0
-514 -568 0
-514 -569 0
-514 -570 0
-514 -571 0
-514 -572 0
-514 -573 0
-514 -574 0
-514 -575 0
-514 -576 0
-514 -577 0
-514 -578 0
-514 -579 0
-514 -580 0
-514 -581 0
-514 -582 0
-514 -583 0
-514 -584 0
-514 -585 0
-514 -586 0
-514 -587 0
-514 -588 0
-514 -589 0
-514 -590 0
-514 -591 0
-514 -592 0
-514 -593 0
-514 -594 0
-514 -595 0
-514 -596 0
-514 -597 0
-514 -598 0
-514 -599 0
-514 -600 0
-515 -516 0
-515 -517 0
-515 -518 0
-515 -519 0
-515 -520 0
-515 -521 0
-515 -522 0
-515 -523 0
-515 -524 0
-515 -525 0
-515 -526 0
-515 -527 0
-515 -528 0
-515 -529 0
-515 -530 0
-515 -531 0
-515 -532 0
-515 -533 0
-515 -534 0
-515 -535 0
-515 -536 0
-515 -537 0
-515 -538 0
-515 -539 0
-515 -540 0
-515 -541 0
-515 -542 0
-515 -543 0
-515 -544 0
-515 -545 0
-515 -546 0
-515 -547 0
-515 -548 0
-515 -549 0
-515 -550 0
-515 -551 0
-515 -552 0
-515 -553 0
-515 -554 0
-515 -555 0
-515 -556 0
-515 -557 0
-515 -558 0
-515 -559 0
-515 -560 0
-515 -561 0
-515 -562 0
-515 -563 0
-515 -564 0
-515 -565 0
-515 -566 0
-515 -567 0
-515 -568 0
-515 -569 0
-515 -570 0
-515 -571 0
-515 -572 0
-515 -573 0
-515 -574 0
-515 -575 0
-515 -576 0
-515 -577 0
-515 -578 0
-515 -579 0
-515 -580 0
-515 -581 0
-515 -582 0
-515 -583 0
-515 -584 0
-515 -585 0
-515 -586 0
-515 -587 0
-515 -588 0
-515 -589 0
-515 -590 0
-515 -591 0
-515 -592 0
-515 -593 0
-515 -594 0
-515 -595 0
-515 -596 0
-515 -597 0
-515 -598 0
-515 -599 0
-515 -600 0
-516 -517 0
-516 -518 0
-516 -519 0
-516 -520 0
-516 -521 0
-516 -522 0
-516 -523 0
-516 -524 0
-516 -525 0
-516 -526 0
-516 -527 0
-516 -528 0
-516 -529 0
-516 -530 0
-516 -531 0
-516 -532 0
-516 -533 0
-516 -534 0
-516 -535 0
-516 -536 0
-516 -537 0
-516 -538 0
-516 -539 0
-516 -540 0
-516 -541 0
-516 -542 0
-516 -543 0
-516 -544 0
-516 -545 0
-516 -546 0
-516 -547 0
-516 -548 0
-516 -549 0
-516 -550 0
-516 -551 0
-516 -552 0
-516 -553 0
-516 -554 0
-516 -555 0
-516 -556 0
-516 -557 0
-516 -558 0
-516 -559 0
-516 -560 0
-516 -561 0
-516 -562 0
-516 -563 0
-516 -564 0
-516 -565 0
-516 -566 0
-516 -567 0
-516 -568 0
-516 -569 0
-516 -570 0
-516 -571 0
-516 -572 0
-516 -573 0
-516 -574 0
-516 -575 0
-516 -576 0
-516 -577 0
-516 -578 0
-516 -579 0
-516 -580 0
-516 -581 0
-516 -582 0
-516 -583 0
-516 -584 0
-516 -585 0
-516 -586 0
-516 -587 0
-516 -588 0
-516 -589 0
-516 -590 0
-516 -591 0
-516 -592 0
-516 -593 0
-516 -594 0
-516 -595 0
-516 -596 0
-516 -597 0
-516 -598 0
-516 -599 0
-516 -600 0
-517 -518 0
-517 -519 0
-517 -520 0
-517 -521 0
-517 -522 0
-517 -523 0
-517 -524 0
-517 -525 0
-517 -526 0
-517 -527 0
-517 -528 0
-517 -529 0
-517 -530 0
-517 -531 0
-517 -532 0
-517 -533 0
-517 -534 0
-517 -535 0
-517 -536 0
-517 -537 0
-517 -538 0
-517 -539 0
-517 -540 0
-517 -541 0
-517 -542 0
-517 -543 0
-517 -544 0
-517 -545 0
-517 -546 0
-517 -547 0
-517 -548 0
-517 -549 0
-517 -550 0
-517 -551 0
-517 -552 0
-517 -553 0
-517 -554 0
-517 -555 0
-517 -556 0
-517 -557 0
-517 -558 0
-517 -559 0
-517 -560 0
-517 -561 0
-517 -562 0
-517 -563 0
-517 -564 0
-517 -565 0
-517 -566 0
-517 -567 0
-517 -568 0
-517 -569 0
-517 -570 0
-517 -571 0
-517 -572 0
-517 -573 0
-517 -574 0
-517 -575 0
-517 -576 0
-517 -577 0
-517 -578 0
-517 -579 0
-517 -580 0
-517 -581 0
-517 -582 0
-517 -583 0
-517 -584 0
-517 -585 0
-517 -586 0
-517 -587 0
-517 -588 0
-517 -589 0
-517 -590 0
-517 -591 0
-517 -592 0
-517 -593 0
-517 -594 0
-517 -595 0
-517 -596 0
-517 -597 0
-517 -598 0
-517 -599 0
-517 -600 0
-518 -519 0
-518 -520 0
-518 -521 0
-518 -522 0
-518 -523 0
-518 -524 0
-518 -525 0
-518 -526 0
-518 -527 0
-518 -528 0
-518 -529 0
-518 -530 0
-518 -531 0
-518 -532 0
-518 -533 0
-518 -534 0
-518 -535 0
-518 -536 0
-518 -537 0
-518 -538 0
-518 -539 0
-518 -540 0
-518 -541 0
-518 -542 0
-518 -543 0
-518 -544 0
-518 -545 0
-518 -546 0
-518 -547 0
-518 -548 0
-518 -549 0
-518 -550 0
-518 -551 0
-518 -552 0
-518 -553 0
-518 -554 0
-518 -555 0
-518 -556 0
-518 -557 0
-518 -558 0
-518 -559 0
-518 -560 0
-518 -561 0
-518 -562 0
-518 -563 0
-518 -564 0
-518 -565 0
-518 -566 0
-518 -567 0
-518 -568 0
-518 -569 0
-518 -570 0
-518 -571 0
-518 -572 0
-518 -573 0
-518 -574 0
-518 -575 0
-518 -576 0
-518 -577 0
-518 -578 0
-518 -579 0
-518 -580 0
-518 -581 0
-518 -582 0
-518 -583 0
-518 -584 0
-518 -585 0
-518 -586 0
-518 -587 0
-518 -588 0
-518 -589 0
-518 -590 0
-518 -591 0
-518 -592 0
-518 -593 0
-518 -594 0
-518 -595 0
-518 -596 0
-518 -597 0
-518 -598 0
-518 -599 0
-518 -600 0
-519 -520 0
-519 -521 0
-519 -522 0
-519 -523 0
-519 -524 0
-519 -525 0
-519 -526 0
-519 -527 0
-519 -528 0
-519 -529 0
-519 -530 0
-519 -531 0
-519 -532 0
-519 -533 0
-519 -534 0
-519 -535 0
-519 -536 0
-519 -537 0
-519 -538 0
-519 -539 0
-519 -540 0
-519 -541 0
-519 -542 0
-519 -543 0
-519 -544 0
-519 -545 0
-519 -546 0
-519 -547 0
-519 -548 0
-519 -549 0
-519 -550 0
-519 -551 0
-519 -552 0
-519 -553 0
-519 -554 0
-519 -555 0
-519 -556 0
-519 -557 0
-519 -558 0
-519 -559 0
-519 -560 0
-519 -561 0
-519 -562 0
-519 -563 0
-519 -564 0
-519 -565 0
-519 -566 0
-519 -567 0
-519 -568 0
-519 -569 0
-519 -570 0
-519 -571 0
-519 -572 0
-519 -573 0
-519 -574 0
-519 -575 0
-519 -576 0
-519 -577 0
-519 -578 0
-519 -579 0
-519 -580 0
-519 -581 0
-519 -582 0
-519 -583 0
-519 -584 0
-519 -585 0
-519 -586 0
-519 -587 0
-519 -588 0
-519 -589 0
-519 -590 0
-519 -591 0
-519 -592 0
-519 -593 0
-519 -594 0
-519 -595 0
-519 -596 0
-519 -597 0
-519 -598 0
-519 -599 0
-519 -600 0
-520 -521 0
-520 -522 0
-520 -523 0
-520 -524 0
-520 -525 0
-520 -526 0
-520 -527 0
-520 -528 0
-520 -529 0
-520 -530 0
-520 -531 0
-520 -532 0
-520 -533 0
-520 -534 0
-520 -535 0
-520 -536 0
-520 -537 0
-520 -538 0
-520 -539 0
-520 -540 0
-520 -541 0
-520 -542 0
-520 -543 0
-520 -544 0
-520 -545 0
-520 -546 0
-520 -547 0
-520 -548 0
-520 -549 0
-520 -550 0
-520 -551 0
-520 -552 0
-520 -553 0
-520 -554 0
-520 -555 0
-520 -556 0
-520 -557 0
-520 -558 0
-520 -559 0
-520 -560 0
-520 -561 0
-520 -562 0
-520 -563 0
-520 -564 0
-520 -565 0
-520 -566 0
-520 -567 0
-520 -568 0
-520 -569 0
-520 -570 0
-520 -571 0
-520 -572 0
-520 -573 0
-520 -574 0
-520 -575 0
-520 -576 0
-520 -577 0
-520 -578 0
-520 -579 0
-520 -580 0
-520 -581 0
-520 -582 0
-520 -583 0
-520 -584 0
-520 -585 0
-520 -586 0
-520 -587 0
-520 -588 0
-520 -589 0
-520 -590 0
-520 -591 0
-520 -592 0
-520 -593 0
-520 -594 0
-520 -595 0
-520 -596 0
-520 -597 0
-520 -598 0
-520 -599 0
-520 -600 0
-521 -522 0
-521 -523 0
-521 -524 0
-521 -525 0
-521 -526 0
-521 -527 0
-521 -528 0
-521 -529 0
-521 -530 0
-521 -531 0
-521 -532 0
-521 -533 0
-521 -534 0
-521 -535 0
-521 -536 0
-521 -537 0
-521 -538 0
-521 -539 0
-521 -540 0
-521 -541 0
-521 -542 0
-521 -543 0
-521 -544 0
-521 -545 0
-521 -546 0
-521 -547 0
-521 -548 0
-521 -549 0
-521 -550 0
-521 -551 0
-521 -552 0
-521 -553 0
-521 -554 0
-521 -555 0
-521 -556 0
-521 -557 0
-521 -558 0
-521 -559 0
-521 -560 0
-521 -561 0
-521 -562 0
-521 -563 0
-521 -564 0
-521 -565 0
-521 -566 0
-521 -567 0
-521 -568 0
-521 -569 0
-521 -570 0
-521 -571 0
-521 -572 0
-521 -573 0
-521 -574 0
-521 -575 0
-521 -576 0
-521 -577 0
-521 -578 0
-521 -579 0
-521 -580 0
-521 -581 0
-521 -582 0
-521 -583 0
-521 -584 0
-521 -585 0
-521 -586 0
-521 -587 0
-521 -588 0
-521 -589 0
-521 -590 0
-521 -591 0
-521 -592 0
-521 -593 0
-521 -594 0
-521 -595 0
-521 -596 0
-521 -597 0
-521 -598 0
-521 -599 0
-521 -600 0
-522 -523 0
-522 -524 0
-522 -525 0
-522 -526 0
-522 -527 0
-522 -528 0
-522 -529 0
-522 -530 0
-522 -531 0
-522 -532 0
-522 -533 0
-522 -534 0
-522 -535 0
-522 -536 0
-522 -537 0
-522 -538 0
-522 -539 0
-522 -540 0
-522 -541 0
-522 -542 0
-522 -543 0
-522 -544 0
-522 -545 0
-522 -546 0
-522 -547 0
-522 -548 0
-522 -549 0
-522 -550 0
-522 -551 0
-522 -552 0
-522 -553 0
-522 -554 0
-522 -555 0
-522 -556 0
-522 -557 0
-522 -558 0
-522 -559 0
-522 -560 0
-522 -561 0
-522 -562 0
-522 -563 0
-522 -564 0
-522 -565 0
-522 -566 0
-522 -567 0
-522 -568 0
-522 -569 0
-522 -570 0
-522 -571 0
-522 -572 0
-522 -573 0
-522 -574 0
-522 -575 0
-522 -576 0
-522 -577 0
-522 -578 0
-522 -579 0
-522 -580 0
-522 -581 0
-522 -582 0
-522 -583 0
-522 -584 0
-522 -585 0
-522 -586 0
-522 -587 0
-522 -588 0
-522 -589 0
-522 -590 0
-522 -591 0
-522 -592 0
-522 -593 0
-522 -594 0
-522 -595 0
-522 -596 0
-522 -597 0
-522 -598 0
-522 -599 0
-522 -600 0
-523 -524 0
-523 -525 0
-523 -526 0
-523 -527 0
-523 -528 0
-523 -529 0
-523 -530 0
-523 -531 0
-523 -532 0
-523 -533 0
-523 -534 0
-523 -535 0
-523 -536 0
-523 -537 0
-523 -538 0
-523 -539 0
-523 -540 0
-523 -541 0
-523 -542 0
-523 -543 0
-523 -544 0
-523 -545 0
-523 -546 0
-523 -547 0
-523 -548 0
-523 -549 0
-523 -550 0
-523 -551 0
-523 -552 0
-523 -553 0
-523 -554 0
-523 -555 0
-523 -556 0
-523 -557 0
-523 -558 0
-523 -559 0
-523 -560 0
-523 -561 0
-523 -562 0
-523 -563 0
-523 -564 0
-523 -565 0
-523 -566 0
-523 -567 0
-523 -568 0
-523 -569 0
-523 -570 0
-523 -571 0
-523 -572 0
-523 -573 0
-523 -574 0
-523 -575 0
-523 -576 0
-523 -577 0
-523 -578 0
-523 -579 0
-523 -580 0
-523 -581 0
-523 -582 0
-523 -583 0
-523 -584 0
-523 -585 0
-523 -586 0
-523 -587 0
-523 -588 0
-523 -589 0
-523 -590 0
-523 -591 0
-523 -592 0
-523 -593 0
-523 -594 0
-523 -595 0
-523 -596 0
-523 -597 0
-523 -598 0
-523 -599 0
-523 -600 0
-524 -525 0
-524 -526 0
-524 -527 0
-524 -528 0
-524 -529 0
-524 -530 0
-524 -531 0
-524 -532 0
-524 -533 0
-524 -534 0
-524 -535 0
-524 -536 0
-524 -537 0
-524 -538 0
-524 -539 0
-524 -540 0
-524 -541 0
-524 -542 0
-524 -543 0
-524 -544 0
-524 -545 0
-524 -546 0
-524 -547 0
-524 -548 0
-524 -549 0
-524 -550 0
-524 -551 0
-524 -552 0
-524 -553 0
-524 -554 0
-524 -555 0
-524 -556 0
-524 -557 0
-524 -558 0
-524 -559 0
-524 -560 0
-524 -561 0
-524 -562 0
-524 -563 0
-524 -564 0
-524 -565 0
-524 -566 0
-524 -567 0
-524 -568 0
-524 -569 0
-524 -570 0
-524 -571 0
-524 -572 0
-524 -573 0
-524 -574 0
-524 -575 0
-524 -576 0
-524 -577 0
-524 -578 0
-524 -579 0
-524 -580 0
-524 -581 0
-524 -582 0
-524 -583 0
-524 -584 0
-524 -585 0
-524 -586 0
-524 -587 0
-524 -588 0
-524 -589 0
-524 -590 0
-524 -591 0
-524 -592 0
-524 -593 0
-524 -594 0
-524 -595 0
-524 -596 0
-524 -597 0
-524 -598 0
-524 -599 0
-524 -600 0
-525 -526 0
-525 -527 0
-525 -528 0
-525 -529 0
-525 -530 0
-525 -531 0
-525 -532 0
-525 -533 0
-525 -534 0
-525 -535 0
-525 -536 0
-525 -537 0
-525 -538 0
-525 -539 0
-525 -540 0
-525 -541 0
-525 -542 0
-525 -543 0
-525 -544 0
-525 -545 0
-525 -546 0
-525 -547 0
-525 -548 0
-525 -549 0
-525 -550 0
-525 -551 0
-525 -552 0
-525 -553 0
-525 -554 0
-525 -555 0
-525 -556 0
-525 -557 0
-525 -558 0
-525 -559 0
-525 -560 0
-525 -561 0
-525 -562 0
-525 -563 0
-525 -564 0
-525 -565 0
-525 -566 0
-525 -567 0
-525 -568 0
-525 -569 0
-525 -570 0
-525 -571 0
-525 -572 0
-525 -573 0
-525 -574 0
-525 -575 0
-525 -576 0
-525 -577 0
-525 -578 0
-525 -579 0
-525 -580 0
-525 -581 0
-525 -582 0
-525 -583 0
-525 -584 0
-525 -585 0
-525 -586 0
-525 -587 0
-525 -588 0
-525 -589 0
-525 -590 0
-525 -591 0
-525 -592 0
-525 -593 0
-525 -594 0
-525 -595 0
-525 -596 0
-525 -597 0
-525 -598 0
-525 -599 0
-525 -600 0
-526 -527 0
-526 -528 0
-526 -529 0
-526 -530 0
-526 -531 0
-526 -532 0
-526 -533 0
-526 -534 0
-526 -535 0
-526 -536 0
-526 -537 0
-526 -538 0
-526 -539 0
-526 -540 0
-526 -541 0
-526 -542 0
-526 -543 0
-526 -544 0
-526 -545 0
-526 -546 0
-526 -547 0
-526 -548 0
-526 -549 0
-526 -550 0
-526 -551 0
-526 -552 0
-526 -553 0
-526 -554 0
-526 -555 0
-526 -556 0
-526 -557 0
-526 -558 0
-526 -559 0
-526 -560 0
-526 -561 0
-526 -562 0
-526 -563 0
-526 -564 0
-526 -565 0
-526 -566 0
-526 -567 0
-526 -568 0
-526 -569 0
-526 -570 0
-526 -571 0
-526 -572 0
-526 -573 0
-526 -574 0
-526 -575 0
-526 -576 0
-526 -577 0
-526 -578 0
-526 -579 0
-526 -580 0
-526 -581 0
-526 -582 0
-526 -583 0
-526 -584 0
-526 -585 0
-526 -586 0
-526 -587 0
-526 -588 0
-526 -589 0
-526 -590 0
-526 -591 0
-526 -592 0
-526 -593 0
-526 -594 0
-526 -595 0
-526 -596 0
-526 -597 0
-526 -598 0
-526 -599 0
-526 -600 0
-527 -528 0
-527 -529 0
-527 -530 0
-527 -531 0
-527 -532 0
-527 -533 0
-527 -534 0
-527 -535 0
-527 -536 0
-527 -537 0
-527 -538 0
-527 -539 0
-527 -540 0
-527 -541 0
-527 -542 0
-527 -543 0
-527 -544 0
-527 -545 0
-527 -546 0
-527 -547 0
-527 -548 0
-527 -549 0
-527 -550 0
-527 -551 0
-527 -552 0
-527 -553 0
-527 -554 0
-527 -555 0
-527 -556 0
-527 -557 0
-527 -558 0
-527 -559 0
-527 -560 0
-527 -561 0
-527 -562 0
-527 -563 0
-527 -564 0
-527 -565 0
-527 -566 0
-527 -567 0
-527 -568 0
-527 -569 0
-527 -570 0
-527 -571 0
-527 -572 0
-527 -573 0
-527 -574 0
-527 -575 0
-527 -576 0
-527 -577 0
-527 -578 0
-527 -579 0
-527 -580 0
-527 -581 0
-527 -582 0
-527 -583 0
-527 -584 0
-527 -585 0
-527 -586 0
-527 -587 0
-527 -588 0
-527 -589 0
-527 -590 0
-527 -591 0
-527 -592 0
-527 -593 0
-527 -594 0
-527 -595 0
-527 -596 0
-527 -597 0
-527 -598 0
-527 -599 0
-527 -600 0
-528 -529 0
-528 -530 0
-528 -531 0
-528 -532 0
-528 -533 0
-528 -534 0
-528 -535 0
-528 -536 0
-528 -537 0
-528 -538 0
-528 -539 0
-528 -540 0
-528 -541 0
-528 -542 0
-528 -543 0
-528 -544 0
-528 -545 0
-528 -546 0
-528 -547 0
-528 -548 0
-528 -549 0
-528 -550 0
-528 -551 0
-528 -552 0
-528 -553 0
-528 -554 0
-528 -555 0
-528 -556 0
-528 -557 0
-528 -558 0
-528 -559 0
-528 -560 0
-528 -561 0
-528 -562 0
-528 -563 0
-528 -564 0
-528 -565 0
-528 -566 0
-528 -567 0
-528 -568 0
-528 -569 0
-528 -570 0
-528 -571 0
-528 -572 0
-528 -573 0
-528 -574 0
-528 -575 0
-528 -576 0
-528 -577 0
-528 -578 0
-528 -579 0
-528 -580 0
-528 -581 0
-528 -582 0
-528 -583 0
-528 -584 0
-528 -585 0
-528 -586 0
-528 -587 0
-528 -588 0
-528 -589 0
-528 -590 0
-528 -591 0
-528 -592 0
-528 -593 0
-528 -594 0
-528 -595 0
-528 -596 0
-528 -597 0
-528 -598 0
-528 -599 0
-528 -600 0
-529 -530 0
-529 -531 0
-529 -532 0
-529 -533 0
-529 -534 0
-529 -535 0
-529 -536 0
-529 -537 0
-529 -538 0
-529 -539 0
-529 -540 0
-529 -541 0
-529 -542 0
-529 -543 0
-529 -544 0
-529 -545 0
-529 -546 0
-529 -547 0
-529 -548 0
-529 -549 0
-529 -550 0
-529 -551 0
-529 -552 0
-529 -553 0
-529 -554 0
-529 -555 0
-529 -556 0
-529 -557 0
-529 -558 0
-529 -559 0
-529 -560 0
-529 -561 0
-529 -562 0
-529 -563 0
-529 -564 0
-529 -565 0
-529 -566 0
-529 -567 0
-529 -568 0
-529 -569 0
-529 -570 0
-529 -571 0
-529 -572 0
-529 -573 0
-529 -574 0
-529 -575 0
-529 -576 0
-529 -577 0
-529 -578 0
-529 -579 0
-529 -580 0
-529 -581 0
-529 -582 0
-529 -583 0
-529 -584 0
-529 -585 0
-529 -586 0
-529 -587 0
-529 -588 0
-529 -589 0
-529 -590 0
-529 -591 0
-529 -592 0
-529 -593 0
-529 -594 0
-529 -595 0
-529 -596 0
-529 -597 0
-529 -598 0
-529 -599 0
-529 -600 0
-530 -531 0
-530 -532 0
-530 -533 0
-530 -534 0
-530 -535 0
-530 -536 0
-530 -537 0
-530 -538 0
-530 -539 0
-530 -540 0
-530 -541 0
-530 -542 0
-530 -543 0
-530 -544 0
-530 -545 0
-530 -546 0
-530 -547 0
-530 -548 0
-530 -549 0
-530 -550 0
-530 -551 0
-530 -552 0
-530 -553 0
-530 -554 0
-530 -555 0
-530 -556 0
-530 -557 0
-530 -558 0
-530 -559 0
-530 -560 0
-530 -561 0
-530 -562 0
-530 -563 0
-530 -564 0
-530 -565 0
-530 -566 0
-530 -567 0
-530 -568 0
-530 -569 0
-530 -570 0
-530 -571 0
-530 -572 0
-530 -573 0
-530 -574 0
-530 -575 0
-530 -576 0
-530 -577 0
-530 -578 0
-530 -579 0
-530 -580 0
-530 -581 0
-530 -582 0
-530 -583 0
-530 -584 0
-530 -585 0
-530 -586 0
-530 -587 0
-530 -588 0
-530 -589 0
-530 -590 0
-530 -591 0
-530 -592 0
-530 -593 0
-530 -594 0
-530 -595 0
-530 -596 0
-530 -597 0
-530 -598 0
-530 -599 0
-530 -600 0
-531 -532 0
-531 -533 0
-531 -534 0
-531 -535 0
-531 -536 0
-531 -537 0
-531 -538 0
-531 -539 0
-531 -540 0
-531 -541 0
-531 -542 0
-531 -543 0
-531 -544 0
-531 -545 0
-531 -546 0
-531 -547 0
-531 -548 0
-531 -549 0
-531 -550 0
-531 -551 0
-531 -552 0
-531 -553 0
-531 -554 0
-531 -555 0
-531 -556 0
-531 -557 0
-531 -558 0
-531 -559 0
-531 -560 0
-531 -561 0
-531 -562 0
-531 -563 0
-531 -564 0
-531 -565 0
-531 -566 0
-531 -567 0
-531 -568 0
-531 -569 0
-531 -570 0
-531 -571 0
-531 -572 0
-531 -573 0
-531 -574 0
-531 -575 0
-531 -576 0
-531 -577 0
-531 -578 0
-531 -579 0
-531 -580 0
-531 -581 0
-531 -582 0
-531 -583 0
-531 -584 0
-531 -585 0
-531 -586 0
-531 -587 0
-531 -588 0
-531 -589 0
-531 -590 0
-531 -591 0
-531 -592 0
-531 -593 0
-531 -594 0
-531 -595 0
-531 -596 0
-531 -597 0
-531 -598 0
-531 -599 0
-531 -600 0
-532 -533 0
-532 -534 0
-532 -535 0
-532 -536 0
-532 -537 0
-532 -538 0
-532 -539 0
-532 -540 0
-532 -541 0
-532 -542 0
-532 -543 0
-532 -544 0
-532 -545 0
-532 -546 0
-532 -547 0
-532 -548 0
-532 -549 0
-532 -550 0
-532 -551 0
-532 -552 0
-532 -553 0
-532 -554 0
-532 -555 0
-532 -556 0
-532 -557 0
-532 -558 0
-532 -559 0
-532 -560 0
-532 -561 0
-532 -562 0
-532 -563 0
-532 -564 0
-532 -565 0
-532 -566 0
-532 -567 0
-532 -568 0
-532 -569 0
-532 -570 0
-532 -571 0
-532 -572 0
-532 -573 0
-532 -574 0
-532 -575 0
-532 -576 0
-532 -577 0
-532 -578 0
-532 -579 0
-532 -580 0
-532 -581 0
-532 -582 0
-532 -583 0
-532 -584 0
-532 -585 0
-532 -586 0
-532 -587 0
-532 -588 0
-532 -589 0
-532 -590 0
-532 -591 0
-532 -592 0
-532 -593 0
-532 -594 0
-532 -595 0
-532 -596 0
-532 -597 0
-532 -598 0
-532 -599 0
-532 -600 0
-533 -534 0
-533 -535 0
-533 -536 0
-533 -537 0
-533 -538 0
-533 -539 0
-533 -540 0
-533 -541 0
-533 -542 0
-533 -543 0
-533 -544 0
-533 -545 0
-533 -546 0
-533 -547 0
-533 -548 0
-533 -549 0
-533 -550 0
-533 -551 0
-533 -552 0
-533 -553 0
-533 -554 0
-533 -555 0
-533 -556 0
-533 -557 0
-533 -558 0
-533 -559 0
-533 -560 0
-533 -561 0
-533 -562 0
-533 -563 0
-533 -564 0
-533 -565 0
-533 -566 0
-533 -567 0
-533 -568 0
-533 -569 0
-533 -570 0
-533 -571 0
-533 -572 0
-533 -573 0
-533 -574 0
-533 -575 0
-533 -576 0
-533 -577 0
-533 -578 0
-533 -579 0
-533 -580 0
-533 -581 0
-533 -582 0
-533 -583 0
-533 -584 0
-533 -585 0
-533 -586 0
-533 -587 0
-533 -588 0
-533 -589 0
-533 -590 0
-533 -591 0
-533 -592 0
-533 -593 0
-533 -594 0
-533 -595 0
-533 -596 0
-533 -597 0
-533 -598 0
-533 -599 0
-533 -600 0
-534 -535 0
-534 -536 0
-534 -537 0
-534 -538 0
-534 -539 0
-534 -540 0
-534 -541 0
-534 -542 0
-534 -543 0
-534 -544 0
-534 -545 0
-534 -546 0
-534 -547 0
-534 -548 0
-534 -549 0
-534 -550 0
-534 -551 0
-534 -552 0
-534 -553 0
-534 -554 0
-534 -555 0
-534 -556 0
-534 -557 0
-534 -558 0
-534 -559 0
-534 -560 0
-534 -561 0
-534 -562 0
-534 -563 0
-534 -564 0
-534 -565 0
-534 -566 0
-534 -567 0
-534 -568 0
-534 -569 0
-534 -570 0
-534 -571 0
-534 -572 0
-534 -573 0
-534 -574 0
-534 -575 0
-534 -576 0
-534 -577 0
-534 -578 0
-534 -579 0
-534 -580 0
-534 -581 0
-534 -582 0
-534 -583 0
-534 -584 0
-534 -585 0
-534 -586 0
-534 -587 0
-534 -588 0
-534 -589 0
-534 -590 0
-534 -591 0
-534 -592 0
-534 -593 0
-534 -594 0
-534 -595 0
-534 -596 0
-534 -597 0
-534 -598 0
-534 -599 0
-534 -600 0
-535 -536 0
-535 -537 0
-535 -538 0
-535 -539 0
-535 -540 0
-535 -541 0
-535 -542 0
-535 -543 0
-535 -544 0
-535 -545 0
-535 -546 0
-535 -547 0
-535 -548 0
-535 -549 0
-535 -550 0
-535 -551 0
-535 -552 0
-535 -553 0
-535 -554 0
-535 -555 0
-535 -556 0
-535 -557 0
-535 -558 0
-535 -559 0
-535 -560 0
-535 -561 0
-535 -562 0
-535 -563 0
-535 -564 0
-535 -565 0
-535 -566 0
-535 -567 0
-535 -568 0
-535 -569 0
-535 -570 0
-535 -571 0
-535 -572 0
-535 -573 0
-535 -574 0
-535 -575 0
-535 -576 0
-535 -577 0
-535 -578 0
-535 -579 0
-535 -580 0
-535 -581 0
-535 -582 0
-535 -583 0
-535 -584 0
-535 -585 0
-535 -586 0
-535 -587 0
-535 -588 0
-535 -589 0
-535 -590 0
-535 -591 0
-535 -592 0
-535 -593 0
-535 -594 0
-535 -595 0
-535 -596 0
-535 -597 0
-535 -598 0
-535 -599 0
-535 -600 0
-536 -537 0
-536 -538 0
-536 -539 0
-536 -540 0
-536 -541 0
-536 -542 0
-536 -543 0
-536 -544 0
-536 -545 0
-536 -546 0
-536 -547 0
-536 -548 0
-536 -549 0
-536 -550 0
-536 -551 0
-536 -552 0
-536 -553 0
-536 -554 0
-536 -555 0
-536 -556 0
-536 -557 0
-536 -558 0
-536 -559 0
-536 -560 0
-536 -561 0
-536 -562 0
-536 -563 0
-536 -564 0
-536 -565 0
-536 -566 0
-536 -567 0
-536 -568 0
-536 -569 0
-536 -570 0
-536 -571 0
-536 -572 0
-536 -573 0
-536 -574 0
-536 -575 0
-536 -576 0
-536 -577 0
-536 -578 0
-536 -579 0
-536 -580 0
-536 -581 0
-536 -582 0
-536 -583 0
-536 -584 0
-536 -585 0
-536 -586 0
-536 -587 0
-536 -588 0
-536 -589 0
-536 -590 0
-536 -591 0
-536 -592 0
-536 -593 0
-536 -594 0
-536 -595 0
-536 -596 0
-536 -597 0
-536 -598 0
-536 -599 0
-536 -600 0
-537 -538 0
-537 -539 0
-537 -540 0
-537 -541 0
-537 -542 0
-537 -543 0
-537 -544 0
-537 -545 0
-537 -546 0
-537 -547 0
-537 -548 0
-537 -549 0
-537 -550 0
-537 -551 0
-537 -552 0
-537 -553 0
-537 -554 0
-537 -555 0
-537 -556 0
-537 -557 0
-537 -558 0
-537 -559 0
-537 -560 0
-537 -561 0
-537 -562 0
-537 -563 0
-537 -564 0
-537 -565 0
-537 -566 0
-537 -567 0
-537 -568 0
-537 -569 0
-537 -570 0
-537 -571 0
-537 -572 0
-537 -573 0
-537 -574 0
-537 -575 0
-537 -576 0
-537 -577 0
-537 -578 0
-537 -579 0
-537 -580 0
-537 -581 0
-537 -582 0
-537 -583 0
-537 -584 0
-537 -585 0
-537 -586 0
-537 -587 0
-537 -588 0
-537 -589 0
-537 -590 0
-537 -591 0
-537 -592 0
-537 -593 0
-537 -594 0
-537 -595 0
-537 -596 0
-537 -597 0
-537 -598 0
-537 -599 0
-537 -600 0
-538 -539 0
-538 -540 0
-538 -541 0
-538 -542 0
-538 -543 0
-538 -544 0
-538 -545 0
-538 -546 0
-538 -547 0
-538 -548 0
-538 -549 0
-538 -550 0
-538 -551 0
-538 -552 0
-538 -553 0
-538 -554 0
-538 -555 0
-538 -556 0
-538 -557 0
-538 -558 0
-538 -559 0
-538 -560 0
-538 -561 0
-538 -562 0
-538 -563 0
-538 -564 0
-538 -565 0
-538 -566 0
-538 -567 0
-538 -568 0
-538 -569 0
-538 -570 0
-538 -571 0
-538 -572 0
-538 -573 0
-538 -574 0
-538 -575 0
-538 -576 0
-538 -577 0
-538 -578 0
-538 -579 0
-538 -580 0
-538 -581 0
-538 -582 0
-538 -583 0
-538 -584 0
-538 -585 0
-538 -586 0
-538 -587 0
-538 -588 0
-538 -589 0
-538 -590 0
-538 -591 0
-538 -592 0
-538 -593 0
-538 -594 0
-538 -595 0
-538 -596 0
-538 -597 0
-538 -598 0
-538 -599 0
-538 -600 0
-539 -540 0
-539 -541 0
-539 -542 0
-539 -543 0
-539 -544 0
-539 -545 0
-539 -546 0
-539 -547 0
-539 -548 0
-539 -549 0
-539 -550 0
-539 -551 0
-539 -552 0
-539 -553 0
-539 -554 0
-539 -555 0
-539 -556 0
-539 -557 0
-539 -558 0
-539 -559 0
-539 -560 0
-539 -561 0
-539 -562 0
-539 -563 0
-539 -564 0
-539 -565 0
-539 -566 0
-539 -567 0
-539 -568 0
-539 -569 0
-539 -570 0
-539 -571 0
-539 -572 0
-539 -573 0
-539 -574 0
-539 -575 0
-539 -576 0
-539 -577 0
-539 -578 0
-539 -579 0
-539 -580 0
-539 -581 0
-539 -582 0
-539 -583 0
-539 -584 0
-539 -585 0
-539 -586 0
-539 -587 0
-539 -588 0
-539 -589 0
-539 -590 0
-539 -591 0
-539 -592 0
-539 -593 0
-539 -594 0
-539 -595 0
-539 -596 0
-539 -597 0
-539 -598 0
-539 -599 0
-539 -600 0
-540 -541 0
-540 -542 0
-540 -543 0
-540 -544 0
-540 -545 0
-540 -546 0
-540 -547 0
-540 -548 0
-540 -549 0
-540 -550 0
-540 -551 0
-540 -552 0
-540 -553 0
-540 -554 0
-540 -555 0
-540 -556 0
-540 -557 0
-540 -558 0
-540 -559 0
-540 -560 0
-540 -561 0
-540 -562 0
-540 -563 0
-540 -564 0
-540 -565 0
-540 -566 0
-540 -567 0
-540 -568 0
-540 -569 0
-540 -570 0
-540 -571 0
-540 -572 0
-540 -573 0
-540 -574 0
-540 -575 0
-540 -576 0
-540 -577 0
-540 -578 0
-540 -579 0
-540 -580 0
-540 -581 0
-540 -582 0
-540 -583 0
-540 -584 0
-540 -585 0
-540 -586 0
-540 -587 0
-540 -588 0
-540 -589 0
-540 -590 0
-540 -591 0
-540 -592 0
-540 -593 0
-540 -594 0
-540 -595 0
-540 -596 0
-540 -597 0
-540 -598 0
-540 -599 0
-540 -600 0
-541 -542 0
-541 -543 0
-541 -544 0
-541 -545 0
-541 -546 0
-541 -547 0
-541 -548 0
-541 -549 0
-541 -550 0
-541 -551 0
-541 -552 0
-541 -553 0
-541 -554 0
-541 -555 0
-541 -556 0
-541 -557 0
-541 -558 0
-541 -559 0
-541 -560 0
-541 -561 0
-541 -562 0
-541 -563 0
-541 -564 0
-541 -565 0
-541 -566 0
-541 -567 0
-541 -568 0
-541 -569 0
-541 -570 0
-541 -571 0
-541 -572 0
-541 -573 0
-541 -574 0
-541 -575 0
-541 -576 0
-541 -577 0
-541 -578 0
-541 -579 0
-541 -580 0
-541 -581 0
-541 -582 0
-541 -583 0
-541 -584 0
-541 -585 0
-541 -586 0
-541 -587 0
-541 -588 0
-541 -589 0
-541 -590 0
-541 -591 0
-541 -592 0
-541 -593 0
-541 -594 0
-541 -595 0
-541 -596 0
-541 -597 0
-541 -598 0
-541 -599 0
-541 -600 0
-542 -543 0
-542 -544 0
-542 -545 0
-542 -546 0
-542 -547 0
-542 -548 0
-542 -549 0
-542 -550 0
-542 -551 0
-542 -552 0
-542 -553 0
-542 -554 0
-542 -555 0
-542 -556 0
-542 -557 0
-542 -558 0
-542 -559 0
-542 -560 0
-542 -561 0
-542 -562 0
-542 -563 0
-542 -564 0
-542 -565 0
-542 -566 0
-542 -567 0
-542 -568 0
-542 -569 0
-542 -570 0
-542 -571 0
-542 -572 0
-542 -573 0
-542 -574 0
-542 -575 0
-542 -576 0
-542 -577 0
-542 -578 0
-542 -579 0
-542 -580 0
-542 -581 0
-542 -582 0
-542 -583 0
-542 -584 0
-542 -585 0
-542 -586 0
-542 -587 0
-542 -588 0
-542 -589 0
-542 -590 0
-542 -591 0
-542 -592 0
-542 -593 0
-542 -594 0
-542 -595 0
-542 -596 0
-542 -597 0
-542 -598 0
-542 -599 0
-542 -600 0
-543 -544 0
-543 -545 0
-543 -546 0
-543 -547 0
-543 -548 0
-543 -549 0
-543 -550 0
-543 -551 0
-543 -552 0
-543 -553 0
-543 -554 0
-543 -555 0
-543 -556 0
-543 -557 0
-543 -558 0
-543 -559 0
-543 -560 0
-543 -561 0
-543 -562 0
-543 -563 0
-543 -564 0
-543 -565 0
-543 -566 0
-543 -567 0
-543 -568 0
-543 -569 0
-543 -570 0
-543 -571 0
-543 -572 0
-543 -573 0
-543 -574 0
-543 -575 0
-543 -576 0
-543 -577 0
-543 -578 0
-543 -579 0
-543 -580 0
-543 -581 0
-543 -582 0
-543 -583 0
-543 -584 0
-543 -585 0
-543 -586 0
-543 -587 0
-543 -588 0
-543 -589 0
-543 -590 0
-543 -591 0
-543 -592 0
-543 -593 0
-543 -594 0
-543 -595 0
-543 -596 0
-543 -597 0
-543 -598 0
-543 -599 0
-543 -600 0
-544 -545 0
-544 -546 0
-544 -547 0
-544 -548 0
-544 -549 0
-544 -550 0
-544 -551 0
-544 -552 0
-544 -553 0
-544 -554 0
-544 -555 0
-544 -556 0
-544 -557 0
-544 -558 0
-544 -559 0
-544 -560 0
-544 -561 0
-544 -562 0
-544 -563 0
-544 -564 0
-544 -565 0
-544 -566 0
-544 -567 0
-544 -568 0
-544 -569 0
-544 -570 0
-544 -571 0
-544 -572 0
-544 -573 0
-544 -574 0
-544 -575 0
-544 -576 0
-544 -577 0
-544 -578 0
-544 -579 0
-544 -580 0
-544 -581 0
-544 -582 0
-544 -583 0
-544 -584 0
-544 -585 0
-544 -586 0
-544 -587 0
-544 -588 0
-544 -589 0
-544 -590 0
-544 -591 0
-544 -592 0
-544 -593 0
-544 -594 0
-544 -595 0
-544 -596 0
-544 -597 0
-544 -598 0
-544 -599 0
-544 -600 0
-545 -546 0
-545 -547 0
-545 -548 0
-545 -549 0
-545 -550 0
-545 -551 0
-545 -552 0
-545 -553 0
-545 -554 0
-545 -555 0
-545 -556 0
-545 -557 0
-545 -558 0
-545 -559 0
-545 -560 0
-545 -561 0
-545 -562 0
-545 -563 0
-545 -564 0
-545 -565 0
-545 -566 0
-545 -567 0
-545 -568 0
-545 -569 0
-545 -570 0
-545 -571 0
-545 -572 0
-545 -573 0
-545 -574 0
-545 -575 0
-545 -576 0
-545 -577 0
-545 -578 0
-545 -579 0
-545 -580 0
-545 -581 0
-545 -582 0
-545 -583 0
-545 -584 0
-545 -585 0
-545 -586 0
-545 -587 0
-545 -588 0
-545 -589 0
-545 -590 0
-545 -591 0
-545 -592 0
-545 -593 0
-545 -594 0
-545 -595 0
-545 -596 0
-545 -597 0
-545 -598 0
-545 -599 0
-545 -600 0
-546 -547 0
-546 -548 0
-546 -549 0
-546 -550 0
-546 -551 0
-546 -552 0
-546 -553 0
-546 -554 0
-546 -555 0
-546 -556 0
-546 -557 0
-546 -558 0
-546 -559 0
-546 -560 0
-546 -561 0
-546 -562 0
-546 -563 0
-546 -564 0
-546 -565 0
-546 -566 0
-546 -567 0
-546 -568 0
-546 -569 0
-546 -570 0
-546 -571 0
-546 -572 0
-546 -573 0
-546 -574 0
-546 -575 0
-546 -576 0
-546 -577 0
-546 -578 0
-546 -579 0
-546 -580 0
-546 -581 0
-546 -582 0
-546 -583 0
-546 -584 0
-546 -585 0
-546 -586 0
-546 -587 0
-546 -588 0
-546 -589 0
-546 -590 0
-546 -591 0
-546 -592 0
-546 -593 0
-546 -594 0
-546 -595 0
-546 -596 0
-546 -597 0
-546 -598 0
-546 -599 0
-546 -600 0
-547 -548 0
-547 -549 0
-547 -550 0
-547 -551 0
-547 -552 0
-547 -553 0
-547 -554 0
-547 -555 0
-547 -556 0
-547 -557 0
-547 -558 0
-547 -559 0
-547 -560 0
-547 -561 0
-547 -562 0
-547 -563 0
-547 -564 0
-547 -565 0
-547 -566 0
-547 -567 0
-547 -568 0
-547 -569 0
-547 -570 0
-547 -571 0
-547 -572 0
-547 -573 0
-547 -574 0
-547 -575 0
-547 -576 0
-547 -577 0
-547 -578 0
-547 -579 0
-547 -580 0
-547 -581 0
-547 -582 0
-547 -583 0
-547 -584 0
-547 -585 0
-547 -586 0
-547 -587 0
-547 -588 0
-547 -589 0
-547 -590 0
-547 -591 0
-547 -592 0
-547 -593 0
-547 -594 0
-547 -595 0
-547 -596 0
-547 -597 0
-547 -598 0
-547 -599 0
-547 -600 0
-548 -549 0
-548 -550 0
-548 -551 0
-548 -552 0
-548 -553 0
-548 -554 0
-548 -555 0
-548 -556 0
-548 -557 0
-548 -558 0
-548 -559 0
-548 -560 0
-548 -561 0
-548 -562 0
-548 -563 0
-548 -564 0
-548 -565 0
-548 -566 0
-548 -567 0
-548 -568 0
-548 -569 0
-548 -570 0
-548 -571 0
-548 -572 0
-548 -573 0
-548 -574 0
-548 -575 0
-548 -576 0
-548 -577 0
-548 -578 0
-548 -579 0
-548 -580 0
-548 -581 0
-548 -582 0
-548 -583 0
-548 -584 0
-548 -585 0
-548 -586 0
-548 -587 0
-548 -588 0
-548 -589 0
-548 -590 0
-548 -591 0
-548 -592 0
-548 -593 0
-548 -594 0
-548 -595 0
-548 -596 0
-548 -597 0
-548 -598 0
-548 -599 0
-548 -600 0
-549 -550 0
-549 -551 0
-549 -552 0
-549 -553 0
-549 -554 0
-549 -555 0
-549 -556 0
-549 -557 0
-549 -558 0
-549 -559 0
-549 -560 0
-549 -561 0
-549 -562 0
-549 -563 0
-549 -564 0
-549 -565 0
-549 -566 0
-549 -567 0
-549 -568 0
-549 -569 0
-549 -570 0
-549 -571 0
-549 -572 0
-549 -573 0
-549 -574 0
-549 -575 0
-549 -576 0
-549 -577 0
-549 -578 0
-549 -579 0
-549 -580 0
-549 -581 0
-549 -582 0
-549 -583 0
-549 -584 0
-549 -585 0
-549 -586 0
-549 -587 0
-549 -588 0
-549 -589 0
-549 -590 0
-549 -591 0
-549 -592 0
-549 -593 0
-549 -594 0
-549 -595 0
-549 -596 0
-549 -597 0
-549 -598 0
-549 -599 0
-549 -600 0
-550 -551 0
-550 -552 0
-550 -553 0
-550 -554 0
-550 -555 0
-550 -556 0
-550 -557 0
-550 -558 0
-550 -559 0
-550 -560 0
-550 -561 0
-550 -562 0
-550 -563 0
-550 -564 0
-550 -565 0
-550 -566 0
-550 -567 0
-550 -568 0
-550 -569 0
-550 -570 0
-550 -571 0
-550 -572 0
-550 -573 0
-550 -574 0
-550 -575 0
-550 -576 0
-550 -577 0
-550 -578 0
-550 -579 0
-550 -580 0
-550 -581 0
-550 -582 0
-550 -583 0
-550 -584 0
-550 -585 0
-550 -586 0
-550 -587 0
-550 -588 0
-550 -589 0
-550 -590 0
-550 -591 0
-550 -592 0
-550 -593 0
-550 -594 0
-550 -595 0
-550 -596 0
-550 -597 0
-550 -598 0
-550 -599 0
-550 -600 0
-551 -552 0
-551 -553 0
-551 -554 0
-551 -555 0
-551 -556 0
-551 -557 0
-551 -558 0
-551 -559 0
-551 -560 0
-551 -561 0
-551 -562 0
-551 -563 0
-551 -564 0
-551 -565 0
-551 -566 0
-551 -567 0
-551 -568 0
-551 -569 0
-551 -570 0
-551 -571 0
-551 -572 0
-551 -573 0
-551 -574 0
-551 -575 0
-551 -576 0
-551 -577 0
-551 -578 0
-551 -579 0
-551 -580 0
-551 -581 0
-551 -582 0
-551 -583 0
-551 -584 0
-551 -585 0
-551 -586 0
-551 -587 0
-551 -588 0
-551 -589 0
-551 -590 0
-551 -591 0
-551 -592 0
-551 -593 0
-551 -594 0
-551 -595 0
-551 -596 0
-551 -597 0
-551 -598 0
-551 -599 0
-551 -600 0
-552 -553 0
-552 -554 0
-552 -555 0
-552 -556 0
-552 -557 0
-552 -558 0
-552 -559 0
-552 -560 0
-552 -561 0
-552 -562 0
-552 -563 0
-552 -564 0
-552 -565 0
-552 -566 0
-552 -567 0
-552 -568 0
-552 -569 0
-552 -570 0
-552 -571 0
-552 -572 0
-552 -573 0
-552 -574 0
-552 -575 0
-552 -576 0
-552 -577 0
-552 -578 0
-552 -579 0
-552 -580 0
-552 -581 0
-552 -582 0
-552 -583 0
-552 -584 0
-552 -585 0
-552 -586 0
-552 -587 0
-552 -588 0
-552 -589 0
-552 -590 0
-552 -591 0
-552 -592 0
-552 -593 0
-552 -594 0
-552 -595 0
-552 -596 0
-552 -597 0
-552 -598 0
-552 -599 0
-552 -600 0
-553 -554 0
-553 -555 0
-553 -556 0
-553 -557 0
-553 -558 0
-553 -559 0
-553 -560 0
-553 -561 0
-553 -562 0
-553 -563 0
-553 -564 0
-553 -565 0
-553 -566 0
-553 -567 0
-553 -568 0
-553 -569 0
-553 -570 0
-553 -571 0
-553 -572 0
-553 -573 0
-553 -574 0
-553 -575 0
-553 -576 0
-553 -577 0
-553 -578 0
-553 -579 0
-553 -580 0
-553 -581 0
-553 -582 0
-553 -583 0
-553 -584 0
-553 -585 0
-553 -586 0
-553 -587 0
-553 -588 0
-553 -589 0
-553 -590 0
-553 -591 0
-553 -592 0
-553 -593 0
-553 -594 0
-553 -595 0
-553 -596 0
-553 -597 0
-553 -598 0
-553 -599 0
-553 -600 0
-554 -555 0
-554 -556 0
-554 -557 0
-554 -558 0
-554 -559 0
-554 -560 0
-554 -561 0
-554 -562 0
-554 -563 0
-554 -564 0
-554 -565 0
-554 -566 0
-554 -567 0
-554 -568 0
-554 -569 0
-554 -570 0
-554 -571 0
-554 -572 0
-554 -573 0
-554 -574 0
-554 -575 0
-554 -576 0
-554 -577 0
-554 -578 0
-554 -579 0
-554 -580 0
-554 -581 0
-554 -582 0
-554 -583 0
-554 -584 0
-554 -585 0
-554 -586 0
-554 -587 0
-554 -588 0
-554 -589 0
-554 -590 0
-554 -591 0
-554 -592 0
-554 -593 0
-554 -594 0
-554 -595 0
-554 -596 0
-554 -597 0
-554 -598 0
-554 -599 0
-554 -600 0
-555 -556 0
-555 -557 0
-555 -558 0
-555 -559 0
-555 -560 0
-555 -561 0
-555 -562 0
-555 -563 0
-555 -564 0
-555 -565 0
-555 -566 0
-555 -567 0
-555 -568 0
-555 -569 0
-555 -570 0
-555 -571 0
-555 -572 0
-555 -573 0
-555 -574 0
-555 -575 0
-555 -576 0
-555 -577 0
-555 -578 0
-555 -579 0
-555 -580 0
-555 -581 0
-555 -582 0
-555 -583 0
-555 -584 0
-555 -585 0
-555 -586 0
-555 -587 0
-555 -588 0
-555 -589 0
-555 -590 0
-555 -591 0
-555 -592 0
-555 -593 0
-555 -594 0
-555 -595 0
-555 -596 0
-555 -597 0
-555 -598 0
-555 -599 0
-555 -600 0
-556 -557 0
-556 -558 0
-556 -559 0
-556 -560 0
-556 -561 0
-556 -562 0
-556 -563 0
-556 -564 0
-556 -565 0
-556 -566 0
-556 -567 0
-556 -568 0
-556 -569 0
-556 -570 0
-556 -571 0
-556 -572 0
-556 -573 0
-556 -574 0
-556 -575 0
-556 -576 0
-556 -577 0
-556 -578 0
-556 -579 0
-556 -580 0
-556 -581 0
-556 -582 0
-556 -583 0
-556 -584 0
-556 -585 0
-556 -586 0
-556 -587 0
-556 -588 0
-556 -589 0
-556 -590 0
-556 -591 0
-556 -592 0
-556 -593 0
-556 -594 0
-556 -595 0
-556 -596 0
-556 -597 0
-556 -598 0
-556 -599 0
-556 -600 0
-557 -558 0
-557 -559 0
-557 -560 0
-557 -561 0
-557 -562 0
-557 -563 0
-557 -564 0
-557 -565 0
-557 -566 0
-557 -567 0
-557 -568 0
-557 -569 0
-557 -570 0
-557 -571 0
-557 -572 0
-557 -573 0
-557 -574 0
-557 -575 0
-557 -576 0
-557 -577 0
-557 -578 0
-557 -579 0
-557 -580 0
-557 -581 0
-557 -582 0
-557 -583 0
-557 -584 0
-557 -585 0
-557 -586 0
-557 -587 0
-557 -588 0
-557 -589 0
-557 -590 0
-557 -591 0
-557 -592 0
-557 -593 0
-557 -594 0
-557 -595 0
-557 -596 0
-557 -597 0
-557 -598 0
-557 -599 0
-557 -600 0
-558 -559 0
-558 -560 0
-558 -561 0
-558 -562 0
-558 -563 0
-558 -564 0
-558 -565 0
-558 -566 0
-558 -567 0
-558 -568 0
-558 -569 0
-558 -570 0
-558 -571 0
-558 -572 0
-558 -573 0
-558 -574 0
-558 -575 0
-558 -576 0
-558 -577 0
-558 -578 0
-558 -579 0
-558 -580 0
-558 -581 0
-558 -582 0
-558 -583 0
-558 -584 0
-558 -585 0
-558 -586 0
-558 -587 0
-558 -588 0
-558 -589 0
-558 -590 0
-558 -591 0
-558 -592 0
-558 -593 0
-558 -594 0
-558 -595 0
-558 -596 0
-558 -597 0
-558 -598 0
-558 -599 0
-558 -600 0
-559 -560 0
-559 -561 0
-559 -562 0
-559 -563 0
-559 -564 0
-559 -565 0
-559 -566 0
-559 -567 0
-559 -568 0
-559 -569 0
-559 -570 0
-559 -571 0
-559 -572 0
-559 -573 0
-559 -574 0
-559 -575 0
-559 -576 0
-559 -577 0
-559 -578 0
-559 -579 0
-559 -580 0
-559 -581 0
-559 -582 0
-559 -583 0
-559 -584 0
-559 -585 0
-559 -586 0
-559 -587 0
-559 -588 0
-559 -589 0
-559 -590 0
-559 -591 0
-559 -592 0
-559 -593 0
-559 -594 0
-559 -595 0
-559 -596 0
-559 -597 0
-559 -598 0
-559 -599 0
-559 -600 0
-560 -561 0
-560 -562 0
-560 -563 0
-560 -564 0
-560 -565 0
-560 -566 0
-560 -567 0
-560 -568 0
-560 -569 0
-560 -570 0
-560 -571 0
-560 -572 0
-560 -573 0
-560 -574 0
-560 -575 0
-560 -576 0
-560 -577 0
-560 -578 0
-560 -579 0
-560 -580 0
-560 -581 0
-560 -582 0
-560 -583 0
-560 -584 0
-560 -585 0
-560 -586 0
-560 -587 0
-560 -588 0
-560 -589 0
-560 -590 0
-560 -591 0
-560 -592 0
-560 -593 0
-560 -594 0
-560 -595 0
-560 -596 0
-560 -597 0
-560 -598 0
-560 -599 0
-560 -600 0
-561 -562 0
-561 -563 0
-561 -564 0
-561 -565 0
-561 -566 0
-561 -567 0
-561 -568 0
-561 -569 0
-561 -570 0
-561 -571 0
-561 -572 0
-561 -573 0
-561 -574 0
-561 -575 0
-561 -576 0
-561 -577 0
-561 -578 0
-561 -579 0
-561 -580 0
-561 -581 0
-561 -582 0
-561 -583 0
-561 -584 0
-561 -585 0
-561 -586 0
-561 -587 0
-561 -588 0
-561 -589 0
-561 -590 0
-561 -591 0
-561 -592 0
-561 -593 0
-561 -594 0
-561 -595 0
-561 -596 0
-561 -597 0
-561 -598 0
-561 -599 0
-561 -600 0
-562 -563 0
-562 -564 0
-562 -565 0
-562 -566 0
-562 -567 0
-562 -568 0
-562 -569 0
-562 -570 0
-562 -571 0
-562 -572 0
-562 -573 0
-562 -574 0
-562 -575 0
-562 -576 0
-562 -577 0
-562 -578 0
-562 -579 0
-562 -580 0
-562 -581 0
-562 -582 0
-562 -583 0
-562 -584 0
-562 -585 0
-562 -586 0
-562 -587 0
-562 -588 0
-562 -589 0
-562 -590 0
-562 -591 0
-562 -592 0
-562 -593 0
-562 -594 0
-562 -595 0
-562 -596 0
-562 -597 0
-562 -598 0
-562 -599 0
-562 -600 0
-563 -564 0
-563 -565 0
-563 -566 0
-563 -567 0
-563 -568 0
-563 -569 0
-563 -570 0
-563 -571 0
-563 -572 0
-563 -573 0
-563 -574 0
-563 -575 0
-563 -576 0
-563 -577 0
-563 -578 0
-563 -579 0
-563 -580 0
-563 -581 0
-563 -582 0
-563 -583 0
-563 -584 0
-563 -585 0
-563 -586 0
-563 -587 0
-563 -588 0
-563 -589 0
-563 -590 0
-563 -591 0
-563 -592 0
-563 -593 0
-563 -594 0
-563 -595 0
-563 -596 0
-563 -597 0
-563 -598 0
-563 -599 0
-563 -600 0
-564 -565 0
-564 -566 0
-564 -567 0
-564 -568 0
-564 -569 0
-564 -570 0
-564 -571 0
-564 -572 0
-564 -573 0
-564 -574 0
-564 -575 0
-564 -576 0
-564 -577 0
-564 -578 0
-564 -579 0
-564 -580 0
-564 -581 0
-564 -582 0
-564 -583 0
-564 -584 0
-564 -585 0
-564 -586 0
-564 -587 0
-564 -588 0
-564 -589 0
-564 -590 0
-564 -591 0
-564 -592 0
-564 -593 0
-564 -594 0
-564 -595 0
-564 -596 0
-564 -597 0
-564 -598 0
-564 -599 0
-564 -600 0
-565 -566 0
-565 -567 0
-565 -568 0
-565 -569 0
-565 -570 0
-565 -571 0
-565 -572 0
-565 -573 0
-565 -574 0
-565 -575 0
-565 -576 0
-565 -577 0
-565 -578 0
-565 -579 0
-565 -580 0
-565 -581 0
-565 -582 0
-565 -583 0
-565 -584 0
-565 -585 0
-565 -586 0
-565 -587 0
-565 -588 0
-565 -589 0
-565 -590 0
-565 -591 0
-565 -592 0
-565 -593 0
-565 -594 0
-565 -595 0
-565 -596 0
-565 -597 0
-565 -598 0
-565 -599 0
-565 -600 0
-566 -567 0
-566 -568 0
-566 -569 0
-566 -570 0
-566 -571 0
-566 -572 0
-566 -573 0
-566 -574 0
-566 -575 0
-566 -576 0
-566 -577 0
-566 -578 0
-566 -579 0
-566 -580 0
-566 -581 0
-566 -582 0
-566 -583 0
-566 -584 0
-566 -585 0
-566 -586 0
-566 -587 0
-566 -588 0
-566 -589 0
-566 -590 0
-566 -591 0
-566 -592 0
-566 -593 0
-566 -594 0
-566 -595 0
-566 -596 0
-566 -597 0
-566 -598 0
-566 -599 0
-566 -600 0
-567 -568 0
-567 -569 0
-567 -570 0
-567 -571 0
-567 -572 0
-567 -573 0
-567 -574 0
-567 -575 0
-567 -576 0
-567 -577 0
-567 -578 0
-567 -579 0
-567 -580 0
-567 -581 0
-567 -582 0
-567 -583 0
-567 -584 0
-567 -585 0
-567 -586 0
-567 -587 0
-567 -588 0
-567 -589 0
-567 -590 0
-567 -591 0
-567 -592 0
-567 -593 0
-567 -594 0
-567 -595 0
-567 -596 0
-567 -597 0
-567 -598 0
-567 -599 0
-567 -600 0
-568 -569 0
-568 -570 0
-568 -571 0
-568 -572 0
-568 -573 0
-568 -574 0
-568 -575 0
-568 -576 0
-568 -577 0
-568 -578 0
-568 -579 0
-568 -580 0
-568 -581 0
-568 -582 0
-568 -583 0
-568 -584 0
-568 -585 0
-568 -586 0
-568 -587 0
-568 -588 0
-568 -589 0
-568 -590 0
-568 -591 0
-568 -592 0
-568 -593 0
-568 -594 0
-568 -595 0
-568 -596 0
-568 -597 0
-568 -598 0
-568 -599 0
-568 -600 0
-569 -570 0
-569 -571 0
-569 -572 0
-569 -573 0
-569 -574 0
-569 -575 0
-569 -576 0
-569 -577 0
-569 -578 0
-569 -579 0
-569 -580 0
-569 -581 0
-569 -582 0
-569 -583 0
-569 -584 0
-569 -585 0
-569 -586 0
-569 -587 0
-569 -588 0
-569 -589 0
-569 -590 0
-569 -591 0
-569 -592 0
-569 -593 0
-569 -594 0
-569 -595 0
-569 -596 0
-569 -597 0
-569 -598 0
-569 -599 0
-569 -600 0
-570 -571 0
-570 -572 0
-570 -573 0
-570 -574 0
-570 -575 0
-570 -576 0
-570 -577 0
-570 -578 0
-570 -579 0
-570 -580 0
-570 -581 0
-570 -582 0
-570 -583 0
-570 -584 0
-570 -585 0
-570 -586 0
-570 -587 0
-570 -588 0
-570 -589 0
-570 -590 0
-570 -591 0
-570 -592 0
-570 -593 0
-570 -594 0
-570 -595 0
-570 -596 0
-570 -597 0
-570 -598 0
-570 -599 0
-570 -600 0
-571 -572 0
-571 -573 0
-571 -574 0
-571 -575 0
-571 -576 0
-571 -577 0
-571 -578 0
-571 -579 0
-571 -580 0
-571 -581 0
-571 -582 0
-571 -583 0
-571 -584 0
-571 -585 0
-571 -586 0
-571 -587 0
-571 -588 0
-571 -589 0
-571 -590 0
-571 -591 0
-571 -592 0
-571 -593 0
-571 -594 0
-571 -595 0
-571 -596 0
-571 -597 0
-571 -598 0
-571 -599 0
-571 -600 0
-572 -573 0
-572 -574 0
-572 -575 0
-572 -576 0
-572 -577 0
-572 -578 0
-572 -579 0
-572 -580 0
-572 -581 0
-572 -582 0
-572 -583 0
-572 -584 0
-572 -585 0
-572 -586 0
-572 -587 0
-572 -588 0
-572 -589 0
-572 -590 0
-572 -591 0
-572 -592 0
-572 -593 0
-572 -594 0
-572 -595 0
-572 -596 0
-572 -597 0
-572 -598 0
-572 -599 0
-572 -600 0
-573 -574 0
-573 -575 0
-573 -576 0
-573 -577 0
-573 -578 0
-573 -579 0
-573 -580 0
-573 -581 0
-573 -582 0
-573 -583 0
-573 -584 0
-573 -585 0
-573 -586 0
-573 -587 0
-573 -588 0
-573 -589 0
-573 -590 0
-573 -591 0
-573 -592 0
-573 -593 0
-573 -594 0
-573 -595 0
-573 -596 0
-573 -597 0
-573 -598 0
-573 -599 0
-573 -600 0
-574 -575 0
-574 -576 0
-574 -577 0
-574 -578 0
-574 -579 0
-574 -580 0
-574 -581 0
-574 -582 0
-574 -583 0
-574 -584 0
-574 -585 0
-574 -586 0
-574 -587 0
-574 -588 0
-574 -589 0
-574 -590 0
-574 -591 0
-574 -592 0
-574 -593 0
-574 -594 0
-574 -595 0
-574 -596 0
-574 -597 0
-574 -598 0
-574 -599 0
-574 -600 0
-575 -576 0
-575 -577 0
-575 -578 0
-575 -579 0
-575 -580 0
-575 -581 0
-575 -582 0
-575 -583 0
-575 -584 0
-575 -585 0
-575 -586 0
-575 -587 0
-575 -588 0
-575 -589 0
-575 -590 0
-575 -591 0
-575 -592 0
-575 -593 0
-575 -594 0
-575 -595 0
-575 -596 0
-575 -597 0
-575 -598 0
-575 -599 0
-575 -600 0
-576 -577 0
-576 -578 0
-576 -579 0
-576 -580 0
-576 -581 0
-576 -582 0
-576 -583 0
-576 -584 0
-576 -585 0
-576 -586 0
-576 -587 0
-576 -588 0
-576 -589 0
-576 -590 0
-576 -591 0
-576 -592 0
-576 -593 0
-576 -594 0
-576 -595 0
-576 -596 0
-576 -597 0
-576 -598 0
-576 -599 0
-576 -600 0
-577 -578 0
-577 -579 0
-577 -580 0
-577 -581 0
-577 -582 0
-577 -583 0
-577 -584 0
-577 -585 0
-577 -586 0
-577 -587 0
-577 -588 0
-577 -589 0
-577 -590 0
-577 -591 0
-577 -592 0
-577 -593 0
-577 -594 0
-577 -595 0
-577 -596 0
-577 -597 0
-577 -598 0
-577 -599 0
-577 -600 0
-578 -579 0
-578 -580 0
-578 -581 0
-578 -582 0
-578 -583 0
-578 -584 0
-578 -585 0
-578 -586 0
-578 -587 0
-578 -588 0
-578 -589 0
-578 -590 0
-578 -591 0
-578 -592 0
-578 -593 0
-578 -594 0
-578 -595 0
-578 -596 0
-578 -597 0
-578 -598 0
-578 -599 0
-578 -600 0
-579 -580 0
-579 -581 0
-579 -582 0
-579 -583 0
-579 -584 0
-579 -585 0
-579 -586 0
-579 -587 0
-579 -588 0
-579 -589 0
-579 -590 0
-579 -591 0
-579 -592 0
-579 -593 0
-579 -594 0
-579 -595 0
-579 -596 0
-579 -597 0
-579 -598 0
-579 -599 0
-579 -600 0
-580 -581 0
-580 -582 0
-580 -583 0
-580 -584 0
-580 -585 0
-580 -586 0
-580 -587 0
-580 -588 0
-580 -589 0
-580 -590 0
-580 -591 0
-580 -592 0
-580 -593 0
-580 -594 0
-580 -595 0
-580 -596 0
-580 -597 0
-580 -598 0
-580 -599 0
-580 -600 0
-581 -582 0
-581 -583 0
-581 -584 0
-581 -585 0
-581 -586 0
-581 -587 0
-581 -588 0
-581 -589 0
-581 -590 0
-581 -591 0
-581 -592 0
-581 -593 0
-581 -594 0
-581 -595 0
-581 -596 0
-581 -597 0
-581 -598 0
-581 -599 0
-581 -600 0
-582 -583 0
-582 -584 0
-582 -585 0
-582 -586 0
-582 -587 0
-582 -588 0
-582 -589 0
-582 -590 0
-582 -591 0
-582 -592 0
-582 -593 0
-582 -594 0
-582 -595 0
-582 -596 0
-582 -597 0
-582 -598 0
-582 -599 0
-582 -600 0
-583 -584 0
-583 -585 0
-583 -586 0
-583 -587 0
-583 -588 0
-583 -589 0
-583 -590 0
-583 -591 0
-583 -592 0
-583 -593 0
-583 -594 0
-583 -595 0
-583 -596 0
-583 -597 0
-583 -598 0
-583 -599 0
-583 -600 0
-584 -585 0
-584 -586 0
-584 -587 0
-584 -588 0
-584 -589 0
-584 -590 0
-584 -591 0
-584 -592 0
-584 -593 0
-584 -594 0
-584 -595 0
-584 -596 0
-584 -597 0
-584 -598 0
-584 -599 0
-584 -600 0
-585 -586 0
-585 -587 0
-585 -588 0
-585 -589 0
-585 -590 0
-585 -591 0
-585 -592 0
-585 -593 0
-585 -594 0
-585 -595 0
-585 -596 0
-585 -597 0
-585 -598 0
-585 -599 0
-585 -600 0
-586 -587 0
-586 -588 0
-586 -589 0
-586 -590 0
-586 -591 0
-586 -592 0
-586 -593 0
-586 -594 0
-586 -595 0
-586 -596 0
-586 -597 0
-586 -598 0
-586 -599 0
-586 -600 0
-587 -588 0
-587 -589 0
-587 -590 0
-587 -591 0
-587 -592 0
-587 -593 0
-587 -594 0
-587 -595 0
-587 -596 0
-587 -597 0
-587 -598 0
-587 -599 0
-587 -600 0
-588 -589 0
-588 -590 0
-588 -591 0
-588 -592 0
-588 -593 0
-588 -594 0
-588 -595 0
-588 -596 0
-588 -597 0
-588 -598 0
-588 -599 0
-588 -600 0
-589 -590 0
-589 -591 0
-589 -592 0
-589 -593 0
-589 -594 0
-589 -595 0
-589 -596 0
-589 -597 0
-589 -598 0
-589 -599 0
-589 -600 0
-590 -591 0
-590 -592 0
-590 -593 0
-590 -594 0
-590 -595 0
-590 -596 0
-590 -597 0
-590 -598 0
-590 -599 0
-590 -600 0
-591 -592 0
-591 -593 0
-591 -594 0
-591 -595 0
-591 -596 0
-591 -597 0
-591 -598 0
-591 -599 0
-591 -600 0
-592 -593 0
-592 -594 0
-592 -595 0
-592 -596 0
-592 -597 0
-592 -598 0
-592 -599 0
-592 -600 0
-593 -594 0
-593 -595 0
-593 -596 0
-593 -597 0
-593 -598 0
-593 -599 0
-593 -600 0
-594 -595 0
-594 -596 0
-594 -597 0
-594 -598 0
-594 -599 0
-594 -600 0
-595 -596 0
-595 -597 0
-595 -598 0
-595 -599 0
-595 -600 0
-596 -597 0
-596 -598 0
-596 -599 0
-596 -600 0
-597 -598 0
-597 -599 0
-597 -600 0
-598 -599 0
-598 -600 0
-599 -600 0
-457 -129 0
-457 -130 0
-457 -131 0
-457 132 0
-457 -133 0
-457 -134 0
-457 -135 0
-457 136 0
-457 -137 0
-457 -138 0
-457 -139 0
-457 140 0
-457 -141 0
-457 -142 0
-457 -143 0
-457 144 0
-457 -145 0
-457 -146 0
-457 -147 0
-457 148 0
-457 -149 0
-457 -150 0
-457 -151 0
-457 152 0
-457 -153 0
-457 -154 0
-457 -155 0
-457 156 0
-457 -157 0
-457 -158 0
-457 -159 0
-457 160 0
-458 -129 0
-458 130 0
-458 -131 0
-458 -132 0
-458 -133 0
-458 134 0
-458 -135 0
-458 -136 0
-458 -137 0
-458 138 0
-458 -139 0
-458 -140 0
-458 -141 0
-458 142 0
-458 -143 0
-458 -144 0
-458 -145 0
-458 146 0
-458 -147 0
-458 -148 0
-458 -149 0
-458 150 0
-458 -151 0
-458 -152 0
-458 -153 0
-458 154 0
-458 -155 0
-458 -156 0
-458 -157 0
-458 158 0
-458 -159 0
-458 -160 0
-459 -129 0
-459 -130 0
-459 131 0
-459 -132 0
-459 -133 0
-459 -134 0
-459 135 0
-459 -136 0
-459 -137 0
-459 -138 0
-459 139 0
-459 -140 0
-459 -141 0
-459 -142 0
-459 143 0
-459 -144 0
-459 -145 0
-459 -146 0
-459 147 0
-459 -148 0
-459 -149 0
-459 -150 0
-459 151 0
-459 -152 0
-459 -153 0
-459 -154 0
-459 155 0
-459 -156 0
-459 -157 0
-459 -158 0
-459 159 0
-459 -160 0
-460 129 0
-460 -130 0
-460 -131 0
-460 -132 0
-460 133 0
-460 -134 0
-460 -135 0
-460 -136 0
-460 137 0
-460 -138 0
-460 -139 0
-460 -140 0
-460 141 0
-460 -142 0
-460 -143 0
-460 -144 0
-460 145 0
-460 -146 0
-460 -147 0
-460 -148 0
-460 149 0
-460 -150 0
-460 -151 0
-460 -152 0
-460 153 0
-460 -154 0
-460 -155 0
-460 -156 0
-460 157 0
-460 -158 0
-460 -159 0
-460 -160 0
-461 -129 0
-461 -130 0
-461 -131 0
-461 -132 0
-461 -133 0
-461 134 0
-461 -135 0
-461 136 0
-461 -137 0
-461 -138 0
-461 -139 0
-461 -140 0
-461 -141 0
-461 142 0
-461 -143 0
-461 144 0
-461 -145 0
-461 -146 0
-461 -147 0
-461 -148 0
-461 -149 0
-461 150 0
-461 -151 0
-461 152 0
-461 -153 0
-461 -154 0
-461 -155 0
-461 -156 0
-461 -157 0
-461 158 0
-461 -159 0
-461 160 0
-462 -129 0
-462 130 0
-462 -131 0
-462 132 0
-462 -133 0
-462 -134 0
-462 -135 0
-462 -136 0
-462 -137 0
-462 138 0
-462 -139 0
-462 140 0
-462 -141 0
-462 -142 0
-462 -143 0
-462 -144 0
-462 -145 0
-462 146 0
-462 -147 0
-462 148 0
-462 -149 0
-462 -150 0
-462 -151 0
-462 -152 0
-462 -153 0
-462 154 0
-462 -155 0
-462 156 0
-462 -157 0
-462 -158 0
-462 -159 0
-462 -160 0
-463 -129 0
-463 -130 0
-463 -131 0
-463 -132 0
-463 133 0
-463 -134 0
-463 135 0
-463 -136 0
-463 -137 0
-463 -138 0
-463 -139 0
-463 -140 0
-463 141 0
-463 -142 0
-463 143 0
-463 -144 0
-463 -145 0
-463 -146 0
-463 -147 0
-463 -148 0
-463 149 0
-463 -150 0
-463 151 0
-463 -152 0
-463 -153 0
-463 -154 0
-463 -155 0
-463 -156 0
-463 157 0
-463 -158 0
-463 159 0
-463 -160 0
-464 129 0
-464 -130 0
-464 131 0
-464 -132 0
-464 -133 0
-464 -134 0
-464 -135 0
-464 -136 0
-464 137 0
-464 -138 0
-464 139 0
-464 -140 0
-464 -141 0
-464 -142 0
-464 -143 0
-464 -144 0
-464 145 0
-464 -146 0
-464 147 0
-464 -148 0
-464 -149 0
-464 -150 0
-464 -151 0
-464 -152 0
-464 153 0
-464 -154 0
-464 155 0
-464 -156 0
-464 -157 0
-464 -158 0
-464 -159 0
-464 -160 0
-465 -129 0
-465 -130 0
-465 -131 0
-465 -132 0
-465 -133 0
-465 -134 0
-465 -135 0
-465 -136 0
-465 -137 0
-465 138 0
-465 -139 0
-465 140 0
-465 -141 0
-465 142 0
-465 -143 0
-465 144 0
-465 -145 0
-465 -146 0
-465 -147 0
-465 -148 0
-465 -149 0
-465 -150 0
-465 -151 0
-465 -152 0
-465 -153 0
-465 154 0
-465 -155 0
-465 156 0
-465 -157 0
-465 158 0
-465 -159 0
-465 160 0
-466 -129 0
-466 130 0
-466 -131 0
-466 132 0
-466 -133 0
-466 134 0
-466 -135 0
-466 136 0
-466 -137 0
-466 -138 0
-466 -139 0
-466 -140 0
-466 -141 0
-466 -142 0
-466 -143 0
-466 -144 0
-466 -145 0
-466 146 0
-466 -147 0
-466 148 0
-466 -149 0
-466 150 0
-466 -151 0
-466 152 0
-466 -153 0
-466 -154 0
-466 -155 0
-466 -156 0
-466 -157 0
-466 -158 0
-466 -159 0
-466 -160 0
-467 -129 0
-467 -130 0
-467 -131 0
-467 -132 0
-467 -133 0
-467 -134 0
-467 -135 0
-467 -136 0
-467 137 0
-467 -138 0
-467 139 0
-467 -140 0
-467 141 0
-467 -142 0
-467 143 0
-467 -144 0
-467 -145 0
-467 -146 0
-467 -147 0
-467 -148 0
-467 -149 0
-467 -150 0
-467 -151 0
-467 -152 0
-467 153 0
-467 -154 0
-467 155 0
-467 -156 0
-467 157 0
-467 -158 0
-467 159 0
-467 -160 0
-468 129 0
-468 -130 0
-468 131 0
-468 -132 0
-468 133 0
-468 -134 0
-468 135 0
-468 -136 0
-468 -137 0
-468 -138 0
-468 -139 0
-468 -140 0
-468 -141 0
-468 -142 0
-468 -143 0
-468 -144 0
-468 145 0
-468 -146 0
-468 147 0
-468 -148 0
-468 149 0
-468 -150 0
-468 151 0
-468 -152 0
-468 -153 0
-468 -154 0
-468 -155 0
-468 -156 0
-468 -157 0
-468 -158 0
-468 -159 0
-468 -160 0
-469 -129 0
-469 -130 0
-469 -131 0
-469 -132 0
-469 -133 0
-469 -134 0
-469 -135 0
-469 -136 0
-469 -137 0
-469 -138 0
-469 -139 0
-469 -140 0
-469 -141 0
-469 -142 0
-469 -143 0
-469 -144 0
-469 -145 0
-469 146 0
-469 -147 0
-469 148 0
-469 -149 0
-469 150 0
-469 -151 0
-469 152 0
-469 -153 0
-469 154 0
-469 -155 0
-469 156 0
-469 -157 0
-469 158 0
-469 -159 0
-469 160 0
-470 -129 0
-470 130 0
-470 -131 0
-470 132 0
-470 -133 0
-470 134 0
-470 -135 0
-470 136 0
-470 -137 0
-470 138 0
-470 -139 0
-470 140 0
-470 -141 0
-470 142 0
-470 -143 0
-470 144 0
-470 -145 0
-470 -146 0
-470 -147 0
-470 -148 0
-470 -149 0
-470 -150 0
-470 -151 0
-470 -152 0
-470 -153 0
-470 -154 0
-470 -155 0
-470 -156 0
-470 -157 0
-470 -158 0
-470 -159 0
-470 -160 0
-471 -129 0
-471 -130 0
-471 -131 0
-471 -132 0
-471 -133 0
-471 -134 0
-471 -135 0
-471 -136 0
-471 -137 0
-471 -138 0
-471 -139 0
-471 -140 0
-471 -141 0
-471 -142 0
-471 -143 0
-471 -144 0
-471 145 0
-471 -146 0
-471 147 0
-471 -148 0
-471 149 0
-471 -150 0
-471 151 0
-471 -152 0
-471 153 0
-471 -154 0
-471 155 0
-471 -156 0
-471 157 0
-471 -158 0
-471 159 0
-471 -160 0
-472 129 0
-472 -130 0
-472 131 0
-472 -132 0
-472 133 0
-472 -134 0
-472 135 0
-472 -136 0
-472 137 0
-472 -138 0
-472 139 0
-472 -140 0
-472 141 0
-472 -142 0
-472 143 0
-472 -144 0
-472 -145 0
-472 -146 0
-472 -147 0
-472 -148 0
-472 -149 0
-472 -150 0
-472 -151 0
-472 -152 0
-472 -153 0
-472 -154 0
-472 -155 0
-472 -156 0
-472 -157 0
-472 -158 0
-472 -159 0
-472 -160 0
-473 -129 0
-473 -130 2 0
-473 130 -2 0
-473 -131 0
-473 -132 4 0
-473 132 -4 0
-473 -133 0
-473 -134 6 0
-473 134 -6 0
-473 -135 0
-473 -136 8 0
-473 136 -8 0
-473 -137 0
-473 -138 10 0
-473 138 -10 0
-473 -139 0
-473 -140 12 0
-473 140 -12 0
-473 -141 0
-473 -142 14 0
-473 142 -14 0
-473 -143 0
-473 -144 16 0
-473 144 -16 0
-473 -145 0
-473 -146 18 0
-473 146 -18 0
-473 -147 0
-473 -148 20 0
-473 148 -20 0
-473 -149 0
-473 -150 22 0
-473 150 -22 0
-473 -151 0
-473 -152 24 0
-473 152 -24 0
-473 -153 0
-473 -154 26 0
-473 154 -26 0
-473 -155 0
-473 -156 28 0
-473 156 -28 0
-473 -157 0
-473 -158 30 0
-473 158 -30 0
-473 -159 0
-473 -160 32 0
-473 160 -32 0
-474 -129 0
-474 -130 -2 0
-474 130 2 0
-474 -131 0
-474 -132 -4 0
-474 132 4 0
-474 -133 0
-474 -134 -6 0
-474 134 6 0
-474 -135 0
-474 -136 -8 0
-474 136 8 0
-474 -137 0
-474 -138 -10 0
-474 138 10 0
-474 -139 0
-474 -140 -12 0
-474 140 12 0
-474 -141 0
-474 -142 -14 0
-474 142 14 0
-474 -143 0
-474 -144 -16 0
-474 144 16 0
-474 -145 0
-474 -146 -18 0
-474 146 18 0
-474 -147 0
-474 -148 -20 0
-474 148 20 0
-474 -149 0
-474 -150 -22 0
-474 150 22 0
-474 -151 0
-474 -152 -24 0
-474 152 24 0
-474 -153 0
-474 -154 -26 0
-474 154 26 0
-474 -155 0
-474 -156 -28 0
-474 156 28 0
-474 -157 0
-474 -158 -30 0
-474 158 30 0
-474 -159 0
-474 -160 -32 0
-474 160 32 0
-475 -129 1 0
-475 129 -1 0
-475 -130 0
-475 -131 3 0
-475 131 -3 0
-475 -132 0
-475 -133 5 0
-475 133 -5 0
-475 -134 0
-475 -135 7 0
-475 135 -7 0
-475 -136 0
-475 -137 9 0
-475 137 -9 0
-475 -138 0
-475 -139 11 0
-475 139 -11 0
-475 -140 0
-475 -141 13 0
-475 141 -13 0
-475 -142 0
-475 -143 15 0
-475 143 -15 0
-475 -144 0
-475 -145 17 0
-475 145 -17 0
-475 -146 0
-475 -147 19 0
-475 147 -19 0
-475 -148 0
-475 -149 21 0
-475 149 -21 0
-475 -150 0
-475 -151 23 0
-475 151 -23 0
-475 -152 0
-475 -153 25 0
-475 153 -25 0
-475 -154 0
-475 -155 27 0
-475 155 -27 0
-475 -156 0
-475 -157 29 0
-475 157 -29 0
-475 -158 0
-475 -159 31 0
-475 159 -31 0
-475 -160 0
-476 -129 -1 0
-476 129 1 0
-476 -130 0
-476 -131 -3 0
-476 131 3 0
-476 -132 0
-476 -133 -5 0
-476 133 5 0
-476 -134 0
-476 -135 -7 0
-476 135 7 0
-476 -136 0
-476 -137 -9 0
-476 137 9 0
-476 -138 0
-476 -139 -11 0
-476 139 11 0
-476 -140 0
-476 -141 -13 0
-476 141 13 0
-476 -142 0
-476 -143 -15 0
-476 143 15 0
-476 -144 0
-476 -145 -17 0
-476 145 17 0
-476 -146 0
-476 -147 -19 0
-476 147 19 0
-476 -148 0
-476 -149 -21 0
-476 149 21 0
-476 -150 0
-476 -151 -23 0
-476 151 23 0
-476 -152 0
-476 -153 -25 0
-476 153 25 0
-476 -154 0
-476 -155 -27 0
-476 155 27 0
-476 -156 0
-476 -157 -29 0
-476 157 29 0
-476 -158 0
-476 -159 -31 0
-476 159 31 0
-476 -160 0
-477 -129 0
-477 -130 34 0
-477 130 -34 0
-477 -131 0
-477 -132 36 0
-477 132 -36 0
-477 -133 0
-477 -134 38 0
-477 134 -38 0
-477 -135 0
-477 -136 40 0
-477 136 -40 0
-477 -137 0
-477 -138 42 0
-477 138 -42 0
-477 -139 0
-477 -140 44 0
-477 140 -44 0
-477 -141 0
-477 -142 46 0
-477 142 -46 0
-477 -143 0
-477 -144 48 0
-477 144 -48 0
-477 -145 0
-477 -146 50 0
-477 146 -50 0
-477 -147 0
-477 -148 52 0
-477 148 -52 0
-477 -149 0
-477 -150 54 0
-477 150 -54 0
-477 -151 0
-477 -152 56 0
-477 152 -56 0
-477 -153 0
-477 -154 58 0
-477 154 -58 0
-477 -155 0
-477 -156 60 0
-477 156 -60 0
-477 -157 0
-477 -158 62 0
-477 158 -62 0
-477 -159 0
-477 -160 64 0
-477 160 -64 0
-478 -129 0
-478 -130 -34 0
-478 130 34 0
-478 -131 0
-478 -132 -36 0
-478 132 36 0
-478 -133 0
-478 -134 -38 0
-478 134 38 0
-478 -135 0
-478 -136 -40 0
-478 136 40 0
-478 -137 0
-478 -138 -42 0
-478 138 42 0
-478 -139 0
-478 -140 -44 0
-478 140 44 0
-478 -141 0
-478 -142 -46 0
-478 142 46 0
-478 -143 0
-478 -144 -48 0
-478 144 48 0
-478 -145 0
-478 -146 -50 0
-478 146 50 0
-478 -147 0
-478 -148 -52 0
-478 148 52 0
-478 -149 0
-478 -150 -54 0
-478 150 54 0
-478 -151 0
-478 -152 -56 0
-478 152 56 0
-478 -153 0
-478 -154 -58 0
-478 154 58 0
-478 -155 0
-478 -156 -60 0
-478 156 60 0
-478 -157 0
-478 -158 -62 0
-478 158 62 0
-478 -159 0
-478 -160 -64 0
-478 160 64 0
-479 -129 33 0
-479 129 -33 0
-479 -130 0
-479 -131 35 0
-479 131 -35 0
-479 -132 0
-479 -133 37 0
-479 133 -37 0
-479 -134 0
-479 -135 39 0
-479 135 -39 0
-479 -136 0
-479 -137 41 0
-479 137 -41 0
-479 -138 0
-479 -139 43 0
-479 139 -43 0
-479 -140 0
-479 -141 45 0
-479 141 -45 0
-479 -142 0
-479 -143 47 0
-479 143 -47 0
-479 -144 0
-479 -145 49 0
-479 145 -49 0
-479 -146 0
-479 -147 51 0
-479 147 -51 0
-479 -148 0
-479 -149 53 0
-479 149 -53 0
-479 -150 0
-479 -151 55 0
-479 151 -55 0
-479 -152 0
-479 -153 57 0
-479 153 -57 0
-479 -154 0
-479 -155 59 0
-479 155 -59 0
-479 -156 0
-479 -157 61 0
-479 157 -61 0
-479 -158 0
-479 -159 63 0
-479 159 -63 0
-479 -160 0
-480 -129 -33 0
-480 129 33 0
-480 -130 0
-480 -131 -35 0
-480 131 35 0
-480 -132 0
-480 -133 -37 0
-480 133 37 0
-480 -134 0
-480 -135 -39 0
-480 135 39 0
-480 -136 0
-480 -137 -41 0
-480 137 41 0
-480 -138 0
-480 -139 -43 0
-480 139 43 0
-480 -140 0
-480 -141 -45 0
-480 141 45 0
-480 -142 0
-480 -143 -47 0
-480 143 47 0
-480 -144 0
-480 -145 -49 0
-480 145 49 0
-480 -146 0
-480 -147 -51 0
-480 147 51 0
-480 -148 0
-480 -149 -53 0
-480 149 53 0
-480 -150 0
-480 -151 -55 0
-480 151 55 0
-480 -152 0
-480 -153 -57 0
-480 153 57 0
-480 -154 0
-480 -155 -59 0
-480 155 59 0
-480 -156 0
-480 -157 -61 0
-480 157 61 0
-480 -158 0
-480 -159 -63 0
-480 159 63 0
-480 -160 0
-481 -129 0
-481 -130 66 0
-481 130 -66 0
-481 -131 0
-481 -132 68 0
-481 132 -68 0
-481 -133 0
-481 -134 70 0
-481 134 -70 0
-481 -135 0
-481 -136 72 0
-481 136 -72 0
-481 -137 0
-481 -138 74 0
-481 138 -74 0
-481 -139 0
-481 -140 76 0
-481 140 -76 0
-481 -141 0
-481 -142 78 0
-481 142 -78 0
-481 -143 0
-481 -144 80 0
-481 144 -80 0
-481 -145 0
-481 -146 82 0
-481 146 -82 0
-481 -147 0
-481 -148 84 0
-481 148 -84 0
-481 -149 0
-481 -150 86 0
-481 150 -86 0
-481 -151 0
-481 -152 88 0
-481 152 -88 0
-481 -153 0
-481 -154 90 0
-481 154 -90 0
-481 -155 0
-481 -156 92 0
-481 156 -92 0
-481 -157 0
-481 -158 94 0
-481 158 -94 0
-481 -159 0
-481 -160 96 0
-481 160 -96 0
-482 -129 0
-482 -130 -66 0
-482 130 66 0
-482 -131 0
-482 -132 -68 0
-482 132 68 0
-482 -133 0
-482 -134 -70 0
-482 134 70 0
-482 -135 0
-482 -136 -72 0
-482 136 72 0
-482 -137 0
-482 -138 -74 0
-482 138 74 0
-482 -139 0
-482 -140 -76 0
-482 140 76 0
-482 -141 0
-482 -142 -78 0
-482 142 78 0
-482 -143 0
-482 -144 -80 0
-482 144 80 0
-482 -145 0
-482 -146 -82 0
-482 146 82 0
-482 -147 0
-482 -148 -84 0
-482 148 84 0
-482 -149 0
-482 -150 -86 0
-482 150 86 0
-482 -151 0
-482 -152 -88 0
-482 152 88 0
-482 -153 0
-482 -154 -90 0
-482 154 90 0
-482 -155 0
-482 -156 -92 0
-482 156 92 0
-482 -157 0
-482 -158 -94 0
-482 158 94 0
-482 -159 0
-482 -160 -96 0
-482 160 96 0
-483 -129 65 0
-483 129 -65 0
-483 -130 0
-483 -131 67 0
-483 131 -67 0
-483 -132 0
-483 -133 69 0
-483 133 -69 0
-483 -134 0
-483 -135 71 0
-483 135 -71 0
-483 -136 0
-483 -137 73 0
-483 137 -73 0
-483 -138 0
-483 -139 75 0
-483 139 -75 0
-483 -140 0
-483 -141 77 0
-483 141 -77 0
-483 -142 0
-483 -143 79 0
-483 143 -79 0
-483 -144 0
-483 -145 81 0
-483 145 -81 0
-483 -146 0
-483 -147 83 0
-483 147 -83 0
-483 -148 0
-483 -149 85 0
-483 149 -85 0
-483 -150 0
-483 -151 87 0
-483 151 -87 0
-483 -152 0
-483 -153 89 0
-483 153 -89 0
-483 -154 0
-483 -155 91 0
-483 155 -91 0
-483 -156 0
-483 -157 93 0
-483 157 -93 0
-483 -158 0
-483 -159 95 0
-483 159 -95 0
-483 -160 0
-484 -129 -65 0
-484 129 65 0
-484 -130 0
-484 -131 -67 0
-484 131 67 0
-484 -132 0
-484 -133 -69 0
-484 133 69 0
-484 -134 0
-484 -135 -71 0
-484 135 71 0
-484 -136 0
-484 -137 -73 0
-484 137 73 0
-484 -138 0
-484 -139 -75 0
-484 139 75 0
-484 -140 0
-484 -141 -77 0
-484 141 77 0
-484 -142 0
-484 -143 -79 0
-484 143 79 0
-484 -144 0
-484 -145 -81 0
-484 145 81 0
-484 -146 0
-484 -147 -83 0
-484 147 83 0
-484 -148 0
-484 -149 -85 0
-484 149 85 0
-484 -150 0
-484 -151 -87 0
-484 151 87 0
-484 -152 0
-484 -153 -89 0
-484 153 89 0
-484 -154 0
-484 -155 -91 0
-484 155 91 0
-484 -156 0
-484 -157 -93 0
-484 157 93 0
-484 -158 0
-484 -159 -95 0
-484 159 95 0
-484 -160 0
-485 -129 0
-485 -130 98 0
-485 130 -98 0
-485 -131 0
-485 -132 100 0
-485 132 -100 0
-485 -133 0
-485 -134 102 0
-485 134 -102 0
-485 -135 0
-485 -136 104 0
-485 136 -104 0
-485 -137 0
-485 -138 106 0
-485 138 -106 0
-485 -139 0
-485 -140 108 0
-485 140 -108 0
-485 -141 0
-485 -142 110 0
-485 142 -110 0
-485 -143 0
-485 -144 112 0
-485 144 -112 0
-485 -145 0
-485 -146 114 0
-485 146 -114 0
-485 -147 0
-485 -148 116 0
-485 148 -116 0
-485 -149 0
-485 -150 118 0
-485 150 -118 0
-485 -151 0
-485 -152 120 0
-485 152 -120 0
-485 -153 0
-485 -154 122 0
-485 154 -122 0
-485 -155 0
-485 -156 124 0
-485 156 -124 0
-485 -157 0
-485 -158 126 0
-485 158 -126 0
-485 -159 0
-485 -160 128 0
-485 160 -128 0
-486 -129 0
-486 -130 -98 0
-486 130 98 0
-486 -131 0
-486 -132 -100 0
-486 132 100 0
-486 -133 0
-486 -134 -102 0
-486 134 102 0
-486 -135 0
-486 -136 -104 0
-486 136 104 0
-486 -137 0
-486 -138 -106 0
-486 138 106 0
-486 -139 0
-486 -140 -108 0
-486 140 108 0
-486 -141 0
-486 -142 -110 0
-486 142 110 0
-486 -143 0
-486 -144 -112 0
-486 144 112 0
-486 -145 0
-486 -146 -114 0
-486 146 114 0
-486 -147 0
-486 -148 -116 0
-486 148 116 0
-486 -149 0
-486 -150 -118 0
-486 150 118 0
-486 -151 0
-486 -152 -120 0
-486 152 120 0
-486 -153 0
-486 -154 -122 0
-486 154 122 0
-486 -155 0
-486 -156 -124 0
-486 156 124 0
-486 -157 0
-486 -158 -126 0
-486 158 126 0
-486 -159 0
-486 -160 -128 0
-486 160 128 0
-487 -129 97 0
-487 129 -97 0
-487 -130 0
-487 -131 99 0
-487 131 -99 0
-487 -132 0
-487 -133 101 0
-487 133 -101 0
-487 -134 0
-487 -135 103 0
-487 135 -103 0
-487 -136 0
-487 -137 105 0
-487 137 -105 0
-487 -138 0
-487 -139 107 0
-487 139 -107 0
-487 -140 0
-487 -141 109 0
-487 141 -109 0
-487 -142 0
-487 -143 111 0
-487 143 -111 0
-487 -144 0
-487 -145 113 0
-487 145 -113 0
-487 -146 0
-487 -147 115 0
-487 147 -115 0
-487 -148 0
-487 -149 117 0
-487 149 -117 0
-487 -150 0
-487 -151 119 0
-487 151 -119 0
-487 -152 0
-487 -153 121 0
-487 153 -121 0
-487 -154 0
-487 -155 123 0
-487 155 -123 0
-487 -156 0
-487 -157 125 0
-487 157 -125 0
-487 -158 0
-487 -159 127 0
-487 159 -127 0
-487 -160 0
-488 -129 -97 0
-488 129 97 0
-488 -130 0
-488 -131 -99 0
-488 131 99 0
-488 -132 0
-488 -133 -101 0
-488 133 101 0
-488 -134 0
-488 -135 -103 0
-488 135 103 0
-488 -136 0
-488 -137 -105 0
-488 137 105 0
-488 -138 0
-488 -139 -107 0
-488 139 107 0
-488 -140 0
-488 -141 -109 0
-488 141 109 0
-488 -142 0
-488 -143 -111 0
-488 143 111 0
-488 -144 0
-488 -145 -113 0
-488 145 113 0
-488 -146 0
-488 -147 -115 0
-488 147 115 0
-488 -148 0
-488 -149 -117 0
-488 149 117 0
-488 -150 0
-488 -151 -119 0
-488 151 119 0
-488 -152 0
-488 -153 -121 0
-488 153 121 0
-488 -154 0
-488 -155 -123 0
-488 155 123 0
-488 -156 0
-488 -157 -125 0
-488 157 125 0
-488 -158 0
-488 -159 -127 0
-488 159 127 0
-488 -160 0
-489 -129 0
-489 -130 0
-489 -131 0
-489 -132 0
-489 -133 0
-489 -134 0
-489 135 0
-489 136 0
-489 -137 0
-489 -138 0
-489 -139 0
-489 -140 0
-489 -141 0
-489 -142 0
-489 143 0
-489 144 0
-489 -145 0
-489 -146 0
-489 -147 0
-489 -148 0
-489 -149 0
-489 -150 0
-489 151 0
-489 152 0
-489 -153 0
-489 -154 0
-489 -155 0
-489 -156 0
-489 -157 0
-489 -158 0
-489 159 0
-489 160 0
-490 -129 0
-490 -130 0
-490 131 0
-490 132 0
-490 -133 0
-490 -134 0
-490 -135 0
-490 -136 0
-490 -137 0
-490 -138 0
-490 139 0
-490 140 0
-490 -141 0
-490 -142 0
-490 -143 0
-490 -144 0
-490 -145 0
-490 -146 0
-490 147 0
-490 148 0
-490 -149 0
-490 -150 0
-490 -151 0
-490 -152 0
-490 -153 0
-490 -154 0
-490 155 0
-490 156 0
-490 -157 0
-490 -158 0
-490 -159 0
-490 -160 0
-491 -129 0
-491 -130 0
-491 -131 0
-491 -132 0
-491 133 0
-491 134 0
-491 -135 0
-491 -136 0
-491 -137 0
-491 -138 0
-491 -139 0
-491 -140 0
-491 141 0
-491 142 0
-491 -143 0
-491 -144 0
-491 -145 0
-491 -146 0
-491 -147 0
-491 -148 0
-491 149 0
-491 150 0
-491 -151 0
-491 -152 0
-491 -153 0
-491 -154 0
-491 -155 0
-491 -156 0
-491 157 0
-491 158 0
-491 -159 0
-491 -160 0
-492 129 0
-492 130 0
-492 -131 0
-492 -132 0
-492 -133 0
-492 -134 0
-492 -135 0
-492 -136 0
-492 137 0
-492 138 0
-492 -139 0
-492 -140 0
-492 -141 0
-492 -142 0
-492 -143 0
-492 -144 0
-492 145 0
-492 146 0
-492 -147 0
-492 -148 0
-492 -149 0
-492 -150 0
-492 -151 0
-492 -152 0
-492 153 0
-492 154 0
-492 -155 0
-492 -156 0
-492 -157 0
-492 -158 0
-492 -159 0
-492 -160 0
-493 -129 0
-493 -130 0
-493 -131 0
-493 -132 0
-493 -133 0
-493 -134 0
-493 -135 0
-493 -136 0
-493 -137 0
-493 -138 0
-493 139 0
-493 140 0
-493 -141 0
-493 -142 0
-493 143 0
-493 144 0
-493 -145 0
-493 -146 0
-493 -147 0
-493 -148 0
-493 -149 0
-493 -150 0
-493 -151 0
-493 -152 0
-493 -153 0
-493 -154 0
-493 155 0
-493 156 0
-493 -157 0
-493 -158 0
-493 159 0
-493 160 0
-494 -129 0
-494 -130 0
-494 131 0
-494 132 0
-494 -133 0
-494 -134 0
-494 135 0
-494 136 0
-494 -137 0
-494 -138 0
-494 -139 0
-494 -140 0
-494 -141 0
-494 -142 0
-494 -143 0
-494 -144 0
-494 -145 0
-494 -146 0
-494 147 0
-494 148 0
-494 -149 0
-494 -150 0
-494 151 0
-494 152 0
-494 -153 0
-494 -154 0
-494 -155 0
-494 -156 0
-494 -157 0
-494 -158 0
-494 -159 0
-494 -160 0
-495 -129 0
-495 -130 0
-495 -131 0
-495 -132 0
-495 -133 0
-495 -134 0
-495 -135 0
-495 -136 0
-495 137 0
-495 138 0
-495 -139 0
-495 -140 0
-495 141 0
-495 142 0
-495 -143 0
-495 -144 0
-495 -145 0
-495 -146 0
-495 -147 0
-495 -148 0
-495 -149 0
-495 -150 0
-495 -151 0
-495 -152 0
-495 153 0
-495 154 0
-495 -155 0
-495 -156 0
-495 157 0
-495 158 0
-495 -159 0
-495 -160 0
-496 129 0
-496 130 0
-496 -131 0
-496 -132 0
-496 133 0
-496 134 0
-496 -135 0
-496 -136 0
-496 -137 0
-496 -138 0
-496 -139 0
-496 -140 0
-496 -141 0
-496 -142 0
-496 -143 0
-496 -144 0
-496 145 0
-496 146 0
-496 -147 0
-496 -148 0
-496 149 0
-496 150 0
-496 -151 0
-496 -152 0
-496 -153 0
-496 -154 0
-496 -155 0
-496 -156 0
-496 -157 0
-496 -158 0
-496 -159 0
-496 -160 0
-497 -129 0
-497 -130 0
-497 -131 0
-497 -132 0
-497 -133 0
-497 -134 0
-497 -135 0
-497 -136 0
-497 -137 0
-497 -138 0
-497 -139 0
-497 -140 0
-497 -141 0
-497 -142 0
-497 -143 0
-497 -144 0
-497 -145 0
-497 -146 0
-497 147 0
-497 148 0
-497 -149 0
-497 -150 0
-497 151 0
-497 152 0
-497 -153 0
-497 -154 0
-497 155 0
-497 156 0
-497 -157 0
-497 -158 0
-497 159 0
-497 160 0
-498 -129 0
-498 -130 0
-498 131 0
-498 132 0
-498 -133 0
-498 -134 0
-498 135 0
-498 136 0
-498 -137 0
-498 -138 0
-498 139 0
-498 140 0
-498 -141 0
-498 -142 0
-498 143 0
-498 144 0
-498 -145 0
-498 -146 0
-498 -147 0
-498 -148 0
-498 -149 0
-498 -150 0
-498 -151 0
-498 -152 0
-498 -153 0
-498 -154 0
-498 -155 0
-498 -156 0
-498 -157 0
-498 -158 0
-498 -159 0
-498 -160 0
-499 -129 0
-499 -130 0
-499 -131 0
-499 -132 0
-499 -133 0
-499 -134 0
-499 -135 0
-499 -136 0
-499 -137 0
-499 -138 0
-499 -139 0
-499 -140 0
-499 -141 0
-499 -142 0
-499 -143 0
-499 -144 0
-499 145 0
-499 146 0
-499 -147 0
-499 -148 0
-499 149 0
-499 150 0
-499 -151 0
-499 -152 0
-499 153 0
-499 154 0
-499 -155 0
-499 -156 0
-499 157 0
-499 158 0
-499 -159 0
-499 -160 0
-500 129 0
-500 130 0
-500 -131 0
-500 -132 0
-500 133 0
-500 134 0
-500 -135 0
-500 -136 0
-500 137 0
-500 138 0
-500 -139 0
-500 -140 0
-500 141 0
-500 142 0
-500 -143 0
-500 -144 0
-500 -145 0
-500 -146 0
-500 -147 0
-500 -148 0
-500 -149 0
-500 -150 0
-500 -151 0
-500 -152 0
-500 -153 0
-500 -154 0
-500 -155 0
-500 -156 0
-500 -157 0
-500 -158 0
-500 -159 0
-500 -160 0
-501 -129 0
-501 -130 0
-501 -131 3 0
-501 131 -3 0
-501 -132 4 0
-501 132 -4 0
-501 -133 0
-501 -134 0
-501 -135 7 0
-501 135 -7 0
-501 -136 8 0
-501 136 -8 0
-501 -137 0
-501 -138 0
-501 -139 11 0
-501 139 -11 0
-501 -140 12 0
-501 140 -12 0
-501 -141 0
-501 -142 0
-501 -143 15 0
-501 143 -15 0
-501 -144 16 0
-501 144 -16 0
-501 -145 0
-501 -146 0
-501 -147 19 0
-501 147 -19 0
-501 -148 20 0
-501 148 -20 0
-501 -149 0
-501 -150 0
-501 -151 23 0
-501 151 -23 0
-501 -152 24 0
-501 152 -24 0
-501 -153 0
-501 -154 0
-501 -155 27 0
-501 155 -27 0
-501 -156 28 0
-501 156 -28 0
-501 -157 0
-501 -158 0
-501 -159 31 0
-501 159 -31 0
-501 -160 32 0
-501 160 -32 0
-502 -129 0
-502 -130 0
-502 -131 -3 0
-502 131 3 0
-502 -132 -4 0
-502 132 4 0
-502 -133 0
-502 -134 0
-502 -135 -7 0
-502 135 7 0
-502 -136 -8 0
-502 136 8 0
-502 -137 0
-502 -138 0
-502 -139 -11 0
-502 139 11 0
-502 -140 -12 0
-502 140 12 0
-502 -141 0
-502 -142 0
-502 -143 -15 0
-502 143 15 0
-502 -144 -16 0
-502 144 16 0
-502 -145 0
-502 -146 0
-502 -147 -19 0
-502 147 19 0
-502 -148 -20 0
-502 148 20 0
-502 -149 0
-502 -150 0
-502 -151 -23 0
-502 151 23 0
-502 -152 -24 0
-502 152 24 0
-502 -153 0
-502 -154 0
-502 -155 -27 0
-502 155 27 0
-502 -156 -28 0
-502 156 28 0
-502 -157 0
-502 -158 0
-502 -159 -31 0
-502 159 31 0
-502 -160 -32 0
-502 160 32 0
-503 -129 1 0
-503 129 -1 0
-503 -130 2 0
-503 130 -2 0
-503 -131 0
-503 -132 0
-503 -133 5 0
-503 133 -5 0
-503 -134 6 0
-503 134 -6 0
-503 -135 0
-503 -136 0
-503 -137 9 0
-503 137 -9 0
-503 -138 10 0
-503 138 -10 0
-503 -139 0
-503 -140 0
-503 -141 13 0
-503 141 -13 0
-503 -142 14 0
-503 142 -14 0
-503 -143 0
-503 -144 0
-503 -145 17 0
-503 145 -17 0
-503 -146 18 0
-503 146 -18 0
-503 -147 0
-503 -148 0
-503 -149 21 0
-503 149 -21 0
-503 -150 22 0
-503 150 -22 0
-503 -151 0
-503 -152 0
-503 -153 25 0
-503 153 -25 0
-503 -154 26 0
-503 154 -26 0
-503 -155 0
-503 -156 0
-503 -157 29 0
-503 157 -29 0
-503 -158 30 0
-503 158 -30 0
-503 -159 0
-503 -160 0
-504 -129 -1 0
-504 129 1 0
-504 -130 -2 0
-504 130 2 0
-504 -131 0
-504 -132 0
-504 -133 -5 0
-504 133 5 0
-504 -134 -6 0
-504 134 6 0
-504 -135 0
-504 -136 0
-504 -137 -9 0
-504 137 9 0
-504 -138 -10 0
-504 138 10 0
-504 -139 0
-504 -140 0
-504 -141 -13 0
-504 141 13 0
-504 -142 -14 0
-504 142 14 0
-504 -143 0
-504 -144 0
-504 -145 -17 0
-504 145 17 0
-504 -146 -18 0
-504 146 18 0
-504 -147 0
-504 -148 0
-504 -149 -21 0
-504 149 21 0
-504 -150 -22 0
-504 150 22 0
-504 -151 0
-504 -152 0
-504 -153 -25 0
-504 153 25 0
-504 -154 -26 0
-504 154 26 0
-504 -155 0
-504 -156 0
-504 -157 -29 0
-504 157 29 0
-504 -158 -30 0
-504 158 30 0
-504 -159 0
-504 -160 0
-505 -129 0
-505 -130 0
-505 -131 35 0
-505 131 -35 0
-505 -132 36 0
-505 132 -36 0
-505 -133 0
-505 -134 0
-505 -135 39 0
-505 135 -39 0
-505 -136 40 0
-505 136 -40 0
-505 -137 0
-505 -138 0
-505 -139 43 0
-505 139 -43 0
-505 -140 44 0
-505 140 -44 0
-505 -141 0
-505 -142 0
-505 -143 47 0
-505 143 -47 0
-505 -144 48 0
-505 144 -48 0
-505 -145 0
-505 -146 0
-505 -147 51 0
-505 147 -51 0
-505 -148 52 0
-505 148 -52 0
-505 -149 0
-505 -150 0
-505 -151 55 0
-505 151 -55 0
-505 -152 56 0
-505 152 -56 0
-505 -153 0
-505 -154 0
-505 -155 59 0
-505 155 -59 0
-505 -156 60 0
-505 156 -60 0
-505 -157 0
-505 -158 0
-505 -159 63 0
-505 159 -63 0
-505 -160 64 0
-505 160 -64 0
-506 -129 0
-506 -130 0
-506 -131 -35 0
-506 131 35 0
-506 -132 -36 0
-506 132 36 0
-506 -133 0
-506 -134 0
-506 -135 -39 0
-506 135 39 0
-506 -136 -40 0
-506 136 40 0
-506 -137 0
-506 -138 0
-506 -139 -43 0
-506 139 43 0
-506 -140 -44 0
-506 140 44 0
-506 -141 0
-506 -142 0
-506 -143 -47 0
-506 143 47 0
-506 -144 -48 0
-506 144 48 0
-506 -145 0
-506 -146 0
-506 -147 -51 0
-506 147 51 0
-506 -148 -52 0
-506 148 52 0
-506 -149 0
-506 -150 0
-506 -151 -55 0
-506 151 55 0
-506 -152 -56 0
-506 152 56 0
-506 -153 0
-506 -154 0
-506 -155 -59 0
-506 155 59 0
-506 -156 -60 0
-506 156 60 0
-506 -157 0
-506 -158 0
-506 -159 -63 0
-506 159 63 0
-506 -160 -64 0
-506 160 64 0
-507 -129 33 0
-507 129 -33 0
-507 -130 34 0
-507 130 -34 0
-507 -131 0
-507 -132 0
-507 -133 37 0
-507 133 -37 0
-507 -134 38 0
-507 134 -38 0
-507 -135 0
-507 -136 0
-507 -137 41 0
-507 137 -41 0
-507 -138 42 0
-507 138 -42 0
-507 -139 0
-507 -140 0
-507 -141 45 0
-507 141 -45 0
-507 -142 46 0
-507 142 -46 0
-507 -143 0
-507 -144 0
-507 -145 49 0
-507 145 -49 0
-507 -146 50 0
-507 146 -50 0
-507 -147 0
-507 -148 0
-507 -149 53 0
-507 149 -53 0
-507 -150 54 0
-507 150 -54 0
-507 -151 0
-507 -152 0
-507 -153 57 0
-507 153 -57 0
-507 -154 58 0
-507 154 -58 0
-507 -155 0
-507 -156 0
-507 -157 61 0
-507 157 -61 0
-507 -158 62 0
-507 158 -62 0
-507 -159 0
-507 -160 0
-508 -129 -33 0
-508 129 33 0
-508 -130 -34 0
-508 130 34 0
-508 -131 0
-508 -132 0
-508 -133 -37 0
-508 133 37 0
-508 -134 -38 0
-508 134 38 0
-508 -135 0
-508 -136 0
-508 -137 -41 0
-508 137 41 0
-508 -138 -42 0
-508 138 42 0
-508 -139 0
-508 -140 0
-508 -141 -45 0
-508 141 45 0
-508 -142 -46 0
-508 142 46 0
-508 -143 0
-508 -144 0
-508 -145 -49 0
-508 145 49 0
-508 -146 -50 0
-508 146 50 0
-508 -147 0
-508 -148 0
-508 -149 -53 0
-508 149 53 0
-508 -150 -54 0
-508 150 54 0
-508 -151 0
-508 -152 0
-508 -153 -57 0
-508 153 57 0
-508 -154 -58 0
-508 154 58 0
-508 -155 0
-508 -156 0
-508 -157 -61 0
-508 157 61 0
-508 -158 -62 0
-508 158 62 0
-508 -159 0
-508 -160 0
-509 -129 0
-509 -130 0
-509 -131 67 0
-509 131 -67 0
-509 -132 68 0
-509 132 -68 0
-509 -133 0
-509 -134 0
-509 -135 71 0
-509 135 -71 0
-509 -136 72 0
-509 136 -72 0
-509 -137 0
-509 -138 0
-509 -139 75 0
-509 139 -75 0
-509 -140 76 0
-509 140 -76 0
-509 -141 0
-509 -142 0
-509 -143 79 0
-509 143 -79 0
-509 -144 80 0
-509 144 -80 0
-509 -145 0
-509 -146 0
-509 -147 83 0
-509 147 -83 0
-509 -148 84 0
-509 148 -84 0
-509 -149 0
-509 -150 0
-509 -151 87 0
-509 151 -87 0
-509 -152 88 0
-509 152 -88 0
-509 -153 0
-509 -154 0
-509 -155 91 0
-509 155 -91 0
-509 -156 92 0
-509 156 -92 0
-509 -157 0
-509 -158 0
-509 -159 95 0
-509 159 -95 0
-509 -160 96 0
-509 160 -96 0
-510 -129 0
-510 -130 0
-510 -131 -67 0
-510 131 67 0
-510 -132 -68 0
-510 132 68 0
-510 -133 0
-510 -134 0
-510 -135 -71 0
-510 135 71 0
-510 -136 -72 0
-510 136 72 0
-510 -137 0
-510 -138 0
-510 -139 -75 0
-510 139 75 0
-510 -140 -76 0
-510 140 76 0
-510 -141 0
-510 -142 0
-510 -143 -79 0
-510 143 79 0
-510 -144 -80 0
-510 144 80 0
-510 -145 0
-510 -146 0
-510 -147 -83 0
-510 147 83 0
-510 -148 -84 0
-510 148 84 0
-510 -149 0
-510 -150 0
-510 -151 -87 0
-510 151 87 0
-510 -152 -88 0
-510 152 88 0
-510 -153 0
-510 -154 0
-510 -155 -91 0
-510 155 91 0
-510 -156 -92 0
-510 156 92 0
-510 -157 0
-510 -158 0
-510 -159 -95 0
-510 159 95 0
-510 -160 -96 0
-510 160 96 0
-511 -129 65 0
-511 129 -65 0
-511 -130 66 0
-511 130 -66 0
-511 -131 0
-511 -132 0
-511 -133 69 0
-511 133 -69 0
-511 -134 70 0
-511 134 -70 0
-511 -135 0
-511 -136 0
-511 -137 73 0
-511 137 -73 0
-511 -138 74 0
-511 138 -74 0
-511 -139 0
-511 -140 0
-511 -141 77 0
-511 141 -77 0
-511 -142 78 0
-511 142 -78 0
-511 -143 0
-511 -144 0
-511 -145 81 0
-511 145 -81 0
-511 -146 82 0
-511 146 -82 0
-511 -147 0
-511 -148 0
-511 -149 85 0
-511 149 -85 0
-511 -150 86 0
-511 150 -86 0
-511 -151 0
-511 -152 0
-511 -153 89 0
-511 153 -89 0
-511 -154 90 0
-511 154 -90 0
-511 -155 0
-511 -156 0
-511 -157 93 0
-511 157 -93 0
-511 -158 94 0
-511 158 -94 0
-511 -159 0
-511 -160 0
-512 -129 -65 0
-512 129 65 0
-512 -130 -66 0
-512 130 66 0
-512 -131 0
-512 -132 0
-512 -133 -69 0
-512 133 69 0
-512 -134 -70 0
-512 134 70 0
-512 -135 0
-512 -136 0
-512 -137 -73 0
-512 137 73 0
-512 -138 -74 0
-512 138 74 0
-512 -139 0
-512 -140 0
-512 -141 -77 0
-512 141 77 0
-512 -142 -78 0
-512 142 78 0
-512 -143 0
-512 -144 0
-512 -145 -81 0
-512 145 81 0
-512 -146 -82 0
-512 146 82 0
-512 -147 0
-512 -148 0
-512 -149 -85 0
-512 149 85 0
-512 -150 -86 0
-512 150 86 0
-512 -151 0
-512 -152 0
-512 -153 -89 0
-512 153 89 0
-512 -154 -90 0
-512 154 90 0
-512 -155 0
-512 -156 0
-512 -157 -93 0
-512 157 93 0
-512 -158 -94 0
-512 158 94 0
-512 -159 0
-512 -160 0
-513 -129 0
-513 -130 0
-513 -131 99 0
-513 131 -99 0
-513 -132 100 0
-513 132 -100 0
-513 -133 0
-513 -134 0
-513 -135 103 0
-513 135 -103 0
-513 -136 104 0
-513 136 -104 0
-513 -137 0
-513 -138 0
-513 -139 107 0
-513 139 -107 0
-513 -140 108 0
-513 140 -108 0
-513 -141 0
-513 -142 0
-513 -143 111 0
-513 143 -111 0
-513 -144 112 0
-513 144 -112 0
-513 -145 0
-513 -146 0
-513 -147 115 0
-513 147 -115 0
-513 -148 116 0
-513 148 -116 0
-513 -149 0
-513 -150 0
-513 -151 119 0
-513 151 -119 0
-513 -152 120 0
-513 152 -120 0
-513 -153 0
-513 -154 0
-513 -155 123 0
-513 155 -123 0
-513 -156 124 0
-513 156 -124 0
-513 -157 0
-513 -158 0
-513 -159 127 0
-513 159 -127 0
-513 -160 128 0
-513 160 -128 0
-514 -129 0
-514 -130 0
-514 -131 -99 0
-514 131 99 0
-514 -132 -100 0
-514 132 100 0
-514 -133 0
-514 -134 0
-514 -135 -103 0
-514 135 103 0
-514 -136 -104 0
-514 136 104 0
-514 -137 0
-514 -138 0
-514 -139 -107 0
-514 139 107 0
-514 -140 -108 0
-514 140 108 0
-514 -141 0
-514 -142 0
-514 -143 -111 0
-514 143 111 0
-514 -144 -112 0
-514 144 112 0
-514 -145 0
-514 -146 0
-514 -147 -115 0
-514 147 115 0
-514 -148 -116 0
-514 148 116 0
-514 -149 0
-514 -150 0
-514 -151 -119 0
-514 151 119 0
-514 -152 -120 0
-514 152 120 0
-514 -153 0
-514 -154 0
-514 -155 -123 0
-514 155 123 0
-514 -156 -124 0
-514 156 124 0
-514 -157 0
-514 -158 0
-514 -159 -127 0
-514 159 127 0
-514 -160 -128 0
-514 160 128 0
-515 -129 97 0
-515 129 -97 0
-515 -130 98 0
-515 130 -98 0
-515 -131 0
-515 -132 0
-515 -133 101 0
-515 133 -101 0
-515 -134 102 0
-515 134 -102 0
-515 -135 0
-515 -136 0
-515 -137 105 0
-515 137 -105 0
-515 -138 106 0
-515 138 -106 0
-515 -139 0
-515 -140 0
-515 -141 109 0
-515 141 -109 0
-515 -142 110 0
-515 142 -110 0
-515 -143 0
-515 -144 0
-515 -145 113 0
-515 145 -113 0
-515 -146 114 0
-515 146 -114 0
-515 -147 0
-515 -148 0
-515 -149 117 0
-515 149 -117 0
-515 -150 118 0
-515 150 -118 0
-515 -151 0
-515 -152 0
-515 -153 121 0
-515 153 -121 0
-515 -154 122 0
-515 154 -122 0
-515 -155 0
-515 -156 0
-515 -157 125 0
-515 157 -125 0
-515 -158 126 0
-515 158 -126 0
-515 -159 0
-515 -160 0
-516 -129 -97 0
-516 129 97 0
-516 -130 -98 0
-516 130 98 0
-516 -131 0
-516 -132 0
-516 -133 -101 0
-516 133 101 0
-516 -134 -102 0
-516 134 102 0
-516 -135 0
-516 -136 0
-516 -137 -105 0
-516 137 105 0
-516 -138 -106 0
-516 138 106 0
-516 -139 0
-516 -140 0
-516 -141 -109 0
-516 141 109 0
-516 -142 -110 0
-516 142 110 0
-516 -143 0
-516 -144 0
-516 -145 -113 0
-516 145 113 0
-516 -146 -114 0
-516 146 114 0
-516 -147 0
-516 -148 0
-516 -149 -117 0
-516 149 117 0
-516 -150 -118 0
-516 150 118 0
-516 -151 0
-516 -152 0
-516 -153 -121 0
-516 153 121 0
-516 -154 -122 0
-516 154 122 0
-516 -155 0
-516 -156 0
-516 -157 -125 0
-516 157 125 0
-516 -158 -126 0
-516 158 126 0
-516 -159 0
-516 -160 0
-517 -129 0
-517 -130 0
-517 -131 0
-517 -132 0
-517 -133 0
-517 -134 0
-517 -135 0
-517 -136 0
-517 -137 0
-517 -138 0
-517 -139 0
-517 -140 0
-517 141 0
-517 142 0
-517 143 0
-517 144 0
-517 -145 0
-517 -146 0
-517 -147 0
-517 -148 0
-517 -149 0
-517 -150 0
-517 -151 0
-517 -152 0
-517 -153 0
-517 -154 0
-517 -155 0
-517 -156 0
-517 157 0
-517 158 0
-517 159 0
-517 160 0
-518 -129 0
-518 -130 0
-518 -131 0
-518 -132 0
-518 133 0
-518 134 0
-518 135 0
-518 136 0
-518 -137 0
-518 -138 0
-518 -139 0
-518 -140 0
-518 -141 0
-518 -142 0
-518 -143 0
-518 -144 0
-518 -145 0
-518 -146 0
-518 -147 0
-518 -148 0
-518 149 0
-518 150 0
-518 151 0
-518 152 0
-518 -153 0
-518 -154 0
-518 -155 0
-518 -156 0
-518 -157 0
-518 -158 0
-518 -159 0
-518 -160 0
-519 -129 0
-519 -130 0
-519 -131 0
-519 -132 0
-519 -133 0
-519 -134 0
-519 -135 0
-519 -136 0
-519 137 0
-519 138 0
-519 139 0
-519 140 0
-519 -141 0
-519 -142 0
-519 -143 0
-519 -144 0
-519 -145 0
-519 -146 0
-519 -147 0
-519 -148 0
-519 -149 0
-519 -150 0
-519 -151 0
-519 -152 0
-519 153 0
-519 154 0
-519 155 0
-519 156 0
-519 -157 0
-519 -158 0
-519 -159 0
-519 -160 0
-520 129 0
-520 130 0
-520 131 0
-520 132 0
-520 -133 0
-520 -134 0
-520 -135 0
-520 -136 0
-520 -137 0
-520 -138 0
-520 -139 0
-520 -140 0
-520 -141 0
-520 -142 0
-520 -143 0
-520 -144 0
-520 145 0
-520 146 0
-520 147 0
-520 148 0
-520 -149 0
-520 -150 0
-520 -151 0
-520 -152 0
-520 -153 0
-520 -154 0
-520 -155 0
-520 -156 0
-520 -157 0
-520 -158 0
-520 -159 0
-520 -160 0
-521 -129 0
-521 -130 0
-521 -131 0
-521 -132 0
-521 -133 0
-521 -134 0
-521 -135 0
-521 -136 0
-521 -137 0
-521 -138 0
-521 -139 0
-521 -140 0
-521 -141 0
-521 -142 0
-521 -143 0
-521 -144 0
-521 -145 0
-521 -146 0
-521 -147 0
-521 -148 0
-521 149 0
-521 150 0
-521 151 0
-521 152 0
-521 -153 0
-521 -154 0
-521 -155 0
-521 -156 0
-521 157 0
-521 158 0
-521 159 0
-521 160 0
-522 -129 0
-522 -130 0
-522 -131 0
-522 -132 0
-522 133 0
-522 134 0
-522 135 0
-522 136 0
-522 -137 0
-522 -138 0
-522 -139 0
-522 -140 0
-522 141 0
-522 142 0
-522 143 0
-522 144 0
-522 -145 0
-522 -146 0
-522 -147 0
-522 -148 0
-522 -149 0
-522 -150 0
-522 -151 0
-522 -152 0
-522 -153 0
-522 -154 0
-522 -155 0
-522 -156 0
-522 -157 0
-522 -158 0
-522 -159 0
-522 -160 0
-523 -129 0
-523 -130 0
-523 -131 0
-523 -132 0
-523 -133 0
-523 -134 0
-523 -135 0
-523 -136 0
-523 -137 0
-523 -138 0
-523 -139 0
-523 -140 0
-523 -141 0
-523 -142 0
-523 -143 0
-523 -144 0
-523 145 0
-523 146 0
-523 147 0
-523 148 0
-523 -149 0
-523 -150 0
-523 -151 0
-523 -152 0
-523 153 0
-523 154 0
-523 155 0
-523 156 0
-523 -157 0
-523 -158 0
-523 -159 0
-523 -160 0
-524 129 0
-524 130 0
-524 131 0
-524 132 0
-524 -133 0
-524 -134 0
-524 -135 0
-524 -136 0
-524 137 0
-524 138 0
-524 139 0
-524 140 0
-524 -141 0
-524 -142 0
-524 -143 0
-524 -144 0
-524 -145 0
-524 -146 0
-524 -147 0
-524 -148 0
-524 -149 0
-524 -150 0
-524 -151 0
-524 -152 0
-524 -153 0
-524 -154 0
-524 -155 0
-524 -156 0
-524 -157 0
-524 -158 0
-524 -159 0
-524 -160 0
-525 -129 0
-525 -130 0
-525 -131 0
-525 -132 0
-525 -133 5 0
-525 133 -5 0
-525 -134 6 0
-525 134 -6 0
-525 -135 7 0
-525 135 -7 0
-525 -136 8 0
-525 136 -8 0
-525 -137 0
-525 -138 0
-525 -139 0
-525 -140 0
-525 -141 13 0
-525 141 -13 0
-525 -142 14 0
-525 142 -14 0
-525 -143 15 0
-525 143 -15 0
-525 -144 16 0
-525 144 -16 0
-525 -145 0
-525 -146 0
-525 -147 0
-525 -148 0
-525 -149 21 0
-525 149 -21 0
-525 -150 22 0
-525 150 -22 0
-525 -151 23 0
-525 151 -23 0
-525 -152 24 0
-525 152 -24 0
-525 -153 0
-525 -154 0
-525 -155 0
-525 -156 0
-525 -157 29 0
-525 157 -29 0
-525 -158 30 0
-525 158 -30 0
-525 -159 31 0
-525 159 -31 0
-525 -160 32 0
-525 160 -32 0
-526 -129 0
-526 -130 0
-526 -131 0
-526 -132 0
-526 -133 -5 0
-526 133 5 0
-526 -134 -6 0
-526 134 6 0
-526 -135 -7 0
-526 135 7 0
-526 -136 -8 0
-526 136 8 0
-526 -137 0
-526 -138 0
-526 -139 0
-526 -140 0
-526 -141 -13 0
-526 141 13 0
-526 -142 -14 0
-526 142 14 0
-526 -143 -15 0
-526 143 15 0
-526 -144 -16 0
-526 144 16 0
-526 -145 0
-526 -146 0
-526 -147 0
-526 -148 0
-526 -149 -21 0
-526 149 21 0
-526 -150 -22 0
-526 150 22 0
-526 -151 -23 0
-526 151 23 0
-526 -152 -24 0
-526 152 24 0
-526 -153 0
-526 -154 0
-526 -155 0
-526 -156 0
-526 -157 -29 0
-526 157 29 0
-526 -158 -30 0
-526 158 30 0
-526 -159 -31 0
-526 159 31 0
-526 -160 -32 0
-526 160 32 0
-527 -129 1 0
-527 129 -1 0
-527 -130 2 0
-527 130 -2 0
-527 -131 3 0
-527 131 -3 0
-527 -132 4 0
-527 132 -4 0
-527 -133 0
-527 -134 0
-527 -135 0
-527 -136 0
-527 -137 9 0
-527 137 -9 0
-527 -138 10 0
-527 138 -10 0
-527 -139 11 0
-527 139 -11 0
-527 -140 12 0
-527 140 -12 0
-527 -141 0
-527 -142 0
-527 -143 0
-527 -144 0
-527 -145 17 0
-527 145 -17 0
-527 -146 18 0
-527 146 -18 0
-527 -147 19 0
-527 147 -19 0
-527 -148 20 0
-527 148 -20 0
-527 -149 0
-527 -150 0
-527 -151 0
-527 -152 0
-527 -153 25 0
-527 153 -25 0
-527 -154 26 0
-527 154 -26 0
-527 -155 27 0
-527 155 -27 0
-527 -156 28 0
-527 156 -28 0
-527 -157 0
-527 -158 0
-527 -159 0
-527 -160 0
-528 -129 -1 0
-528 129 1 0
-528 -130 -2 0
-528 130 2 0
-528 -131 -3 0
-528 131 3 0
-528 -132 -4 0
-528 132 4 0
-528 -133 0
-528 -134 0
-528 -135 0
-528 -136 0
-528 -137 -9 0
-528 137 9 0
-528 -138 -10 0
-528 138 10 0
-528 -139 -11 0
-528 139 11 0
-528 -140 -12 0
-528 140 12 0
-528 -141 0
-528 -142 0
-528 -143 0
-528 -144 0
-528 -145 -17 0
-528 145 17 0
-528 -146 -18 0
-528 146 18 0
-528 -147 -19 0
-528 147 19 0
-528 -148 -20 0
-528 148 20 0
-528 -149 0
-528 -150 0
-528 -151 0
-528 -152 0
-528 -153 -25 0
-528 153 25 0
-528 -154 -26 0
-528 154 26 0
-528 -155 -27 0
-528 155 27 0
-528 -156 -28 0
-528 156 28 0
-528 -157 0
-528 -158 0
-528 -159 0
-528 -160 0
-529 -129 0
-529 -130 0
-529 -131 0
-529 -132 0
-529 -133 37 0
-529 133 -37 0
-529 -134 38 0
-529 134 -38 0
-529 -135 39 0
-529 135 -39 0
-529 -136 40 0
-529 136 -40 0
-529 -137 0
-529 -138 0
-529 -139 0
-529 -140 0
-529 -141 45 0
-529 141 -45 0
-529 -142 46 0
-529 142 -46 0
-529 -143 47 0
-529 143 -47 0
-529 -144 48 0
-529 144 -48 0
-529 -145 0
-529 -146 0
-529 -147 0
-529 -148 0
-529 -149 53 0
-529 149 -53 0
-529 -150 54 0
-529 150 -54 0
-529 -151 55 0
-529 151 -55 0
-529 -152 56 0
-529 152 -56 0
-529 -153 0
-529 -154 0
-529 -155 0
-529 -156 0
-529 -157 61 0
-529 157 -61 0
-529 -158 62 0
-529 158 -62 0
-529 -159 63 0
-529 159 -63 0
-529 -160 64 0
-529 160 -64 0
-530 -129 0
-530 -130 0
-530 -131 0
-530 -132 0
-530 -133 -37 0
-530 133 37 0
-530 -134 -38 0
-530 134 38 0
-530 -135 -39 0
-530 135 39 0
-530 -136 -40 0
-530 136 40 0
-530 -137 0
-530 -138 0
-530 -139 0
-530 -140 0
-530 -141 -45 0
-530 141 45 0
-530 -142 -46 0
-530 142 46 0
-530 -143 -47 0
-530 143 47 0
-530 -144 -48 0
-530 144 48 0
-530 -145 0
-530 -146 0
-530 -147 0
-530 -148 0
-530 -149 -53 0
-530 149 53 0
-530 -150 -54 0
-530 150 54 0
-530 -151 -55 0
-530 151 55 0
-530 -152 -56 0
-530 152 56 0
-530 -153 0
-530 -154 0
-530 -155 0
-530 -156 0
-530 -157 -61 0
-530 157 61 0
-530 -158 -62 0
-530 158 62 0
-530 -159 -63 0
-530 159 63 0
-530 -160 -64 0
-530 160 64 0
-531 -129 33 0
-531 129 -33 0
-531 -130 34 0
-531 130 -34 0
-531 -131 35 0
-531 131 -35 0
-531 -132 36 0
-531 132 -36 0
-531 -133 0
-531 -134 0
-531 -135 0
-531 -136 0
-531 -137 41 0
-531 137 -41 0
-531 -138 42 0
-531 138 -42 0
-531 -139 43 0
-531 139 -43 0
-531 -140 44 0
-531 140 -44 0
-531 -141 0
-531 -142 0
-531 -143 0
-531 -144 0
-531 -145 49 0
-531 145 -49 0
-531 -146 50 0
-531 146 -50 0
-531 -147 51 0
-531 147 -51 0
-531 -148 52 0
-531 148 -52 0
-531 -149 0
-531 -150 0
-531 -151 0
-531 -152 0
-531 -153 57 0
-531 153 -57 0
-531 -154 58 0
-531 154 -58 0
-531 -155 59 0
-531 155 -59 0
-531 -156 60 0
-531 156 -60 0
-531 -157 0
-531 -158 0
-531 -159 0
-531 -160 0
-532 -129 -33 0
-532 129 33 0
-532 -130 -34 0
-532 130 34 0
-532 -131 -35 0
-532 131 35 0
-532 -132 -36 0
-532 132 36 0
-532 -133 0
-532 -134 0
-532 -135 0
-532 -136 0
-532 -137 -41 0
-532 137 41 0
-532 -138 -42 0
-532 138 42 0
-532 -139 -43 0
-532 139 43 0
-532 -140 -44 0
-532 140 44 0
-532 -141 0
-532 -142 0
-532 -143 0
-532 -144 0
-532 -145 -49 0
-532 145 49 0
-532 -146 -50 0
-532 146 50 0
-532 -147 -51 0
-532 147 51 0
-532 -148 -52 0
-532 148 52 0
-532 -149 0
-532 -150 0
-532 -151 0
-532 -152 0
-532 -153 -57 0
-532 153 57 0
-532 -154 -58 0
-532 154 58 0
-532 -155 -59 0
-532 155 59 0
-532 -156 -60 0
-532 156 60 0
-532 -157 0
-532 -158 0
-532 -159 0
-532 -160 0
-533 -129 0
-533 -130 0
-533 -131 0
-533 -132 0
-533 -133 69 0
-533 133 -69 0
-533 -134 70 0
-533 134 -70 0
-533 -135 71 0
-533 135 -71 0
-533 -136 72 0
-533 136 -72 0
-533 -137 0
-533 -138 0
-533 -139 0
-533 -140 0
-533 -141 77 0
-533 141 -77 0
-533 -142 78 0
-533 142 -78 0
-533 -143 79 0
-533 143 -79 0
-533 -144 80 0
-533 144 -80 0
-533 -145 0
-533 -146 0
-533 -147 0
-533 -148 0
-533 -149 85 0
-533 149 -85 0
-533 -150 86 0
-533 150 -86 0
-533 -151 87 0
-533 151 -87 0
-533 -152 88 0
-533 152 -88 0
-533 -153 0
-533 -154 0
-533 -155 0
-533 -156 0
-533 -157 93 0
-533 157 -93 0
-533 -158 94 0
-533 158 -94 0
-533 -159 95 0
-533 159 -95 0
-533 -160 96 0
-533 160 -96 0
-534 -129 0
-534 -130 0
-534 -131 0
-534 -132 0
-534 -133 -69 0
-534 133 69 0
-534 -134 -70 0
-534 134 70 0
-534 -135 -71 0
-534 135 71 0
-534 -136 -72 0
-534 136 72 0
-534 -137 0
-534 -138 0
-534 -139 0
-534 -140 0
-534 -141 -77 0
-534 141 77 0
-534 -142 -78 0
-534 142 78 0
-534 -143 -79 0
-534 143 79 0
-534 -144 -80 0
-534 144 80 0
-534 -145 0
-534 -146 0
-534 -147 0
-534 -148 0
-534 -149 -85 0
-534 149 85 0
-534 -150 -86 0
-534 150 86 0
-534 -151 -87 0
-534 151 87 0
-534 -152 -88 0
-534 152 88 0
-534 -153 0
-534 -154 0
-534 -155 0
-534 -156 0
-534 -157 -93 0
-534 157 93 0
-534 -158 -94 0
-534 158 94 0
-534 -159 -95 0
-534 159 95 0
-534 -160 -96 0
-534 160 96 0
-535 -129 65 0
-535 129 -65 0
-535 -130 66 0
-535 130 -66 0
-535 -131 67 0
-535 131 -67 0
-535 -132 68 0
-535 132 -68 0
-535 -133 0
-535 -134 0
-535 -135 0
-535 -136 0
-535 -137 73 0
-535 137 -73 0
-535 -138 74 0
-535 138 -74 0
-535 -139 75 0
-535 139 -75 0
-535 -140 76 0
-535 140 -76 0
-535 -141 0
-535 -142 0
-535 -143 0
-535 -144 0
-535 -145 81 0
-535 145 -81 0
-535 -146 82 0
-535 146 -82 0
-535 -147 83 0
-535 147 -83 0
-535 -148 84 0
-535 148 -84 0
-535 -149 0
-535 -150 0
-535 -151 0
-535 -152 0
-535 -153 89 0
-535 153 -89 0
-535 -154 90 0
-535 154 -90 0
-535 -155 91 0
-535 155 -91 0
-535 -156 92 0
-535 156 -92 0
-535 -157 0
-535 -158 0
-535 -159 0
-535 -160 0
-536 -129 -65 0
-536 129 65 0
-536 -130 -66 0
-536 130 66 0
-536 -131 -67 0
-536 131 67 0
-536 -132 -68 0
-536 132 68 0
-536 -133 0
-536 -134 0
-536 -135 0
-536 -136 0
-536 -137 -73 0
-536 137 73 0
-536 -138 -74 0
-536 138 74 0
-536 -139 -75 0
-536 139 75 0
-536 -140 -76 0
-536 140 76 0
-536 -141 0
-536 -142 0
-536 -143 0
-536 -144 0
-536 -145 -81 0
-536 145 81 0
-536 -146 -82 0
-536 146 82 0
-536 -147 -83 0
-536 147 83 0
-536 -148 -84 0
-536 148 84 0
-536 -149 0
-536 -150 0
-536 -151 0
-536 -152 0
-536 -153 -89 0
-536 153 89 0
-536 -154 -90 0
-536 154 90 0
-536 -155 -91 0
-536 155 91 0
-536 -156 -92 0
-536 156 92 0
-536 -157 0
-536 -158 0
-536 -159 0
-536 -160 0
-537 -129 0
-537 -130 0
-537 -131 0
-537 -132 0
-537 -133 101 0
-537 133 -101 0
-537 -134 102 0
-537 134 -102 0
-537 -135 103 0
-537 135 -103 0
-537 -136 104 0
-537 136 -104 0
-537 -137 0
-537 -138 0
-537 -139 0
-537 -140 0
-537 -141 109 0
-537 141 -109 0
-537 -142 110 0
-537 142 -110 0
-537 -143 111 0
-537 143 -111 0
-537 -144 112 0
-537 144 -112 0
-537 -145 0
-537 -146 0
-537 -147 0
-537 -148 0
-537 -149 117 0
-537 149 -117 0
-537 -150 118 0
-537 150 -118 0
-537 -151 119 0
-537 151 -119 0
-537 -152 120 0
-537 152 -120 0
-537 -153 0
-537 -154 0
-537 -155 0
-537 -156 0
-537 -157 125 0
-537 157 -125 0
-537 -158 126 0
-537 158 -126 0
-537 -159 127 0
-537 159 -127 0
-537 -160 128 0
-537 160 -128 0
-538 -129 0
-538 -130 0
-538 -131 0
-538 -132 0
-538 -133 -101 0
-538 133 101 0
-538 -134 -102 0
-538 134 102 0
-538 -135 -103 0
-538 135 103 0
-538 -136 -104 0
-538 136 104 0
-538 -137 0
-538 -138 0
-538 -139 0
-538 -140 0
-538 -141 -109 0
-538 141 109 0
-538 -142 -110 0
-538 142 110 0
-538 -143 -111 0
-538 143 111 0
-538 -144 -112 0
-538 144 112 0
-538 -145 0
-538 -146 0
-538 -147 0
-538 -148 0
-538 -149 -117 0
-538 149 117 0
-538 -150 -118 0
-538 150 118 0
-538 -151 -119 0
-538 151 119 0
-538 -152 -120 0
-538 152 120 0
-538 -153 0
-538 -154 0
-538 -155 0
-538 -156 0
-538 -157 -125 0
-538 157 125 0
-538 -158 -126 0
-538 158 126 0
-538 -159 -127 0
-538 159 127 0
-538 -160 -128 0
-538 160 128 0
-539 -129 97 0
-539 129 -97 0
-539 -130 98 0
-539 130 -98 0
-539 -131 99 0
-539 131 -99 0
-539 -132 100 0
-539 132 -100 0
-539 -133 0
-539 -134 0
-539 -135 0
-539 -136 0
-539 -137 105 0
-539 137 -105 0
-539 -138 106 0
-539 138 -106 0
-539 -139 107 0
-539 139 -107 0
-539 -140 108 0
-539 140 -108 0
-539 -141 0
-539 -142 0
-539 -143 0
-539 -144 0
-539 -145 113 0
-539 145 -113 0
-539 -146 114 0
-539 146 -114 0
-539 -147 115 0
-539 147 -115 0
-539 -148 116 0
-539 148 -116 0
-539 -149 0
-539 -150 0
-539 -151 0
-539 -152 0
-539 -153 121 0
-539 153 -121 0
-539 -154 122 0
-539 154 -122 0
-539 -155 123 0
-539 155 -123 0
-539 -156 124 0
-539 156 -124 0
-539 -157 0
-539 -158 0
-539 -159 0
-539 -160 0
-540 -129 -97 0
-540 129 97 0
-540 -130 -98 0
-540 130 98 0
-540 -131 -99 0
-540 131 99 0
-540 -132 -100 0
-540 132 100 0
-540 -133 0
-540 -134 0
-540 -135 0
-540 -136 0
-540 -137 -105 0
-540 137 105 0
-540 -138 -106 0
-540 138 106 0
-540 -139 -107 0
-540 139 107 0
-540 -140 -108 0
-540 140 108 0
-540 -141 0
-540 -142 0
-540 -143 0
-540 -144 0
-540 -145 -113 0
-540 145 113 0
-540 -146 -114 0
-540 146 114 0
-540 -147 -115 0
-540 147 115 0
-540 -148 -116 0
-540 148 116 0
-540 -149 0
-540 -150 0
-540 -151 0
-540 -152 0
-540 -153 -121 0
-540 153 121 0
-540 -154 -122 0
-540 154 122 0
-540 -155 -123 0
-540 155 123 0
-540 -156 -124 0
-540 156 124 0
-540 -157 0
-540 -158 0
-540 -159 0
-540 -160 0
-541 -129 0
-541 -130 0
-541 -131 0
-541 -132 0
-541 -133 0
-541 -134 0
-541 -135 0
-541 -136 0
-541 -137 0
-541 -138 0
-541 -139 0
-541 -140 0
-541 -141 0
-541 -142 0
-541 -143 0
-541 -144 0
-541 -145 0
-541 -146 0
-541 -147 0
-541 -148 0
-541 -149 0
-541 -150 0
-541 -151 0
-541 -152 0
-541 153 0
-541 154 0
-541 155 0
-541 156 0
-541 157 0
-541 158 0
-541 159 0
-541 160 0
-542 -129 0
-542 -130 0
-542 -131 0
-542 -132 0
-542 -133 0
-542 -134 0
-542 -135 0
-542 -136 0
-542 137 0
-542 138 0
-542 139 0
-542 140 0
-542 141 0
-542 142 0
-542 143 0
-542 144 0
-542 -145 0
-542 -146 0
-542 -147 0
-542 -148 0
-542 -149 0
-542 -150 0
-542 -151 0
-542 -152 0
-542 -153 0
-542 -154 0
-542 -155 0
-542 -156 0
-542 -157 0
-542 -158 0
-542 -159 0
-542 -160 0
-543 -129 0
-543 -130 0
-543 -131 0
-543 -132 0
-543 -133 0
-543 -134 0
-543 -135 0
-543 -136 0
-543 -137 0
-543 -138 0
-543 -139 0
-543 -140 0
-543 -141 0
-543 -142 0
-543 -143 0
-543 -144 0
-543 145 0
-543 146 0
-543 147 0
-543 148 0
-543 149 0
-543 150 0
-543 151 0
-543 152 0
-543 -153 0
-543 -154 0
-543 -155 0
-543 -156 0
-543 -157 0
-543 -158 0
-543 -159 0
-543 -160 0
-544 129 0
-544 130 0
-544 131 0
-544 132 0
-544 133 0
-544 134 0
-544 135 0
-544 136 0
-544 -137 0
-544 -138 0
-544 -139 0
-544 -140 0
-544 -141 0
-544 -142 0
-544 -143 0
-544 -144 0
-544 -145 0
-544 -146 0
-544 -147 0
-544 -148 0
-544 -149 0
-544 -150 0
-544 -151 0
-544 -152 0
-544 -153 0
-544 -154 0
-544 -155 0
-544 -156 0
-544 -157 0
-544 -158 0
-544 -159 0
-544 -160 0
-545 -129 0
-545 -130 0
-545 -131 0
-545 -132 0
-545 -133 0
-545 -134 0
-545 -135 0
-545 -136 0
-545 -137 9 0
-545 137 -9 0
-545 -138 10 0
-545 138 -10 0
-545 -139 11 0
-545 139 -11 0
-545 -140 12 0
-545 140 -12 0
-545 -141 13 0
-545 141 -13 0
-545 -142 14 0
-545 142 -14 0
-545 -143 15 0
-545 143 -15 0
-545 -144 16 0
-545 144 -16 0
-545 -145 0
-545 -146 0
-545 -147 0
-545 -148 0
-545 -149 0
-545 -150 0
-545 -151 0
-545 -152 0
-545 -153 25 0
-545 153 -25 0
-545 -154 26 0
-545 154 -26 0
-545 -155 27 0
-545 155 -27 0
-545 -156 28 0
-545 156 -28 0
-545 -157 29 0
-545 157 -29 0
-545 -158 30 0
-545 158 -30 0
-545 -159 31 0
-545 159 -31 0
-545 -160 32 0
-545 160 -32 0
-546 -129 0
-546 -130 0
-546 -131 0
-546 -132 0
-546 -133 0
-546 -134 0
-546 -135 0
-546 -136 0
-546 -137 -9 0
-546 137 9 0
-546 -138 -10 0
-546 138 10 0
-546 -139 -11 0
-546 139 11 0
-546 -140 -12 0
-546 140 12 0
-546 -141 -13 0
-546 141 13 0
-546 -142 -14 0
-546 142 14 0
-546 -143 -15 0
-546 143 15 0
-546 -144 -16 0
-546 144 16 0
-546 -145 0
-546 -146 0
-546 -147 0
-546 -148 0
-546 -149 0
-546 -150 0
-546 -151 0
-546 -152 0
-546 -153 -25 0
-546 153 25 0
-546 -154 -26 0
-546 154 26 0
-546 -155 -27 0
-546 155 27 0
-546 -156 -28 0
-546 156 28 0
-546 -157 -29 0
-546 157 29 0
-546 -158 -30 0
-546 158 30 0
-546 -159 -31 0
-546 159 31 0
-546 -160 -32 0
-546 160 32 0
-547 -129 1 0
-547 129 -1 0
-547 -130 2 0
-547 130 -2 0
-547 -131 3 0
-547 131 -3 0
-547 -132 4 0
-547 132 -4 0
-547 -133 5 0
-547 133 -5 0
-547 -134 6 0
-547 134 -6 0
-547 -135 7 0
-547 135 -7 0
-547 -136 8 0
-547 136 -8 0
-547 -137 0
-547 -138 0
-547 -139 0
-547 -140 0
-547 -141 0
-547 -142 0
-547 -143 0
-547 -144 0
-547 -145 17 0
-547 145 -17 0
-547 -146 18 0
-547 146 -18 0
-547 -147 19 0
-547 147 -19 0
-547 -148 20 0
-547 148 -20 0
-547 -149 21 0
-547 149 -21 0
-547 -150 22 0
-547 150 -22 0
-547 -151 23 0
-547 151 -23 0
-547 -152 24 0
-547 152 -24 0
-547 -153 0
-547 -154 0
-547 -155 0
-547 -156 0
-547 -157 0
-547 -158 0
-547 -159 0
-547 -160 0
-548 -129 -1 0
-548 129 1 0
-548 -130 -2 0
-548 130 2 0
-548 -131 -3 0
-548 131 3 0
-548 -132 -4 0
-548 132 4 0
-548 -133 -5 0
-548 133 5 0
-548 -134 -6 0
-548 134 6 0
-548 -135 -7 0
-548 135 7 0
-548 -136 -8 0
-548 136 8 0
-548 -137 0
-548 -138 0
-548 -139 0
-548 -140 0
-548 -141 0
-548 -142 0
-548 -143 0
-548 -144 0
-548 -145 -17 0
-548 145 17 0
-548 -146 -18 0
-548 146 18 0
-548 -147 -19 0
-548 147 19 0
-548 -148 -20 0
-548 148 20 0
-548 -149 -21 0
-548 149 21 0
-548 -150 -22 0
-548 150 22 0
-548 -151 -23 0
-548 151 23 0
-548 -152 -24 0
-548 152 24 0
-548 -153 0
-548 -154 0
-548 -155 0
-548 -156 0
-548 -157 0
-548 -158 0
-548 -159 0
-548 -160 0
-549 -129 0
-549 -130 0
-549 -131 0
-549 -132 0
-549 -133 0
-549 -134 0
-549 -135 0
-549 -136 0
-549 -137 41 0
-549 137 -41 0
-549 -138 42 0
-549 138 -42 0
-549 -139 43 0
-549 139 -43 0
-549 -140 44 0
-549 140 -44 0
-549 -141 45 0
-549 141 -45 0
-549 -142 46 0
-549 142 -46 0
-549 -143 47 0
-549 143 -47 0
-549 -144 48 0
-549 144 -48 0
-549 -145 0
-549 -146 0
-549 -147 0
-549 -148 0
-549 -149 0
-549 -150 0
-549 -151 0
-549 -152 0
-549 -153 57 0
-549 153 -57 0
-549 -154 58 0
-549 154 -58 0
-549 -155 59 0
-549 155 -59 0
-549 -156 60 0
-549 156 -60 0
-549 -157 61 0
-549 157 -61 0
-549 -158 62 0
-549 158 -62 0
-549 -159 63 0
-549 159 -63 0
-549 -160 64 0
-549 160 -64 0
-550 -129 0
-550 -130 0
-550 -131 0
-550 -132 0
-550 -133 0
-550 -134 0
-550 -135 0
-550 -136 0
-550 -137 -41 0
-550 137 41 0
-550 -138 -42 0
-550 138 42 0
-550 -139 -43 0
-550 139 43 0
-550 -140 -44 0
-550 140 44 0
-550 -141 -45 0
-550 141 45 0
-550 -142 -46 0
-550 142 46 0
-550 -143 -47 0
-550 143 47 0
-550 -144 -48 0
-550 144 48 0
-550 -145 0
-550 -146 0
-550 -147 0
-550 -148 0
-550 -149 0
-550 -150 0
-550 -151 0
-550 -152 0
-550 -153 -57 0
-550 153 57 0
-550 -154 -58 0
-550 154 58 0
-550 -155 -59 0
-550 155 59 0
-550 -156 -60 0
-550 156 60 0
-550 -157 -61 0
-550 157 61 0
-550 -158 -62 0
-550 158 62 0
-550 -159 -63 0
-550 159 63 0
-550 -160 -64 0
-550 160 64 0
-551 -129 33 0
-551 129 -33 0
-551 -130 34 0
-551 130 -34 0
-551 -131 35 0
-551 131 -35 0
-551 -132 36 0
-551 132 -36 0
-551 -133 37 0
-551 133 -37 0
-551 -134 38 0
-551 134 -38 0
-551 -135 39 0
-551 135 -39 0
-551 -136 40 0
-551 136 -40 0
-551 -137 0
-551 -138 0
-551 -139 0
-551 -140 0
-551 -141 0
-551 -142 0
-551 -143 0
-551 -144 0
-551 -145 49 0
-551 145 -49 0
-551 -146 50 0
-551 146 -50 0
-551 -147 51 0
-551 147 -51 0
-551 -148 52 0
-551 148 -52 0
-551 -149 53 0
-551 149 -53 0
-551 -150 54 0
-551 150 -54 0
-551 -151 55 0
-551 151 -55 0
-551 -152 56 0
-551 152 -56 0
-551 -153 0
-551 -154 0
-551 -155 0
-551 -156 0
-551 -157 0
-551 -158 0
-551 -159 0
-551 -160 0
-552 -129 -33 0
-552 129 33 0
-552 -130 -34 0
-552 130 34 0
-552 -131 -35 0
-552 131 35 0
-552 -132 -36 0
-552 132 36 0
-552 -133 -37 0
-552 133 37 0
-552 -134 -38 0
-552 134 38 0
-552 -135 -39 0
-552 135 39 0
-552 -136 -40 0
-552 136 40 0
-552 -137 0
-552 -138 0
-552 -139 0
-552 -140 0
-552 -141 0
-552 -142 0
-552 -143 0
-552 -144 0
-552 -145 -49 0
-552 145 49 0
-552 -146 -50 0
-552 146 50 0
-552 -147 -51 0
-552 147 51 0
-552 -148 -52 0
-552 148 52 0
-552 -149 -53 0
-552 149 53 0
-552 -150 -54 0
-552 150 54 0
-552 -151 -55 0
-552 151 55 0
-552 -152 -56 0
-552 152 56 0
-552 -153 0
-552 -154 0
-552 -155 0
-552 -156 0
-552 -157 0
-552 -158 0
-552 -159 0
-552 -160 0
-553 -129 0
-553 -130 0
-553 -131 0
-553 -132 0
-553 -133 0
-553 -134 0
-553 -135 0
-553 -136 0
-553 -137 73 0
-553 137 -73 0
-553 -138 74 0
-553 138 -74 0
-553 -139 75 0
-553 139 -75 0
-553 -140 76 0
-553 140 -76 0
-553 -141 77 0
-553 141 -77 0
-553 -142 78 0
-553 142 -78 0
-553 -143 79 0
-553 143 -79 0
-553 -144 80 0
-553 144 -80 0
-553 -145 0
-553 -146 0
-553 -147 0
-553 -148 0
-553 -149 0
-553 -150 0
-553 -151 0
-553 -152 0
-553 -153 89 0
-553 153 -89 0
-553 -154 90 0
-553 154 -90 0
-553 -155 91 0
-553 155 -91 0
-553 -156 92 0
-553 156 -92 0
-553 -157 93 0
-553 157 -93 0
-553 -158 94 0
-553 158 -94 0
-553 -159 95 0
-553 159 -95 0
-553 -160 96 0
-553 160 -96 0
-554 -129 0
-554 -130 0
-554 -131 0
-554 -132 0
-554 -133 0
-554 -134 0
-554 -135 0
-554 -136 0
-554 -137 -73 0
-554 137 73 0
-554 -138 -74 0
-554 138 74 0
-554 -139 -75 0
-554 139 75 0
-554 -140 -76 0
-554 140 76 0
-554 -141 -77 0
-554 141 77 0
-554 -142 -78 0
-554 142 78 0
-554 -143 -79 0
-554 143 79 0
-554 -144 -80 0
-554 144 80 0
-554 -145 0
-554 -146 0
-554 -147 0
-554 -148 0
-554 -149 0
-554 -150 0
-554 -151 0
-554 -152 0
-554 -153 -89 0
-554 153 89 0
-554 -154 -90 0
-554 154 90 0
-554 -155 -91 0
-554 155 91 0
-554 -156 -92 0
-554 156 92 0
-554 -157 -93 0
-554 157 93 0
-554 -158 -94 0
-554 158 94 0
-554 -159 -95 0
-554 159 95 0
-554 -160 -96 0
-554 160 96 0
-555 -129 65 0
-555 129 -65 0
-555 -130 66 0
-555 130 -66 0
-555 -131 67 0
-555 131 -67 0
-555 -132 68 0
-555 132 -68 0
-555 -133 69 0
-555 133 -69 0
-555 -134 70 0
-555 134 -70 0
-555 -135 71 0
-555 135 -71 0
-555 -136 72 0
-555 136 -72 0
-555 -137 0
-555 -138 0
-555 -139 0
-555 -140 0
-555 -141 0
-555 -142 0
-555 -143 0
-555 -144 0
-555 -145 81 0
-555 145 -81 0
-555 -146 82 0
-555 146 -82 0
-555 -147 83 0
-555 147 -83 0
-555 -148 84 0
-555 148 -84 0
-555 -149 85 0
-555 149 -85 0
-555 -150 86 0
-555 150 -86 0
-555 -151 87 0
-555 151 -87 0
-555 -152 88 0
-555 152 -88 0
-555 -153 0
-555 -154 0
-555 -155 0
-555 -156 0
-555 -157 0
-555 -158 0
-555 -159 0
-555 -160 0
-556 -129 -65 0
-556 129 65 0
-556 -130 -66 0
-556 130 66 0
-556 -131 -67 0
-556 131 67 0
-556 -132 -68 0
-556 132 68 0
-556 -133 -69 0
-556 133 69 0
-556 -134 -70 0
-556 134 70 0
-556 -135 -71 0
-556 135 71 0
-556 -136 -72 0
-556 136 72 0
-556 -137 0
-556 -138 0
-556 -139 0
-556 -140 0
-556 -141 0
-556 -142 0
-556 -143 0
-556 -144 0
-556 -145 -81 0
-556 145 81 0
-556 -146 -82 0
-556 146 82 0
-556 -147 -83 0
-556 147 83 0
-556 -148 -84 0
-556 148 84 0
-556 -149 -85 0
-556 149 85 0
-556 -150 -86 0
-556 150 86 0
-556 -151 -87 0
-556 151 87 0
-556 -152 -88 0
-556 152 88 0
-556 -153 0
-556 -154 0
-556 -155 0
-556 -156 0
-556 -157 0
-556 -158 0
-556 -159 0
-556 -160 0
-557 -129 0
-557 -130 0
-557 -131 0
-557 -132 0
-557 -133 0
-557 -134 0
-557 -135 0
-557 -136 0
-557 -137 105 0
-557 137 -105 0
-557 -138 106 0
-557 138 -106 0
-557 -139 107 0
-557 139 -107 0
-557 -140 108 0
-557 140 -108 0
-557 -141 109 0
-557 141 -109 0
-557 -142 110 0
-557 142 -110 0
-557 -143 111 0
-557 143 -111 0
-557 -144 112 0
-557 144 -112 0
-557 -145 0
-557 -146 0
-557 -147 0
-557 -148 0
-557 -149 0
-557 -150 0
-557 -151 0
-557 -152 0
-557 -153 121 0
-557 153 -121 0
-557 -154 122 0
-557 154 -122 0
-557 -155 123 0
-557 155 -123 0
-557 -156 124 0
-557 156 -124 0
-557 -157 125 0
-557 157 -125 0
-557 -158 126 0
-557 158 -126 0
-557 -159 127 0
-557 159 -127 0
-557 -160 128 0
-557 160 -128 0
-558 -129 0
-558 -130 0
-558 -131 0
-558 -132 0
-558 -133 0
-558 -134 0
-558 -135 0
-558 -136 0
-558 -137 -105 0
-558 137 105 0
-558 -138 -106 0
-558 138 106 0
-558 -139 -107 0
-558 139 107 0
-558 -140 -108 0
-558 140 108 0
-558 -141 -109 0
-558 141 109 0
-558 -142 -110 0
-558 142 110 0
-558 -143 -111 0
-558 143 111 0
-558 -144 -112 0
-558 144 112 0
-558 -145 0
-558 -146 0
-558 -147 0
-558 -148 0
-558 -149 0
-558 -150 0
-558 -151 0
-558 -152 0
-558 -153 -121 0
-558 153 121 0
-558 -154 -122 0
-558 154 122 0
-558 -155 -123 0
-558 155 123 0
-558 -156 -124 0
-558 156 124 0
-558 -157 -125 0
-558 157 125 0
-558 -158 -126 0
-558 158 126 0
-558 -159 -127 0
-558 159 127 0
-558 -160 -128 0
-558 160 128 0
-559 -129 97 0
-559 129 -97 0
-559 -130 98 0
-559 130 -98 0
-559 -131 99 0
-559 131 -99 0
-559 -132 100 0
-559 132 -100 0
-559 -133 101 0
-559 133 -101 0
-559 -134 102 0
-559 134 -102 0
-559 -135 103 0
-559 135 -103 0
-559 -136 104 0
-559 136 -104 0
-559 -137 0
-559 -138 0
-559 -139 0
-559 -140 0
-559 -141 0
-559 -142 0
-559 -143 0
-559 -144 0
-559 -145 113 0
-559 145 -113 0
-559 -146 114 0
-559 146 -114 0
-559 -147 115 0
-559 147 -115 0
-559 -148 116 0
-559 148 -116 0
-559 -149 117 0
-559 149 -117 0
-559 -150 118 0
-559 150 -118 0
-559 -151 119 0
-559 151 -119 0
-559 -152 120 0
-559 152 -120 0
-559 -153 0
-559 -154 0
-559 -155 0
-559 -156 0
-559 -157 0
-559 -158 0
-559 -159 0
-559 -160 0
-560 -129 -97 0
-560 129 97 0
-560 -130 -98 0
-560 130 98 0
-560 -131 -99 0
-560 131 99 0
-560 -132 -100 0
-560 132 100 0
-560 -133 -101 0
-560 133 101 0
-560 -134 -102 0
-560 134 102 0
-560 -135 -103 0
-560 135 103 0
-560 -136 -104 0
-560 136 104 0
-560 -137 0
-560 -138 0
-560 -139 0
-560 -140 0
-560 -141 0
-560 -142 0
-560 -143 0
-560 -144 0
-560 -145 -113 0
-560 145 113 0
-560 -146 -114 0
-560 146 114 0
-560 -147 -115 0
-560 147 115 0
-560 -148 -116 0
-560 148 116 0
-560 -149 -117 0
-560 149 117 0
-560 -150 -118 0
-560 150 118 0
-560 -151 -119 0
-560 151 119 0
-560 -152 -120 0
-560 152 120 0
-560 -153 0
-560 -154 0
-560 -155 0
-560 -156 0
-560 -157 0
-560 -158 0
-560 -159 0
-560 -160 0
-561 -129 0
-561 -130 0
-561 -131 0
-561 -132 0
-561 -133 0
-561 -134 0
-561 -135 0
-561 -136 0
-561 -137 0
-561 -138 0
-561 -139 0
-561 -140 0
-561 -141 0
-561 -142 0
-561 -143 0
-561 -144 0
-561 -145 17 0
-561 145 -17 0
-561 -146 18 0
-561 146 -18 0
-561 -147 19 0
-561 147 -19 0
-561 -148 20 0
-561 148 -20 0
-561 -149 21 0
-561 149 -21 0
-561 -150 22 0
-561 150 -22 0
-561 -151 23 0
-561 151 -23 0
-561 -152 24 0
-561 152 -24 0
-561 -153 25 0
-561 153 -25 0
-561 -154 26 0
-561 154 -26 0
-561 -155 27 0
-561 155 -27 0
-561 -156 28 0
-561 156 -28 0
-561 -157 29 0
-561 157 -29 0
-561 -158 30 0
-561 158 -30 0
-561 -159 31 0
-561 159 -31 0
-561 -160 32 0
-561 160 -32 0
-562 -129 0
-562 -130 0
-562 -131 0
-562 -132 0
-562 -133 0
-562 -134 0
-562 -135 0
-562 -136 0
-562 -137 0
-562 -138 0
-562 -139 0
-562 -140 0
-562 -141 0
-562 -142 0
-562 -143 0
-562 -144 0
-562 -145 -17 0
-562 145 17 0
-562 -146 -18 0
-562 146 18 0
-562 -147 -19 0
-562 147 19 0
-562 -148 -20 0
-562 148 20 0
-562 -149 -21 0
-562 149 21 0
-562 -150 -22 0
-562 150 22 0
-562 -151 -23 0
-562 151 23 0
-562 -152 -24 0
-562 152 24 0
-562 -153 -25 0
-562 153 25 0
-562 -154 -26 0
-562 154 26 0
-562 -155 -27 0
-562 155 27 0
-562 -156 -28 0
-562 156 28 0
-562 -157 -29 0
-562 157 29 0
-562 -158 -30 0
-562 158 30 0
-562 -159 -31 0
-562 159 31 0
-562 -160 -32 0
-562 160 32 0
-563 -129 1 0
-563 129 -1 0
-563 -130 2 0
-563 130 -2 0
-563 -131 3 0
-563 131 -3 0
-563 -132 4 0
-563 132 -4 0
-563 -133 5 0
-563 133 -5 0
-563 -134 6 0
-563 134 -6 0
-563 -135 7 0
-563 135 -7 0
-563 -136 8 0
-563 136 -8 0
-563 -137 9 0
-563 137 -9 0
-563 -138 10 0
-563 138 -10 0
-563 -139 11 0
-563 139 -11 0
-563 -140 12 0
-563 140 -12 0
-563 -141 13 0
-563 141 -13 0
-563 -142 14 0
-563 142 -14 0
-563 -143 15 0
-563 143 -15 0
-563 -144 16 0
-563 144 -16 0
-563 -145 0
-563 -146 0
-563 -147 0
-563 -148 0
-563 -149 0
-563 -150 0
-563 -151 0
-563 -152 0
-563 -153 0
-563 -154 0
-563 -155 0
-563 -156 0
-563 -157 0
-563 -158 0
-563 -159 0
-563 -160 0
-564 -129 -1 0
-564 129 1 0
-564 -130 -2 0
-564 130 2 0
-564 -131 -3 0
-564 131 3 0
-564 -132 -4 0
-564 132 4 0
-564 -133 -5 0
-564 133 5 0
-564 -134 -6 0
-564 134 6 0
-564 -135 -7 0
-564 135 7 0
-564 -136 -8 0
-564 136 8 0
-564 -137 -9 0
-564 137 9 0
-564 -138 -10 0
-564 138 10 0
-564 -139 -11 0
-564 139 11 0
-564 -140 -12 0
-564 140 12 0
-564 -141 -13 0
-564 141 13 0
-564 -142 -14 0
-564 142 14 0
-564 -143 -15 0
-564 143 15 0
-564 -144 -16 0
-564 144 16 0
-564 -145 0
-564 -146 0
-564 -147 0
-564 -148 0
-564 -149 0
-564 -150 0
-564 -151 0
-564 -152 0
-564 -153 0
-564 -154 0
-564 -155 0
-564 -156 0
-564 -157 0
-564 -158 0
-564 -159 0
-564 -160 0
-565 -129 0
-565 -130 0
-565 -131 0
-565 -132 0
-565 -133 0
-565 -134 0
-565 -135 0
-565 -136 0
-565 -137 0
-565 -138 0
-565 -139 0
-565 -140 0
-565 -141 0
-565 -142 0
-565 -143 0
-565 -144 0
-565 -145 49 0
-565 145 -49 0
-565 -146 50 0
-565 146 -50 0
-565 -147 51 0
-565 147 -51 0
-565 -148 52 0
-565 148 -52 0
-565 -149 53 0
-565 149 -53 0
-565 -150 54 0
-565 150 -54 0
-565 -151 55 0
-565 151 -55 0
-565 -152 56 0
-565 152 -56 0
-565 -153 57 0
-565 153 -57 0
-565 -154 58 0
-565 154 -58 0
-565 -155 59 0
-565 155 -59 0
-565 -156 60 0
-565 156 -60 0
-565 -157 61 0
-565 157 -61 0
-565 -158 62 0
-565 158 -62 0
-565 -159 63 0
-565 159 -63 0
-565 -160 64 0
-565 160 -64 0
-566 -129 0
-566 -130 0
-566 -131 0
-566 -132 0
-566 -133 0
-566 -134 0
-566 -135 0
-566 -136 0
-566 -137 0
-566 -138 0
-566 -139 0
-566 -140 0
-566 -141 0
-566 -142 0
-566 -143 0
-566 -144 0
-566 -145 -49 0
-566 145 49 0
-566 -146 -50 0
-566 146 50 0
-566 -147 -51 0
-566 147 51 0
-566 -148 -52 0
-566 148 52 0
-566 -149 -53 0
-566 149 53 0
-566 -150 -54 0
-566 150 54 0
-566 -151 -55 0
-566 151 55 0
-566 -152 -56 0
-566 152 56 0
-566 -153 -57 0
-566 153 57 0
-566 -154 -58 0
-566 154 58 0
-566 -155 -59 0
-566 155 59 0
-566 -156 -60 0
-566 156 60 0
-566 -157 -61 0
-566 157 61 0
-566 -158 -62 0
-566 158 62 0
-566 -159 -63 0
-566 159 63 0
-566 -160 -64 0
-566 160 64 0
-567 -129 33 0
-567 129 -33 0
-567 -130 34 0
-567 130 -34 0
-567 -131 35 0
-567 131 -35 0
-567 -132 36 0
-567 132 -36 0
-567 -133 37 0
-567 133 -37 0
-567 -134 38 0
-567 134 -38 0
-567 -135 39 0
-567 135 -39 0
-567 -136 40 0
-567 136 -40 0
-567 -137 41 0
-567 137 -41 0
-567 -138 42 0
-567 138 -42 0
-567 -139 43 0
-567 139 -43 0
-567 -140 44 0
-567 140 -44 0
-567 -141 45 0
-567 141 -45 0
-567 -142 46 0
-567 142 -46 0
-567 -143 47 0
-567 143 -47 0
-567 -144 48 0
-567 144 -48 0
-567 -145 0
-567 -146 0
-567 -147 0
-567 -148 0
-567 -149 0
-567 -150 0
-567 -151 0
-567 -152 0
-567 -153 0
-567 -154 0
-567 -155 0
-567 -156 0
-567 -157 0
-567 -158 0
-567 -159 0
-567 -160 0
-568 -129 -33 0
-568 129 33 0
-568 -130 -34 0
-568 130 34 0
-568 -131 -35 0
-568 131 35 0
-568 -132 -36 0
-568 132 36 0
-568 -133 -37 0
-568 133 37 0
-568 -134 -38 0
-568 134 38 0
-568 -135 -39 0
-568 135 39 0
-568 -136 -40 0
-568 136 40 0
-568 -137 -41 0
-568 137 41 0
-568 -138 -42 0
-568 138 42 0
-568 -139 -43 0
-568 139 43 0
-568 -140 -44 0
-568 140 44 0
-568 -141 -45 0
-568 141 45 0
-568 -142 -46 0
-568 142 46 0
-568 -143 -47 0
-568 143 47 0
-568 -144 -48 0
-568 144 48 0
-568 -145 0
-568 -146 0
-568 -147 0
-568 -148 0
-568 -149 0
-568 -150 0
-568 -151 0
-568 -152 0
-568 -153 0
-568 -154 0
-568 -155 0
-568 -156 0
-568 -157 0
-568 -158 0
-568 -159 0
-568 -160 0
-569 -129 0
-569 -130 0
-569 -131 0
-569 -132 0
-569 -133 0
-569 -134 0
-569 -135 0
-569 -136 0
-569 -137 0
-569 -138 0
-569 -139 0
-569 -140 0
-569 -141 0
-569 -142 0
-569 -143 0
-569 -144 0
-569 -145 81 0
-569 145 -81 0
-569 -146 82 0
-569 146 -82 0
-569 -147 83 0
-569 147 -83 0
-569 -148 84 0
-569 148 -84 0
-569 -149 85 0
-569 149 -85 0
-569 -150 86 0
-569 150 -86 0
-569 -151 87 0
-569 151 -87 0
-569 -152 88 0
-569 152 -88 0
-569 -153 89 0
-569 153 -89 0
-569 -154 90 0
-569 154 -90 0
-569 -155 91 0
-569 155 -91 0
-569 -156 92 0
-569 156 -92 0
-569 -157 93 0
-569 157 -93 0
-569 -158 94 0
-569 158 -94 0
-569 -159 95 0
-569 159 -95 0
-569 -160 96 0
-569 160 -96 0
-570 -129 0
-570 -130 0
-570 -131 0
-570 -132 0
-570 -133 0
-570 -134 0
-570 -135 0
-570 -136 0
-570 -137 0
-570 -138 0
-570 -139 0
-570 -140 0
-570 -141 0
-570 -142 0
-570 -143 0
-570 -144 0
-570 -145 -81 0
-570 145 81 0
-570 -146 -82 0
-570 146 82 0
-570 -147 -83 0
-570 147 83 0
-570 -148 -84 0
-570 148 84 0
-570 -149 -85 0
-570 149 85 0
-570 -150 -86 0
-570 150 86 0
-570 -151 -87 0
-570 151 87 0
-570 -152 -88 0
-570 152 88 0
-570 -153 -89 0
-570 153 89 0
-570 -154 -90 0
-570 154 90 0
-570 -155 -91 0
-570 155 91 0
-570 -156 -92 0
-570 156 92 0
-570 -157 -93 0
-570 157 93 0
-570 -158 -94 0
-570 158 94 0
-570 -159 -95 0
-570 159 95 0
-570 -160 -96 0
-570 160 96 0
-571 -129 65 0
-571 129 -65 0
-571 -130 66 0
-571 130 -66 0
-571 -131 67 0
-571 131 -67 0
-571 -132 68 0
-571 132 -68 0
-571 -133 69 0
-571 133 -69 0
-571 -134 70 0
-571 134 -70 0
-571 -135 71 0
-571 135 -71 0
-571 -136 72 0
-571 136 -72 0
-571 -137 73 0
-571 137 -73 0
-571 -138 74 0
-571 138 -74 0
-571 -139 75 0
-571 139 -75 0
-571 -140 76 0
-571 140 -76 0
-571 -141 77 0
-571 141 -77 0
-571 -142 78 0
-571 142 -78 0
-571 -143 79 0
-571 143 -79 0
-571 -144 80 0
-571 144 -80 0
-571 -145 0
-571 -146 0
-571 -147 0
-571 -148 0
-571 -149 0
-571 -150 0
-571 -151 0
-571 -152 0
-571 -153 0
-571 -154 0
-571 -155 0
-571 -156 0
-571 -157 0
-571 -158 0
-571 -159 0
-571 -160 0
-572 -129 -65 0
-572 129 65 0
-572 -130 -66 0
-572 130 66 0
-572 -131 -67 0
-572 131 67 0
-572 -132 -68 0
-572 132 68 0
-572 -133 -69 0
-572 133 69 0
-572 -134 -70 0
-572 134 70 0
-572 -135 -71 0
-572 135 71 0
-572 -136 -72 0
-572 136 72 0
-572 -137 -73 0
-572 137 73 0
-572 -138 -74 0
-572 138 74 0
-572 -139 -75 0
-572 139 75 0
-572 -140 -76 0
-572 140 76 0
-572 -141 -77 0
-572 141 77 0
-572 -142 -78 0
-572 142 78 0
-572 -143 -79 0
-572 143 79 0
-572 -144 -80 0
-572 144 80 0
-572 -145 0
-572 -146 0
-572 -147 0
-572 -148 0
-572 -149 0
-572 -150 0
-572 -151 0
-572 -152 0
-572 -153 0
-572 -154 0
-572 -155 0
-572 -156 0
-572 -157 0
-572 -158 0
-572 -159 0
-572 -160 0
-573 -129 0
-573 -130 0
-573 -131 0
-573 -132 0
-573 -133 0
-573 -134 0
-573 -135 0
-573 -136 0
-573 -137 0
-573 -138 0
-573 -139 0
-573 -140 0
-573 -141 0
-573 -142 0
-573 -143 0
-573 -144 0
-573 -145 113 0
-573 145 -113 0
-573 -146 114 0
-573 146 -114 0
-573 -147 115 0
-573 147 -115 0
-573 -148 116 0
-573 148 -116 0
-573 -149 117 0
-573 149 -117 0
-573 -150 118 0
-573 150 -118 0
-573 -151 119 0
-573 151 -119 0
-573 -152 120 0
-573 152 -120 0
-573 -153 121 0
-573 153 -121 0
-573 -154 122 0
-573 154 -122 0
-573 -155 123 0
-573 155 -123 0
-573 -156 124 0
-573 156 -124 0
-573 -157 125 0
-573 157 -125 0
-573 -158 126 0
-573 158 -126 0
-573 -159 127 0
-573 159 -127 0
-573 -160 128 0
-573 160 -128 0
-574 -129 0
-574 -130 0
-574 -131 0
-574 -132 0
-574 -133 0
-574 -134 0
-574 -135 0
-574 -136 0
-574 -137 0
-574 -138 0
-574 -139 0
-574 -140 0
-574 -141 0
-574 -142 0
-574 -143 0
-574 -144 0
-574 -145 -113 0
-574 145 113 0
-574 -146 -114 0
-574 146 114 0
-574 -147 -115 0
-574 147 115 0
-574 -148 -116 0
-574 148 116 0
-574 -149 -117 0
-574 149 117 0
-574 -150 -118 0
-574 150 118 0
-574 -151 -119 0
-574 151 119 0
-574 -152 -120 0
-574 152 120 0
-574 -153 -121 0
-574 153 121 0
-574 -154 -122 0
-574 154 122 0
-574 -155 -123 0
-574 155 123 0
-574 -156 -124 0
-574 156 124 0
-574 -157 -125 0
-574 157 125 0
-574 -158 -126 0
-574 158 126 0
-574 -159 -127 0
-574 159 127 0
-574 -160 -128 0
-574 160 128 0
-575 -129 97 0
-575 129 -97 0
-575 -130 98 0
-575 130 -98 0
-575 -131 99 0
-575 131 -99 0
-575 -132 100 0
-575 132 -100 0
-575 -133 101 0
-575 133 -101 0
-575 -134 102 0
-575 134 -102 0
-575 -135 103 0
-575 135 -103 0
-575 -136 104 0
-575 136 -104 0
-575 -137 105 0
-575 137 -105 0
-575 -138 106 0
-575 138 -106 0
-575 -139 107 0
-575 139 -107 0
-575 -140 108 0
-575 140 -108 0
-575 -141 109 0
-575 141 -109 0
-575 -142 110 0
-575 142 -110 0
-575 -143 111 0
-575 143 -111 0
-575 -144 112 0
-575 144 -112 0
-575 -145 0
-575 -146 0
-575 -147 0
-575 -148 0
-575 -149 0
-575 -150 0
-575 -151 0
-575 -152 0
-575 -153 0
-575 -154 0
-575 -155 0
-575 -156 0
-575 -157 0
-575 -158 0
-575 -159 0
-575 -160 0
-576 -129 -97 0
-576 129 97 0
-576 -130 -98 0
-576 130 98 0
-576 -131 -99 0
-576 131 99 0
-576 -132 -100 0
-576 132 100 0
-576 -133 -101 0
-576 133 101 0
-576 -134 -102 0
-576 134 102 0
-576 -135 -103 0
-576 135 103 0
-576 -136 -104 0
-576 136 104 0
-576 -137 -105 0
-576 137 105 0
-576 -138 -106 0
-576 138 106 0
-576 -139 -107 0
-576 139 107 0
-576 -140 -108 0
-576 140 108 0
-576 -141 -109 0
-576 141 109 0
-576 -142 -110 0
-576 142 110 0
-576 -143 -111 0
-576 143 111 0
-576 -144 -112 0
-576 144 112 0
-576 -145 0
-576 -146 0
-576 -147 0
-576 -148 0
-576 -149 0
-576 -150 0
-576 -151 0
-576 -152 0
-576 -153 0
-576 -154 0
-576 -155 0
-576 -156 0
-576 -157 0
-576 -158 0
-576 -159 0
-576 -160 0
-577 -129 1 0
-577 -129 33 0
-577 129 -1 -33 0
-577 -130 2 0
-577 -130 34 0
-577 130 -2 -34 0
-577 -131 3 0
-577 -131 35 0
-577 131 -3 -35 0
-577 -132 4 0
-577 -132 36 0
-577 132 -4 -36 0
-577 -133 5 0
-577 -133 37 0
-577 133 -5 -37 0
-577 -134 6 0
-577 -134 38 0
-577 134 -6 -38 0
-577 -135 7 0
-577 -135 39 0
-577 135 -7 -39 0
-577 -136 8 0
-577 -136 40 0
-577 136 -8 -40 0
-577 -137 9 0
-577 -137 41 0
-577 137 -9 -41 0
-577 -138 10 0
-577 -138 42 0
-577 138 -10 -42 0
-577 -139 11 0
-577 -139 43 0
-577 139 -11 -43 0
-577 -140 12 0
-577 -140 44 0
-577 140 -12 -44 0
-577 -141 13 0
-577 -141 45 0
-577 141 -13 -45 0
-577 -142 14 0
-577 -142 46 0
-577 142 -14 -46 0
-577 -143 15 0
-577 -143 47 0
-577 143 -15 -47 0
-577 -144 16 0
-577 -144 48 0
-577 144 -16 -48 0
-577 -145 17 0
-577 -145 49 0
-577 145 -17 -49 0
-577 -146 18 0
-577 -146 50 0
-577 146 -18 -50 0
-577 -147 19 0
-577 -147 51 0
-577 147 -19 -51 0
-577 -148 20 0
-577 -148 52 0
-577 148 -20 -52 0
-577 -149 21 0
-577 -149 53 0
-577 149 -21 -53 0
-577 -150 22 0
-577 -150 54 0
-577 150 -22 -54 0
-577 -151 23 0
-577 -151 55 0
-577 151 -23 -55 0
-577 -152 24 0
-577 -152 56 0
-577 152 -24 -56 0
-577 -153 25 0
-577 -153 57 0
-577 153 -25 -57 0
-577 -154 26 0
-577 -154 58 0
-577 154 -26 -58 0
-577 -155 27 0
-577 -155 59 0
-577 155 -27 -59 0
-577 -156 28 0
-577 -156 60 0
-577 156 -28 -60 0
-577 -157 29 0
-577 -157 61 0
-577 157 -29 -61 0
-577 -158 30 0
-577 -158 62 0
-577 158 -30 -62 0
-577 -159 31 0
-577 -159 63 0
-577 159 -31 -63 0
-577 -160 32 0
-577 -160 64 0
-577 160 -32 -64 0
-578 -129 1 0
-578 -129 -33 0
-578 129 -1 33 0
-578 -130 2 0
-578 -130 -34 0
-578 130 -2 34 0
-578 -131 3 0
-578 -131 -35 0
-578 131 -3 35 0
-578 -132 4 0
-578 -132 -36 0
-578 132 -4 36 0
-578 -133 5 0
-578 -133 -37 0
-578 133 -5 37 0
-578 -134 6 0
-578 -134 -38 0
-578 134 -6 38 0
-578 -135 7 0
-578 -135 -39 0
-578 135 -7 39 0
-578 -136 8 0
-578 -136 -40 0
-578 136 -8 40 0
-578 -137 9 0
-578 -137 -41 0
-578 137 -9 41 0
-578 -138 10 0
-578 -138 -42 0
-578 138 -10 42 0
-578 -139 11 0
-578 -139 -43 0
-578 139 -11 43 0
-578 -140 12 0
-578 -140 -44 0
-578 140 -12 44 0
-578 -141 13 0
-578 -141 -45 0
-578 141 -13 45 0
-578 -142 14 0
-578 -142 -46 0
-578 142 -14 46 0
-578 -143 15 0
-578 -143 -47 0
-578 143 -15 47 0
-578 -144 16 0
-578 -144 -48 0
-578 144 -16 48 0
-578 -145 17 0
-578 -145 -49 0
-578 145 -17 49 0
-578 -146 18 0
-578 -146 -50 0
-578 146 -18 50 0
-578 -147 19 0
-578 -147 -51 0
-578 147 -19 51 0
-578 -148 20 0
-578 -148 -52 0
-578 148 -20 52 0
-578 -149 21 0
-578 -149 -53 0
-578 149 -21 53 0
-578 -150 22 0
-578 -150 -54 0
-578 150 -22 54 0
-578 -151 23 0
-578 -151 -55 0
-578 151 -23 55 0
-578 -152 24 0
-578 -152 -56 0
-578 152 -24 56 0
-578 -153 25 0
-578 -153 -57 0
-578 153 -25 57 0
-578 -154 26 0
-578 -154 -58 0
-578 154 -26 58 0
-578 -155 27 0
-578 -155 -59 0
-578 155 -27 59 0
-578 -156 28 0
-578 -156 -60 0
-578 156 -28 60 0
-578 -157 29 0
-578 -157 -61 0
-578 157 -29 61 0
-578 -158 30 0
-578 -158 -62 0
-578 158 -30 62 0
-578 -159 31 0
-578 -159 -63 0
-578 159 -31 63 0
-578 -160 32 0
-578 -160 -64 0
-578 160 -32 64 0
-579 -129 -1 0
-579 -129 33 0
-579 129 1 -33 0
-579 -130 -2 0
-579 -130 34 0
-579 130 2 -34 0
-579 -131 -3 0
-579 -131 35 0
-579 131 3 -35 0
-579 -132 -4 0
-579 -132 36 0
-579 132 4 -36 0
-579 -133 -5 0
-579 -133 37 0
-579 133 5 -37 0
-579 -134 -6 0
-579 -134 38 0
-579 134 6 -38 0
-579 -135 -7 0
-579 -135 39 0
-579 135 7 -39 0
-579 -136 -8 0
-579 -136 40 0
-579 136 8 -40 0
-579 -137 -9 0
-579 -137 41 0
-579 137 9 -41 0
-579 -138 -10 0
-579 -138 42 0
-579 138 10 -42 0
-579 -139 -11 0
-579 -139 43 0
-579 139 11 -43 0
-579 -140 -12 0
-579 -140 44 0
-579 140 12 -44 0
-579 -141 -13 0
-579 -141 45 0
-579 141 13 -45 0
-579 -142 -14 0
-579 -142 46 0
-579 142 14 -46 0
-579 -143 -15 0
-579 -143 47 0
-579 143 15 -47 0
-579 -144 -16 0
-579 -144 48 0
-579 144 16 -48 0
-579 -145 -17 0
-579 -145 49 0
-579 145 17 -49 0
-579 -146 -18 0
-579 -146 50 0
-579 146 18 -50 0
-579 -147 -19 0
-579 -147 51 0
-579 147 19 -51 0
-579 -148 -20 0
-579 -148 52 0
-579 148 20 -52 0
-579 -149 -21 0
-579 -149 53 0
-579 149 21 -53 0
-579 -150 -22 0
-579 -150 54 0
-579 150 22 -54 0
-579 -151 -23 0
-579 -151 55 0
-579 151 23 -55 0
-579 -152 -24 0
-579 -152 56 0
-579 152 24 -56 0
-579 -153 -25 0
-579 -153 57 0
-579 153 25 -57 0
-579 -154 -26 0
-579 -154 58 0
-579 154 26 -58 0
-579 -155 -27 0
-579 -155 59 0
-579 155 27 -59 0
-579 -156 -28 0
-579 -156 60 0
-579 156 28 -60 0
-579 -157 -29 0
-579 -157 61 0
-579 157 29 -61 0
-579 -158 -30 0
-579 -158 62 0
-579 158 30 -62 0
-579 -159 -31 0
-579 -159 63 0
-579 159 31 -63 0
-579 -160 -32 0
-579 -160 64 0
-579 160 32 -64 0
-580 -129 -1 0
-580 -129 -33 0
-580 129 1 33 0
-580 -130 -2 0
-580 -130 -34 0
-580 130 2 34 0
-580 -131 -3 0
-580 -131 -35 0
-580 131 3 35 0
-580 -132 -4 0
-580 -132 -36 0
-580 132 4 36 0
-580 -133 -5 0
-580 -133 -37 0
-580 133 5 37 0
-580 -134 -6 0
-580 -134 -38 0
-580 134 6 38 0
-580 -135 -7 0
-580 -135 -39 0
-580 135 7 39 0
-580 -136 -8 0
-580 -136 -40 0
-580 136 8 40 0
-580 -137 -9 0
-580 -137 -41 0
-580 137 9 41 0
-580 -138 -10 0
-580 -138 -42 0
-580 138 10 42 0
-580 -139 -11 0
-580 -139 -43 0
-580 139 11 43 0
-580 -140 -12 0
-580 -140 -44 0
-580 140 12 44 0
-580 -141 -13 0
-580 -141 -45 0
-580 141 13 45 0
-580 -142 -14 0
-580 -142 -46 0
-580 142 14 46 0
-580 -143 -15 0
-580 -143 -47 0
-580 143 15 47 0
-580 -144 -16 0
-580 -144 -48 0
-580 144 16 48 0
-580 -145 -17 0
-580 -145 -49 0
-580 145 17 49 0
-580 -146 -18 0
-580 -146 -50 0
-580 146 18 50 0
-580 -147 -19 0
-580 -147 -51 0
-580 147 19 51 0
-580 -148 -20 0
-580 -148 -52 0
-580 148 20 52 0
-580 -149 -21 0
-580 -149 -53 0
-580 149 21 53 0
-580 -150 -22 0
-580 -150 -54 0
-580 150 22 54 0
-580 -151 -23 0
-580 -151 -55 0
-580 151 23 55 0
-580 -152 -24 0
-580 -152 -56 0
-580 152 24 56 0
-580 -153 -25 0
-580 -153 -57 0
-580 153 25 57 0
-580 -154 -26 0
-580 -154 -58 0
-580 154 26 58 0
-580 -155 -27 0
-580 -155 -59 0
-580 155 27 59 0
-580 -156 -28 0
-580 -156 -60 0
-580 156 28 60 0
-580 -157 -29 0
-580 -157 -61 0
-580 157 29 61 0
-580 -158 -30 0
-580 -158 -62 0
-580 158 30 62 0
-580 -159 -31 0
-580 -159 -63 0
-580 159 31 63 0
-580 -160 -32 0
-580 -160 -64 0
-580 160 32 64 0
-581 -129 1 0
-581 -129 65 0
-581 129 -1 -65 0
-581 -130 2 0
-581 -130 66 0
-581 130 -2 -66 0
-581 -131 3 0
-581 -131 67 0
-581 131 -3 -67 0
-581 -132 4 0
-581 -132 68 0
-581 132 -4 -68 0
-581 -133 5 0
-581 -133 69 0
-581 133 -5 -69 0
-581 -134 6 0
-581 -134 70 0
-581 134 -6 -70 0
-581 -135 7 0
-581 -135 71 0
-581 135 -7 -71 0
-581 -136 8 0
-581 -136 72 0
-581 136 -8 -72 0
-581 -137 9 0
-581 -137 73 0
-581 137 -9 -73 0
-581 -138 10 0
-581 -138 74 0
-581 138 -10 -74 0
-581 -139 11 0
-581 -139 75 0
-581 139 -11 -75 0
-581 -140 12 0
-581 -140 76 0
-581 140 -12 -76 0
-581 -141 13 0
-581 -141 77 0
-581 141 -13 -77 0
-581 -142 14 0
-581 -142 78 0
-581 142 -14 -78 0
-581 -143 15 0
-581 -143 79 0
-581 143 -15 -79 0
-581 -144 16 0
-581 -144 80 0
-581 144 -16 -80 0
-581 -145 17 0
-581 -145 81 0
-581 145 -17 -81 0
-581 -146 18 0
-581 -146 82 0
-581 146 -18 -82 0
-581 -147 19 0
-581 -147 83 0
-581 147 -19 -83 0
-581 -148 20 0
-581 -148 84 0
-581 148 -20 -84 0
-581 -149 21 0
-581 -149 85 0
-581 149 -21 -85 0
-581 -150 22 0
-581 -150 86 0
-581 150 -22 -86 0
-581 -151 23 0
-581 -151 87 0
-581 151 -23 -87 0
-581 -152 24 0
-581 -152 88 0
-581 152 -24 -88 0
-581 -153 25 0
-581 -153 89 0
-581 153 -25 -89 0
-581 -154 26 0
-581 -154 90 0
-581 154 -26 -90 0
-581 -155 27 0
-581 -155 91 0
-581 155 -27 -91 0
-581 -156 28 0
-581 -156 92 0
-581 156 -28 -92 0
-581 -157 29 0
-581 -157 93 0
-581 157 -29 -93 0
-581 -158 30 0
-581 -158 94 0
-581 158 -30 -94 0
-581 -159 31 0
-581 -159 95 0
-581 159 -31 -95 0
-581 -160 32 0
-581 -160 96 0
-581 160 -32 -96 0
-582 -129 1 0
-582 -129 -65 0
-582 129 -1 65 0
-582 -130 2 0
-582 -130 -66 0
-582 130 -2 66 0
-582 -131 3 0
-582 -131 -67 0
-582 131 -3 67 0
-582 -132 4 0
-582 -132 -68 0
-582 132 -4 68 0
-582 -133 5 0
-582 -133 -69 0
-582 133 -5 69 0
-582 -134 6 0
-582 -134 -70 0
-582 134 -6 70 0
-582 -135 7 0
-582 -135 -71 0
-582 135 -7 71 0
-582 -136 8 0
-582 -136 -72 0
-582 136 -8 72 0
-582 -137 9 0
-582 -137 -73 0
-582 137 -9 73 0
-582 -138 10 0
-582 -138 -74 0
-582 138 -10 74 0
-582 -139 11 0
-582 -139 -75 0
-582 139 -11 75 0
-582 -140 12 0
-582 -140 -76 0
-582 140 -12 76 0
-582 -141 13 0
-582 -141 -77 0
-582 141 -13 77 0
-582 -142 14 0
-582 -142 -78 0
-582 142 -14 78 0
-582 -143 15 0
-582 -143 -79 0
-582 143 -15 79 0
-582 -144 16 0
-582 -144 -80 0
-582 144 -16 80 0
-582 -145 17 0
-582 -145 -81 0
-582 145 -17 81 0
-582 -146 18 0
-582 -146 -82 0
-582 146 -18 82 0
-582 -147 19 0
-582 -147 -83 0
-582 147 -19 83 0
-582 -148 20 0
-582 -148 -84 0
-582 148 -20 84 0
-582 -149 21 0
-582 -149 -85 0
-582 149 -21 85 0
-582 -150 22 0
-582 -150 -86 0
-582 150 -22 86 0
-582 -151 23 0
-582 -151 -87 0
-582 151 -23 87 0
-582 -152 24 0
-582 -152 -88 0
-582 152 -24 88 0
-582 -153 25 0
-582 -153 -89 0
-582 153 -25 89 0
-582 -154 26 0
-582 -154 -90 0
-582 154 -26 90 0
-582 -155 27 0
-582 -155 -91 0
-582 155 -27 91 0
-582 -156 28 0
-582 -156 -92 0
-582 156 -28 92 0
-582 -157 29 0
-582 -157 -93 0
-582 157 -29 93 0
-582 -158 30 0
-582 -158 -94 0
-582 158 -30 94 0
-582 -159 31 0
-582 -159 -95 0
-582 159 -31 95 0
-582 -160 32 0
-582 -160 -96 0
-582 160 -32 96 0
-583 -129 -1 0
-583 -129 65 0
-583 129 1 -65 0
-583 -130 -2 0
-583 -130 66 0
-583 130 2 -66 0
-583 -131 -3 0
-583 -131 67 0
-583 131 3 -67 0
-583 -132 -4 0
-583 -132 68 0
-583 132 4 -68 0
-583 -133 -5 0
-583 -133 69 0
-583 133 5 -69 0
-583 -134 -6 0
-583 -134 70 0
-583 134 6 -70 0
-583 -135 -7 0
-583 -135 71 0
-583 135 7 -71 0
-583 -136 -8 0
-583 -136 72 0
-583 136 8 -72 0
-583 -137 -9 0
-583 -137 73 0
-583 137 9 -73 0
-583 -138 -10 0
-583 -138 74 0
-583 138 10 -74 0
-583 -139 -11 0
-583 -139 75 0
-583 139 11 -75 0
-583 -140 -12 0
-583 -140 76 0
-583 140 12 -76 0
-583 -141 -13 0
-583 -141 77 0
-583 141 13 -77 0
-583 -142 -14 0
-583 -142 78 0
-583 142 14 -78 0
-583 -143 -15 0
-583 -143 79 0
-583 143 15 -79 0
-583 -144 -16 0
-583 -144 80 0
-583 144 16 -80 0
-583 -145 -17 0
-583 -145 81 0
-583 145 17 -81 0
-583 -146 -18 0
-583 -146 82 0
-583 146 18 -82 0
-583 -147 -19 0
-583 -147 83 0
-583 147 19 -83 0
-583 -148 -20 0
-583 -148 84 0
-583 148 20 -84 0
-583 -149 -21 0
-583 -149 85 0
-583 149 21 -85 0
-583 -150 -22 0
-583 -150 86 0
-583 150 22 -86 0
-583 -151 -23 0
-583 -151 87 0
-583 151 23 -87 0
-583 -152 -24 0
-583 -152 88 0
-583 152 24 -88 0
-583 -153 -25 0
-583 -153 89 0
-583 153 25 -89 0
-583 -154 -26 0
-583 -154 90 0
-583 154 26 -90 0
-583 -155 -27 0
-583 -155 91 0
-583 155 27 -91 0
-583 -156 -28 0
-583 -156 92 0
-583 156 28 -92 0
-583 -157 -29 0
-583 -157 93 0
-583 157 29 -93 0
-583 -158 -30 0
-583 -158 94 0
-583 158 30 -94 0
-583 -159 -31 0
-583 -159 95 0
-583 159 31 -95 0
-583 -160 -32 0
-583 -160 96 0
-583 160 32 -96 0
-584 -129 -1 0
-584 -129 -65 0
-584 129 1 65 0
-584 -130 -2 0
-584 -130 -66 0
-584 130 2 66 0
-584 -131 -3 0
-584 -131 -67 0
-584 131 3 67 0
-584 -132 -4 0
-584 -132 -68 0
-584 132 4 68 0
-584 -133 -5 0
-584 -133 -69 0
-584 133 5 69 0
-584 -134 -6 0
-584 -134 -70 0
-584 134 6 70 0
-584 -135 -7 0
-584 -135 -71 0
-584 135 7 71 0
-584 -136 -8 0
-584 -136 -72 0
-584 136 8 72 0
-584 -137 -9 0
-584 -137 -73 0
-584 137 9 73 0
-584 -138 -10 0
-584 -138 -74 0
-584 138 10 74 0
-584 -139 -11 0
-584 -139 -75 0
-584 139 11 75 0
-584 -140 -12 0
-584 -140 -76 0
-584 140 12 76 0
-584 -141 -13 0
-584 -141 -77 0
-584 141 13 77 0
-584 -142 -14 0
-584 -142 -78 0
-584 142 14 78 0
-584 -143 -15 0
-584 -143 -79 0
-584 143 15 79 0
-584 -144 -16 0
-584 -144 -80 0
-584 144 16 80 0
-584 -145 -17 0
-584 -145 -81 0
-584 145 17 81 0
-584 -146 -18 0
-584 -146 -82 0
-584 146 18 82 0
-584 -147 -19 0
-584 -147 -83 0
-584 147 19 83 0
-584 -148 -20 0
-584 -148 -84 0
-584 148 20 84 0
-584 -149 -21 0
-584 -149 -85 0
-584 149 21 85 0
-584 -150 -22 0
-584 -150 -86 0
-584 150 22 86 0
-584 -151 -23 0
-584 -151 -87 0
-584 151 23 87 0
-584 -152 -24 0
-584 -152 -88 0
-584 152 24 88 0
-584 -153 -25 0
-584 -153 -89 0
-584 153 25 89 0
-584 -154 -26 0
-584 -154 -90 0
-584 154 26 90 0
-584 -155 -27 0
-584 -155 -91 0
-584 155 27 91 0
-584 -156 -28 0
-584 -156 -92 0
-584 156 28 92 0
-584 -157 -29 0
-584 -157 -93 0
-584 157 29 93 0
-584 -158 -30 0
-584 -158 -94 0
-584 158 30 94 0
-584 -159 -31 0
-584 -159 -95 0
-584 159 31 95 0
-584 -160 -32 0
-584 -160 -96 0
-584 160 32 96 0
-585 -129 1 0
-585 -129 97 0
-585 129 -1 -97 0
-585 -130 2 0
-585 -130 98 0
-585 130 -2 -98 0
-585 -131 3 0
-585 -131 99 0
-585 131 -3 -99 0
-585 -132 4 0
-585 -132 100 0
-585 132 -4 -100 0
-585 -133 5 0
-585 -133 101 0
-585 133 -5 -101 0
-585 -134 6 0
-585 -134 102 0
-585 134 -6 -102 0
-585 -135 7 0
-585 -135 103 0
-585 135 -7 -103 0
-585 -136 8 0
-585 -136 104 0
-585 136 -8 -104 0
-585 -137 9 0
-585 -137 105 0
-585 137 -9 -105 0
-585 -138 10 0
-585 -138 106 0
-585 138 -10 -106 0
-585 -139 11 0
-585 -139 107 0
-585 139 -11 -107 0
-585 -140 12 0
-585 -140 108 0
-585 140 -12 -108 0
-585 -141 13 0
-585 -141 109 0
-585 141 -13 -109 0
-585 -142 14 0
-585 -142 110 0
-585 142 -14 -110 0
-585 -143 15 0
-585 -143 111 0
-585 143 -15 -111 0
-585 -144 16 0
-585 -144 112 0
-585 144 -16 -112 0
-585 -145 17 0
-585 -145 113 0
-585 145 -17 -113 0
-585 -146 18 0
-585 -146 114 0
-585 146 -18 -114 0
-585 -147 19 0
-585 -147 115 0
-585 147 -19 -115 0
-585 -148 20 0
-585 -148 116 0
-585 148 -20 -116 0
-585 -149 21 0
-585 -149 117 0
-585 149 -21 -117 0
-585 -150 22 0
-585 -150 118 0
-585 150 -22 -118 0
-585 -151 23 0
-585 -151 119 0
-585 151 -23 -119 0
-585 -152 24 0
-585 -152 120 0
-585 152 -24 -120 0
-585 -153 25 0
-585 -153 121 0
-585 153 -25 -121 0
-585 -154 26 0
-585 -154 122 0
-585 154 -26 -122 0
-585 -155 27 0
-585 -155 123 0
-585 155 -27 -123 0
-585 -156 28 0
-585 -156 124 0
-585 156 -28 -124 0
-585 -157 29 0
-585 -157 125 0
-585 157 -29 -125 0
-585 -158 30 0
-585 -158 126 0
-585 158 -30 -126 0
-585 -159 31 0
-585 -159 127 0
-585 159 -31 -127 0
-585 -160 32 0
-585 -160 128 0
-585 160 -32 -128 0
-586 -129 1 0
-586 -129 -97 0
-586 129 -1 97 0
-586 -130 2 0
-586 -130 -98 0
-586 130 -2 98 0
-586 -131 3 0
-586 -131 -99 0
-586 131 -3 99 0
-586 -132 4 0
-586 -132 -100 0
-586 132 -4 100 0
-586 -133 5 0
-586 -133 -101 0
-586 133 -5 101 0
-586 -134 6 0
-586 -134 -102 0
-586 134 -6 102 0
-586 -135 7 0
-586 -135 -103 0
-586 135 -7 103 0
-586 -136 8 0
-586 -136 -104 0
-586 136 -8 104 0
-586 -137 9 0
-586 -137 -105 0
-586 137 -9 105 0
-586 -138 10 0
-586 -138 -106 0
-586 138 -10 106 0
-586 -139 11 0
-586 -139 -107 0
-586 139 -11 107 0
-586 -140 12 0
-586 -140 -108 0
-586 140 -12 108 0
-586 -141 13 0
-586 -141 -109 0
-586 141 -13 109 0
-586 -142 14 0
-586 -142 -110 0
-586 142 -14 110 0
-586 -143 15 0
-586 -143 -111 0
-586 143 -15 111 0
-586 -144 16 0
-586 -144 -112 0
-586 144 -16 112 0
-586 -145 17 0
-586 -145 -113 0
-586 145 -17 113 0
-586 -146 18 0
-586 -146 -114 0
-586 146 -18 114 0
-586 -147 19 0
-586 -147 -115 0
-586 147 -19 115 0
-586 -148 20 0
-586 -148 -116 0
-586 148 -20 116 0
-586 -149 21 0
-586 -149 -117 0
-586 149 -21 117 0
-586 -150 22 0
-586 -150 -118 0
-586 150 -22 118 0
-586 -151 23 0
-586 -151 -119 0
-586 151 -23 119 0
-586 -152 24 0
-586 -152 -120 0
-586 152 -24 120 0
-586 -153 25 0
-586 -153 -121 0
-586 153 -25 121 0
-586 -154 26 0
-586 -154 -122 0
-586 154 -26 122 0
-586 -155 27 0
-586 -155 -123 0
-586 155 -27 123 0
-586 -156 28 0
-586 -156 -124 0
-586 156 -28 124 0
-586 -157 29 0
-586 -157 -125 0
-586 157 -29 125 0
-586 -158 30 0
-586 -158 -126 0
-586 158 -30 126 0
-586 -159 31 0
-586 -159 -127 0
-586 159 -31 127 0
-586 -160 32 0
-586 -160 -128 0
-586 160 -32 128 0
-587 -129 -1 0
-587 -129 97 0
-587 129 1 -97 0
-587 -130 -2 0
-587 -130 98 0
-587 130 2 -98 0
-587 -131 -3 0
-587 -131 99 0
-587 131 3 -99 0
-587 -132 -4 0
-587 -132 100 0
-587 132 4 -100 0
-587 -133 -5 0
-587 -133 101 0
-587 133 5 -101 0
-587 -134 -6 0
-587 -134 102 0
-587 134 6 -102 0
-587 -135 -7 0
-587 -135 103 0
-587 135 7 -103 0
-587 -136 -8 0
-587 -136 104 0
-587 136 8 -104 0
-587 -137 -9 0
-587 -137 105 0
-587 137 9 -105 0
-587 -138 -10 0
-587 -138 106 0
-587 138 10 -106 0
-587 -139 -11 0
-587 -139 107 0
-587 139 11 -107 0
-587 -140 -12 0
-587 -140 108 0
-587 140 12 -108 0
-587 -141 -13 0
-587 -141 109 0
-587 141 13 -109 0
-587 -142 -14 0
-587 -142 110 0
-587 142 14 -110 0
-587 -143 -15 0
-587 -143 111 0
-587 143 15 -111 0
-587 -144 -16 0
-587 -144 112 0
-587 144 16 -112 0
-587 -145 -17 0
-587 -145 113 0
-587 145 17 -113 0
-587 -146 -18 0
-587 -146 114 0
-587 146 18 -114 0
-587 -147 -19 0
-587 -147 115 0
-587 147 19 -115 0
-587 -148 -20 0
-587 -148 116 0
-587 148 20 -116 0
-587 -149 -21 0
-587 -149 117 0
-587 149 21 -117 0
-587 -150 -22 0
-587 -150 118 0
-587 150 22 -118 0
-587 -151 -23 0
-587 -151 119 0
-587 151 23 -119 0
-587 -152 -24 0
-587 -152 120 0
-587 152 24 -120 0
-587 -153 -25 0
-587 -153 121 0
-587 153 25 -121 0
-587 -154 -26 0
-587 -154 122 0
-587 154 26 -122 0
-587 -155 -27 0
-587 -155 123 0
-587 155 27 -123 0
-587 -156 -28 0
-587 -156 124 0
-587 156 28 -124 0
-587 -157 -29 0
-587 -157 125 0
-587 157 29 -125 0
-587 -158 -30 0
-587 -158 126 0
-587 158 30 -126 0
-587 -159 -31 0
-587 -159 127 0
-587 159 31 -127 0
-587 -160 -32 0
-587 -160 128 0
-587 160 32 -128 0
-588 -129 -1 0
-588 -129 -97 0
-588 129 1 97 0
-588 -130 -2 0
-588 -130 -98 0
-588 130 2 98 0
-588 -131 -3 0
-588 -131 -99 0
-588 131 3 99 0
-588 -132 -4 0
-588 -132 -100 0
-588 132 4 100 0
-588 -133 -5 0
-588 -133 -101 0
-588 133 5 101 0
-588 -134 -6 0
-588 -134 -102 0
-588 134 6 102 0
-588 -135 -7 0
-588 -135 -103 0
-588 135 7 103 0
-588 -136 -8 0
-588 -136 -104 0
-588 136 8 104 0
-588 -137 -9 0
-588 -137 -105 0
-588 137 9 105 0
-588 -138 -10 0
-588 -138 -106 0
-588 138 10 106 0
-588 -139 -11 0
-588 -139 -107 0
-588 139 11 107 0
-588 -140 -12 0
-588 -140 -108 0
-588 140 12 108 0
-588 -141 -13 0
-588 -141 -109 0
-588 141 13 109 0
-588 -142 -14 0
-588 -142 -110 0
-588 142 14 110 0
-588 -143 -15 0
-588 -143 -111 0
-588 143 15 111 0
-588 -144 -16 0
-588 -144 -112 0
-588 144 16 112 0
-588 -145 -17 0
-588 -145 -113 0
-588 145 17 113 0
-588 -146 -18 0
-588 -146 -114 0
-588 146 18 114 0
-588 -147 -19 0
-588 -147 -115 0
-588 147 19 115 0
-588 -148 -20 0
-588 -148 -116 0
-588 148 20 116 0
-588 -149 -21 0
-588 -149 -117 0
-588 149 21 117 0
-588 -150 -22 0
-588 -150 -118 0
-588 150 22 118 0
-588 -151 -23 0
-588 -151 -119 0
-588 151 23 119 0
-588 -152 -24 0
-588 -152 -120 0
-588 152 24 120 0
-588 -153 -25 0
-588 -153 -121 0
-588 153 25 121 0
-588 -154 -26 0
-588 -154 -122 0
-588 154 26 122 0
-588 -155 -27 0
-588 -155 -123 0
-588 155 27 123 0
-588 -156 -28 0
-588 -156 -124 0
-588 156 28 124 0
-588 -157 -29 0
-588 -157 -125 0
-588 157 29 125 0
-588 -158 -30 0
-588 -158 -126 0
-588 158 30 126 0
-588 -159 -31 0
-588 -159 -127 0
-588 159 31 127 0
-588 -160 -32 0
-588 -160 -128 0
-588 160 32 128 0
-589 -129 33 0
-589 -129 65 0
-589 129 -33 -65 0
-589 -130 34 0
-589 -130 66 0
-589 130 -34 -66 0
-589 -131 35 0
-589 -131 67 0
-589 131 -35 -67 0
-589 -132 36 0
-589 -132 68 0
-589 132 -36 -68 0
-589 -133 37 0
-589 -133 69 0
-589 133 -37 -69 0
-589 -134 38 0
-589 -134 70 0
-589 134 -38 -70 0
-589 -135 39 0
-589 -135 71 0
-589 135 -39 -71 0
-589 -136 40 0
-589 -136 72 0
-589 136 -40 -72 0
-589 -137 41 0
-589 -137 73 0
-589 137 -41 -73 0
-589 -138 42 0
-589 -138 74 0
-589 138 -42 -74 0
-589 -139 43 0
-589 -139 75 0
-589 139 -43 -75 0
-589 -140 44 0
-589 -140 76 0
-589 140 -44 -76 0
-589 -141 45 0
-589 -141 77 0
-589 141 -45 -77 0
-589 -142 46 0
-589 -142 78 0
-589 142 -46 -78 0
-589 -143 47 0
-589 -143 79 0
-589 143 -47 -79 0
-589 -144 48 0
-589 -144 80 0
-589 144 -48 -80 0
-589 -145 49 0
-589 -145 81 0
-589 145 -49 -81 0
-589 -146 50 0
-589 -146 82 0
-589 146 -50 -82 0
-589 -147 51 0
-589 -147 83 0
-589 147 -51 -83 0
-589 -148 52 0
-589 -148 84 0
-589 148 -52 -84 0
-589 -149 53 0
-589 -149 85 0
-589 149 -53 -85 0
-589 -150 54 0
-589 -150 86 0
-589 150 -54 -86 0
-589 -151 55 0
-589 -151 87 0
-589 151 -55 -87 0
-589 -152 56 0
-589 -152 88 0
-589 152 -56 -88 0
-589 -153 57 0
-589 -153 89 0
-589 153 -57 -89 0
-589 -154 58 0
-589 -154 90 0
-589 154 -58 -90 0
-589 -155 59 0
-589 -155 91 0
-589 155 -59 -91 0
-589 -156 60 0
-589 -156 92 0
-589 156 -60 -92 0
-589 -157 61 0
-589 -157 93 0
-589 157 -61 -93 0
-589 -158 62 0
-589 -158 94 0
-589 158 -62 -94 0
-589 -159 63 0
-589 -159 95 0
-589 159 -63 -95 0
-589 -160 64 0
-589 -160 96 0
-589 160 -64 -96 0
-590 -129 33 0
-590 -129 -65 0
-590 129 -33 65 0
-590 -130 34 0
-590 -130 -66 0
-590 130 -34 66 0
-590 -131 35 0
-590 -131 -67 0
-590 131 -35 67 0
-590 -132 36 0
-590 -132 -68 0
-590 132 -36 68 0
-590 -133 37 0
-590 -133 -69 0
-590 133 -37 69 0
-590 -134 38 0
-590 -134 -70 0
-590 134 -38 70 0
-590 -135 39 0
-590 -135 -71 0
-590 135 -39 71 0
-590 -136 40 0
-590 -136 -72 0
-590 136 -40 72 0
-590 -137 41 0
-590 -137 -73 0
-590 137 -41 73 0
-590 -138 42 0
-590 -138 -74 0
-590 138 -42 74 0
-590 -139 43 0
-590 -139 -75 0
-590 139 -43 75 0
-590 -140 44 0
-590 -140 -76 0
-590 140 -44 76 0
-590 -141 45 0
-590 -141 -77 0
-590 141 -45 77 0
-590 -142 46 0
-590 -142 -78 0
-590 142 -46 78 0
-590 -143 47 0
-590 -143 -79 0
-590 143 -47 79 0
-590 -144 48 0
-590 -144 -80 0
-590 144 -48 80 0
-590 -145 49 0
-590 -145 -81 0
-590 145 -49 81 0
-590 -146 50 0
-590 -146 -82 0
-590 146 -50 82 0
-590 -147 51 0
-590 -147 -83 0
-590 147 -51 83 0
-590 -148 52 0
-590 -148 -84 0
-590 148 -52 84 0
-590 -149 53 0
-590 -149 -85 0
-590 149 -53 85 0
-590 -150 54 0
-590 -150 -86 0
-590 150 -54 86 0
-590 -151 55 0
-590 -151 -87 0
-590 151 -55 87 0
-590 -152 56 0
-590 -152 -88 0
-590 152 -56 88 0
-590 -153 57 0
-590 -153 -89 0
-590 153 -57 89 0
-590 -154 58 0
-590 -154 -90 0
-590 154 -58 90 0
-590 -155 59 0
-590 -155 -91 0
-590 155 -59 91 0
-590 -156 60 0
-590 -156 -92 0
-590 156 -60 92 0
-590 -157 61 0
-590 -157 -93 0
-590 157 -61 93 0
-590 -158 62 0
-590 -158 -94 0
-590 158 -62 94 0
-590 -159 63 0
-590 -159 -95 0
-590 159 -63 95 0
-590 -160 64 0
-590 -160 -96 0
-590 160 -64 96 0
-591 -129 -33 0
-591 -129 65 0
-591 129 33 -65 0
-591 -130 -34 0
-591 -130 66 0
-591 130 34 -66 0
-591 -131 -35 0
-591 -131 67 0
-591 131 35 -67 0
-591 -132 -36 0
-591 -132 68 0
-591 132 36 -68 0
-591 -133 -37 0
-591 -133 69 0
-591 133 37 -69 0
-591 -134 -38 0
-591 -134 70 0
-591 134 38 -70 0
-591 -135 -39 0
-591 -135 71 0
-591 135 39 -71 0
-591 -136 -40 0
-591 -136 72 0
-591 136 40 -72 0
-591 -137 -41 0
-591 -137 73 0
-591 137 41 -73 0
-591 -138 -42 0
-591 -138 74 0
-591 138 42 -74 0
-591 -139 -43 0
-591 -139 75 0
-591 139 43 -75 0
-591 -140 -44 0
-591 -140 76 0
-591 140 44 -76 0
-591 -141 -45 0
-591 -141 77 0
-591 141 45 -77 0
-591 -142 -46 0
-591 -142 78 0
-591 142 46 -78 0
-591 -143 -47 0
-591 -143 79 0
-591 143 47 -79 0
-591 -144 -48 0
-591 -144 80 0
-591 144 48 -80 0
-591 -145 -49 0
-591 -145 81 0
-591 145 49 -81 0
-591 -146 -50 0
-591 -146 82 0
-591 146 50 -82 0
-591 -147 -51 0
-591 -147 83 0
-591 147 51 -83 0
-591 -148 -52 0
-591 -148 84 0
-591 148 52 -84 0
-591 -149 -53 0
-591 -149 85 0
-591 149 53 -85 0
-591 -150 -54 0
-591 -150 86 0
-591 150 54 -86 0
-591 -151 -55 0
-591 -151 87 0
-591 151 55 -87 0
-591 -152 -56 0
-591 -152 88 0
-591 152 56 -88 0
-591 -153 -57 0
-591 -153 89 0
-591 153 57 -89 0
-591 -154 -58 0
-591 -154 90 0
-591 154 58 -90 0
-591 -155 -59 0
-591 -155 91 0
-591 155 59 -91 0
-591 -156 -60 0
-591 -156 92 0
-591 156 60 -92 0
-591 -157 -61 0
-591 -157 93 0
-591 157 61 -93 0
-591 -158 -62 0
-591 -158 94 0
-591 158 62 -94 0
-591 -159 -63 0
-591 -159 95 0
-591 159 63 -95 0
-591 -160 -64 0
-591 -160 96 0
-591 160 64 -96 0
-592 -129 -33 0
-592 -129 -65 0
-592 129 33 65 0
-592 -130 -34 0
-592 -130 -66 0
-592 130 34 66 0
-592 -131 -35 0
-592 -131 -67 0
-592 131 35 67 0
-592 -132 -36 0
-592 -132 -68 0
-592 132 36 68 0
-592 -133 -37 0
-592 -133 -69 0
-592 133 37 69 0
-592 -134 -38 0
-592 -134 -70 0
-592 134 38 70 0
-592 -135 -39 0
-592 -135 -71 0
-592 135 39 71 0
-592 -136 -40 0
-592 -136 -72 0
-592 136 40 72 0
-592 -137 -41 0
-592 -137 -73 0
-592 137 41 73 0
-592 -138 -42 0
-592 -138 -74 0
-592 138 42 74 0
-592 -139 -43 0
-592 -139 -75 0
-592 139 43 75 0
-592 -140 -44 0
-592 -140 -76 0
-592 140 44 76 0
-592 -141 -45 0
-592 -141 -77 0
-592 141 45 77 0
-592 -142 -46 0
-592 -142 -78 0
-592 142 46 78 0
-592 -143 -47 0
-592 -143 -79 0
-592 143 47 79 0
-592 -144 -48 0
-592 -144 -80 0
-592 144 48 80 0
-592 -145 -49 0
-592 -145 -81 0
-592 145 49 81 0
-592 -146 -50 0
-592 -146 -82 0
-592 146 50 82 0
-592 -147 -51 0
-592 -147 -83 0
-592 147 51 83 0
-592 -148 -52 0
-592 -148 -84 0
-592 148 52 84 0
-592 -149 -53 0
-592 -149 -85 0
-592 149 53 85 0
-592 -150 -54 0
-592 -150 -86 0
-592 150 54 86 0
-592 -151 -55 0
-592 -151 -87 0
-592 151 55 87 0
-592 -152 -56 0
-592 -152 -88 0
-592 152 56 88 0
-592 -153 -57 0
-592 -153 -89 0
-592 153 57 89 0
-592 -154 -58 0
-592 -154 -90 0
-592 154 58 90 0
-592 -155 -59 0
-592 -155 -91 0
-592 155 59 91 0
-592 -156 -60 0
-592 -156 -92 0
-592 156 60 92 0
-592 -157 -61 0
-592 -157 -93 0
-592 157 61 93 0
-592 -158 -62 0
-592 -158 -94 0
-592 158 62 94 0
-592 -159 -63 0
-592 -159 -95 0
-592 159 63 95 0
-592 -160 -64 0
-592 -160 -96 0
-592 160 64 96 0
-593 -129 33 0
-593 -129 97 0
-593 129 -33 -97 0
-593 -130 34 0
-593 -130 98 0
-593 130 -34 -98 0
-593 -131 35 0
-593 -131 99 0
-593 131 -35 -99 0
-593 -132 36 0
-593 -132 100 0
-593 132 -36 -100 0
-593 -133 37 0
-593 -133 101 0
-593 133 -37 -101 0
-593 -134 38 0
-593 -134 102 0
-593 134 -38 -102 0
-593 -135 39 0
-593 -135 103 0
-593 135 -39 -103 0
-593 -136 40 0
-593 -136 104 0
-593 136 -40 -104 0
-593 -137 41 0
-593 -137 105 0
-593 137 -41 -105 0
-593 -138 42 0
-593 -138 106 0
-593 138 -42 -106 0
-593 -139 43 0
-593 -139 107 0
-593 139 -43 -107 0
-593 -140 44 0
-593 -140 108 0
-593 140 -44 -108 0
-593 -141 45 0
-593 -141 109 0
-593 141 -45 -109 0
-593 -142 46 0
-593 -142 110 0
-593 142 -46 -110 0
-593 -143 47 0
-593 -143 111 0
-593 143 -47 -111 0
-593 -144 48 0
-593 -144 112 0
-593 144 -48 -112 0
-593 -145 49 0
-593 -145 113 0
-593 145 -49 -113 0
-593 -146 50 0
-593 -146 114 0
-593 146 -50 -114 0
-593 -147 51 0
-593 -147 115 0
-593 147 -51 -115 0
-593 -148 52 0
-593 -148 116 0
-593 148 -52 -116 0
-593 -149 53 0
-593 -149 117 0
-593 149 -53 -117 0
-593 -150 54 0
-593 -150 118 0
-593 150 -54 -118 0
-593 -151 55 0
-593 -151 119 0
-593 151 -55 -119 0
-593 -152 56 0
-593 -152 120 0
-593 152 -56 -120 0
-593 -153 57 0
-593 -153 121 0
-593 153 -57 -121 0
-593 -154 58 0
-593 -154 122 0
-593 154 -58 -122 0
-593 -155 59 0
-593 -155 123 0
-593 155 -59 -123 0
-593 -156 60 0
-593 -156 124 0
-593 156 -60 -124 0
-593 -157 61 0
-593 -157 125 0
-593 157 -61 -125 0
-593 -158 62 0
-593 -158 126 0
-593 158 -62 -126 0
-593 -159 63 0
-593 -159 127 0
-593 159 -63 -127 0
-593 -160 64 0
-593 -160 128 0
-593 160 -64 -128 0
-594 -129 33 0
-594 -129 -97 0
-594 129 -33 97 0
-594 -130 34 0
-594 -130 -98 0
-594 130 -34 98 0
-594 -131 35 0
-594 -131 -99 0
-594 131 -35 99 0
-594 -132 36 0
-594 -132 -100 0
-594 132 -36 100 0
-594 -133 37 0
-594 -133 -101 0
-594 133 -37 101 0
-594 -134 38 0
-594 -134 -102 0
-594 134 -38 102 0
-594 -135 39 0
-594 -135 -103 0
-594 135 -39 103 0
-594 -136 40 0
-594 -136 -104 0
-594 136 -40 104 0
-594 -137 41 0
-594 -137 -105 0
-594 137 -41 105 0
-594 -138 42 0
-594 -138 -106 0
-594 138 -42 106 0
-594 -139 43 0
-594 -139 -107 0
-594 139 -43 107 0
-594 -140 44 0
-594 -140 -108 0
-594 140 -44 108 0
-594 -141 45 0
-594 -141 -109 0
-594 141 -45 109 0
-594 -142 46 0
-594 -142 -110 0
-594 142 -46 110 0
-594 -143 47 0
-594 -143 -111 0
-594 143 -47 111 0
-594 -144 48 0
-594 -144 -112 0
-594 144 -48 112 0
-594 -145 49 0
-594 -145 -113 0
-594 145 -49 113 0
-594 -146 50 0
-594 -146 -114 0
-594 146 -50 114 0
-594 -147 51 0
-594 -147 -115 0
-594 147 -51 115 0
-594 -148 52 0
-594 -148 -116 0
-594 148 -52 116 0
-594 -149 53 0
-594 -149 -117 0
-594 149 -53 117 0
-594 -150 54 0
-594 -150 -118 0
-594 150 -54 118 0
-594 -151 55 0
-594 -151 -119 0
-594 151 -55 119 0
-594 -152 56 0
-594 -152 -120 0
-594 152 -56 120 0
-594 -153 57 0
-594 -153 -121 0
-594 153 -57 121 0
-594 -154 58 0
-594 -154 -122 0
-594 154 -58 122 0
-594 -155 59 0
-594 -155 -123 0
-594 155 -59 123 0
-594 -156 60 0
-594 -156 -124 0
-594 156 -60 124 0
-594 -157 61 0
-594 -157 -125 0
-594 157 -61 125 0
-594 -158 62 0
-594 -158 -126 0
-594 158 -62 126 0
-594 -159 63 0
-594 -159 -127 0
-594 159 -63 127 0
-594 -160 64 0
-594 -160 -128 0
-594 160 -64 128 0
-595 -129 -33 0
-595 -129 97 0
-595 129 33 -97 0
-595 -130 -34 0
-595 -130 98 0
-595 130 34 -98 0
-595 -131 -35 0
-595 -131 99 0
-595 131 35 -99 0
-595 -132 -36 0
-595 -132 100 0
-595 132 36 -100 0
-595 -133 -37 0
-595 -133 101 0
-595 133 37 -101 0
-595 -134 -38 0
-595 -134 102 0
-595 134 38 -102 0
-595 -135 -39 0
-595 -135 103 0
-595 135 39 -103 0
-595 -136 -40 0
-595 -136 104 0
-595 136 40 -104 0
-595 -137 -41 0
-595 -137 105 0
-595 137 41 -105 0
-595 -138 -42 0
-595 -138 106 0
-595 138 42 -106 0
-595 -139 -43 0
-595 -139 107 0
-595 139 43 -107 0
-595 -140 -44 0
-595 -140 108 0
-595 140 44 -108 0
-595 -141 -45 0
-595 -141 109 0
-595 141 45 -109 0
-595 -142 -46 0
-595 -142 110 0
-595 142 46 -110 0
-595 -143 -47 0
-595 -143 111 0
-595 143 47 -111 0
-595 -144 -48 0
-595 -144 112 0
-595 144 48 -112 0
-595 -145 -49 0
-595 -145 113 0
-595 145 49 -113 0
-595 -146 -50 0
-595 -146 114 0
-595 146 50 -114 0
-595 -147 -51 0
-595 -147 115 0
-595 147 51 -115 0
-595 -148 -52 0
-595 -148 116 0
-595 148 52 -116 0
-595 -149 -53 0
-595 -149 117 0
-595 149 53 -117 0
-595 -150 -54 0
-595 -150 118 0
-595 150 54 -118 0
-595 -151 -55 0
-595 -151 119 0
-595 151 55 -119 0
-595 -152 -56 0
-595 -152 120 0
-595 152 56 -120 0
-595 -153 -57 0
-595 -153 121 0
-595 153 57 -121 0
-595 -154 -58 0
-595 -154 122 0
-595 154 58 -122 0
-595 -155 -59 0
-595 -155 123 0
-595 155 59 -123 0
-595 -156 -60 0
-595 -156 124 0
-595 156 60 -124 0
-595 -157 -61 0
-595 -157 125 0
-595 157 61 -125 0
-595 -158 -62 0
-595 -158 126 0
-595 158 62 -126 0
-595 -159 -63 0
-595 -159 127 0
-595 159 63 -127 0
-595 -160 -64 0
-595 -160 128 0
-595 160 64 -128 0
-596 -129 -33 0
-596 -129 -97 0
-596 129 33 97 0
-596 -130 -34 0
-596 -130 -98 0
-596 130 34 98 0
-596 -131 -35 0
-596 -131 -99 0
-596 131 35 99 0
-596 -132 -36 0
-596 -132 -100 0
-596 132 36 100 0
-596 -133 -37 0
-596 -133 -101 0
-596 133 37 101 0
-596 -134 -38 0
-596 -134 -102 0
-596 134 38 102 0
-596 -135 -39 0
-596 -135 -103 0
-596 135 39 103 0
-596 -136 -40 0
-596 -136 -104 0
-596 136 40 104 0
-596 -137 -41 0
-596 -137 -105 0
-596 137 41 105 0
-596 -138 -42 0
-596 -138 -106 0
-596 138 42 106 0
-596 -139 -43 0
-596 -139 -107 0
-596 139 43 107 0
-596 -140 -44 0
-596 -140 -108 0
-596 140 44 108 0
-596 -141 -45 0
-596 -141 -109 0
-596 141 45 109 0
-596 -142 -46 0
-596 -142 -110 0
-596 142 46 110 0
-596 -143 -47 0
-596 -143 -111 0
-596 143 47 111 0
-596 -144 -48 0
-596 -144 -112 0
-596 144 48 112 0
-596 -145 -49 0
-596 -145 -113 0
-596 145 49 113 0
-596 -146 -50 0
-596 -146 -114 0
-596 146 50 114 0
-596 -147 -51 0
-596 -147 -115 0
-596 147 51 115 0
-596 -148 -52 0
-596 -148 -116 0
-596 148 52 116 0
-596 -149 -53 0
-596 -149 -117 0
-596 149 53 117 0
-596 -150 -54 0
-596 -150 -118 0
-596 150 54 118 0
-596 -151 -55 0
-596 -151 -119 0
-596 151 55 119 0
-596 -152 -56 0
-596 -152 -120 0
-596 152 56 120 0
-596 -153 -57 0
-596 -153 -121 0
-596 153 57 121 0
-596 -154 -58 0
-596 -154 -122 0
-596 154 58 122 0
-596 -155 -59 0
-596 -155 -123 0
-596 155 59 123 0
-596 -156 -60 0
-596 -156 -124 0
-596 156 60 124 0
-596 -157 -61 0
-596 -157 -125 0
-596 157 61 125 0
-596 -158 -62 0
-596 -158 -126 0
-596 158 62 126 0
-596 -159 -63 0
-596 -159 -127 0
-596 159 63 127 0
-596 -160 -64 0
-596 -160 -128 0
-596 160 64 128 0
-597 -129 65 0
-597 -129 97 0
-597 129 -65 -97 0
-597 -130 66 0
-597 -130 98 0
-597 130 -66 -98 0
-597 -131 67 0
-597 -131 99 0
-597 131 -67 -99 0
-597 -132 68 0
-597 -132 100 0
-597 132 -68 -100 0
-597 -133 69 0
-597 -133 101 0
-597 133 -69 -101 0
-597 -134 70 0
-597 -134 102 0
-597 134 -70 -102 0
-597 -135 71 0
-597 -135 103 0
-597 135 -71 -103 0
-597 -136 72 0
-597 -136 104 0
-597 136 -72 -104 0
-597 -137 73 0
-597 -137 105 0
-597 137 -73 -105 0
-597 -138 74 0
-597 -138 106 0
-597 138 -74 -106 0
-597 -139 75 0
-597 -139 107 0
-597 139 -75 -107 0
-597 -140 76 0
-597 -140 108 0
-597 140 -76 -108 0
-597 -141 77 0
-597 -141 109 0
-597 141 -77 -109 0
-597 -142 78 0
-597 -142 110 0
-597 142 -78 -110 0
-597 -143 79 0
-597 -143 111 0
-597 143 -79 -111 0
-597 -144 80 0
-597 -144 112 0
-597 144 -80 -112 0
-597 -145 81 0
-597 -145 113 0
-597 145 -81 -113 0
-597 -146 82 0
-597 -146 114 0
-597 146 -82 -114 0
-597 -147 83 0
-597 -147 115 0
-597 147 -83 -115 0
-597 -148 84 0
-597 -148 116 0
-597 148 -84 -116 0
-597 -149 85 0
-597 -149 117 0
-597 149 -85 -117 0
-597 -150 86 0
-597 -150 118 0
-597 150 -86 -118 0
-597 -151 87 0
-597 -151 119 0
-597 151 -87 -119 0
-597 -152 88 0
-597 -152 120 0
-597 152 -88 -120 0
-597 -153 89 0
-597 -153 121 0
-597 153 -89 -121 0
-597 -154 90 0
-597 -154 122 0
-597 154 -90 -122 0
-597 -155 91 0
-597 -155 123 0
-597 155 -91 -123 0
-597 -156 92 0
-597 -156 124 0
-597 156 -92 -124 0
-597 -157 93 0
-597 -157 125 0
-597 157 -93 -125 0
-597 -158 94 0
-597 -158 126 0
-597 158 -94 -126 0
-597 -159 95 0
-597 -159 127 0
-597 159 -95 -127 0
-597 -160 96 0
-597 -160 128 0
-597 160 -96 -128 0
-598 -129 65 0
-598 -129 -97 0
-598 129 -65 97 0
-598 -130 66 0
-598 -130 -98 0
-598 130 -66 98 0
-598 -131 67 0
-598 -131 -99 0
-598 131 -67 99 0
-598 -132 68 0
-598 -132 -100 0
-598 132 -68 100 0
-598 -133 69 0
-598 -133 -101 0
-598 133 -69 101 0
-598 -134 70 0
-598 -134 -102 0
-598 134 -70 102 0
-598 -135 71 0
-598 -135 -103 0
-598 135 -71 103 0
-598 -136 72 0
-598 -136 -104 0
-598 136 -72 104 0
-598 -137 73 0
-598 -137 -105 0
-598 137 -73 105 0
-598 -138 74 0
-598 -138 -106 0
-598 138 -74 106 0
-598 -139 75 0
-598 -139 -107 0
-598 139 -75 107 0
-598 -140 76 0
-598 -140 -108 0
-598 140 -76 108 0
-598 -141 77 0
-598 -141 -109 0
-598 141 -77 109 0
-598 -142 78 0
-598 -142 -110 0
-598 142 -78 110 0
-598 -143 79 0
-598 -143 -111 0
-598 143 -79 111 0
-598 -144 80 0
-598 -144 -112 0
-598 144 -80 112 0
-598 -145 81 0
-598 -145 -113 0
-598 145 -81 113 0
-598 -146 82 0
-598 -146 -114 0
-598 146 -82 114 0
-598 -147 83 0
-598 -147 -115 0
-598 147 -83 115 0
-598 -148 84 0
-598 -148 -116 0
-598 148 -84 116 0
-598 -149 85 0
-598 -149 -117 0
-598 149 -85 117 0
-598 -150 86 0
-598 -150 -118 0
-598 150 -86 118 0
-598 -151 87 0
-598 -151 -119 0
-598 151 -87 119 0
-598 -152 88 0
-598 -152 -120 0
-598 152 -88 120 0
-598 -153 89 0
-598 -153 -121 0
-598 153 -89 121 0
-598 -154 90 0
-598 -154 -122 0
-598 154 -90 122 0
-598 -155 91 0
-598 -155 -123 0
-598 155 -91 123 0
-598 -156 92 0
-598 -156 -124 0
-598 156 -92 124 0
-598 -157 93 0
-598 -157 -125 0
-598 157 -93 125 0
-598 -158 94 0
-598 -158 -126 0
-598 158 -94 126 0
-598 -159 95 0
-598 -159 -127 0
-598 159 -95 127 0
-598 -160 96 0
-598 -160 -128 0
-598 160 -96 128 0
-599 -129 -65 0
-599 -129 97 0
-599 129 65 -97 0
-599 -130 -66 0
-599 -130 98 0
-599 130 66 -98 0
-599 -131 -67 0
-599 -131 99 0
-599 131 67 -99 0
-599 -132 -68 0
-599 -132 100 0
-599 132 68 -100 0
-599 -133 -69 0
-599 -133 101 0
-599 133 69 -101 0
-599 -134 -70 0
-599 -134 102 0
-599 134 70 -102 0
-599 -135 -71 0
-599 -135 103 0
-599 135 71 -103 0
-599 -136 -72 0
-599 -136 104 0
-599 136 72 -104 0
-599 -137 -73 0
-599 -137 105 0
-599 137 73 -105 0
-599 -138 -74 0
-599 -138 106 0
-599 138 74 -106 0
-599 -139 -75 0
-599 -139 107 0
-599 139 75 -107 0
-599 -140 -76 0
-599 -140 108 0
-599 140 76 -108 0
-599 -141 -77 0
-599 -141 109 0
-599 141 77 -109 0
-599 -142 -78 0
-599 -142 110 0
-599 142 78 -110 0
-599 -143 -79 0
-599 -143 111 0
-599 143 79 -111 0
-599 -144 -80 0
-599 -144 112 0
-599 144 80 -112 0
-599 -145 -81 0
-599 -145 113 0
-599 145 81 -113 0
-599 -146 -82 0
-599 -146 114 0
-599 146 82 -114 0
-599 -147 -83 0
-599 -147 115 0
-599 147 83 -115 0
-599 -148 -84 0
-599 -148 116 0
-599 148 84 -116 0
-599 -149 -85 0
-599 -149 117 0
-599 149 85 -117 0
-599 -150 -86 0
-599 -150 118 0
-599 150 86 -118 0
-599 -151 -87 0
-599 -151 119 0
-599 151 87 -119 0
-599 -152 -88 0
-599 -152 120 0
-599 152 88 -120 0
-599 -153 -89 0
-599 -153 121 0
-599 153 89 -121 0
-599 -154 -90 0
-599 -154 122 0
-599 154 90 -122 0
-599 -155 -91 0
-599 -155 123 0
-599 155 91 -123 0
-599 -156 -92 0
-599 -156 124 0
-599 156 92 -124 0
-599 -157 -93 0
-599 -157 125 0
-599 157 93 -125 0
-599 -158 -94 0
-599 -158 126 0
-599 158 94 -126 0
-599 -159 -95 0
-599 -159 127 0
-599 159 95 -127 0
-599 -160 -96 0
-599 -160 128 0
-599 160 96 -128 0
-600 -129 -65 0
-600 -129 -97 0
-600 129 65 97 0
-600 -130 -66 0
-600 -130 -98 0
-600 130 66 98 0
-600 -131 -67 0
-600 -131 -99 0
-600 131 67 99 0
-600 -132 -68 0
-600 -132 -100 0
-600 132 68 100 0
-600 -133 -69 0
-600 -133 -101 0
-600 133 69 101 0
-600 -134 -70 0
-600 -134 -102 0
-600 134 70 102 0
-600 -135 -71 0
-600 -135 -103 0
-600 135 71 103 0
-600 -136 -72 0
-600 -136 -104 0
-600 136 72 104 0
-600 -137 -73 0
-600 -137 -105 0
-600 137 73 105 0
-600 -138 -74 0
-600 -138 -106 0
-600 138 74 106 0
-600 -139 -75 0
-600 -139 -107 0
-600 139 75 107 0
-600 -140 -76 0
-600 -140 -108 0
-600 140 76 108 0
-600 -141 -77 0
-600 -141 -109 0
-600 141 77 109 0
-600 -142 -78 0
-600 -142 -110 0
-600 142 78 110 0
-600 -143 -79 0
-600 -143 -111 0
-600 143 79 111 0
-600 -144 -80 0
-600 -144 -112 0
-600 144 80 112 0
-600 -145 -81 0
-600 -145 -113 0
-600 145 81 113 0
-600 -146 -82 0
-600 -146 -114 0
-600 146 82 114 0
-600 -147 -83 0
-600 -147 -115 0
-600 147 83 115 0
-600 -148 -84 0
-600 -148 -116 0
-600 148 84 116 0
-600 -149 -85 0
-600 -149 -117 0
-600 149 85 117 0
-600 -150 -86 0
-600 -150 -118 0
-600 150 86 118 0
-600 -151 -87 0
-600 -151 -119 0
-600 151 87 119 0
-600 -152 -88 0
-600 -152 -120 0
-600 152 88 120 0
-600 -153 -89 0
-600 -153 -121 0
-600 153 89 121 0
-600 -154 -90 0
-600 -154 -122 0
-600 154 90 122 0
-600 -155 -91 0
-600 -155 -123 0
-600 155 91 123 0
-600 -156 -92 0
-600 -156 -124 0
-600 156 92 124 0
-600 -157 -93 0
-600 -157 -125 0
-600 157 93 125 0
-600 -158 -94 0
-600 -158 -126 0
-600 158 94 126 0
-600 -159 -95 0
-600 -159 -127 0
-600 159 95 127 0
-600 -160 -96 0
-600 -160 -128 0
-600 160 96 128 0
-161 -201 0
-161 -261 0
-161 -345 0
-161 -457 0
-201 -261 0
-201 -345 0
-201 -457 0
-261 -345 0
-261 -457 0
-345 -457 0
-162 -202 0
-162 -262 0
-162 -346 0
-162 -458 0
-202 -262 0
-202 -346 0
-202 -458 0
-262 -346 0
-262 -458 0
-346 -458 0
-163 -203 0
-163 -263 0
-163 -347 0
-163 -459 0
-203 -263 0
-203 -347 0
-203 -459 0
-263 -347 0
-263 -459 0
-347 -459 0
-164 -204 0
-164 -264 0
-164 -348 0
-164 -460 0
-204 -264 0
-204 -348 0
-204 -460 0
-264 -348 0
-264 -460 0
-348 -460 0
-165 -205 0
-165 -265 0
-165 -349 0
-165 -461 0
-205 -265 0
-205 -349 0
-205 -461 0
-265 -349 0
-265 -461 0
-349 -461 0
-166 -206 0
-166 -266 0
-166 -350 0
-166 -462 0
-206 -266 0
-206 -350 0
-206 -462 0
-266 -350 0
-266 -462 0
-350 -462 0
-167 -207 0
-167 -267 0
-167 -351 0
-167 -463 0
-207 -267 0
-207 -351 0
-207 -463 0
-267 -351 0
-267 -463 0
-351 -463 0
-168 -208 0
-168 -268 0
-168 -352 0
-168 -464 0
-208 -268 0
-208 -352 0
-208 -464 0
-268 -352 0
-268 -464 0
-352 -464 0
-169 -209 0
-169 -269 0
-169 -353 0
-169 -465 0
-209 -269 0
-209 -353 0
-209 -465 0
-269 -353 0
-269 -465 0
-353 -465 0
-170 -210 0
-170 -270 0
-170 -354 0
-170 -466 0
-210 -270 0
-210 -354 0
-210 -466 0
-270 -354 0
-270 -466 0
-354 -466 0
-171 -211 0
-171 -271 0
-171 -355 0
-171 -467 0
-211 -271 0
-211 -355 0
-211 -467 0
-271 -355 0
-271 -467 0
-355 -467 0
-172 -212 0
-172 -272 0
-172 -356 0
-172 -468 0
-212 -272 0
-212 -356 0
-212 -468 0
-272 -356 0
-272 -468 0
-356 -468 0
-173 -213 0
-173 -273 0
-173 -357 0
-173 -469 0
-213 -273 0
-213 -357 0
-213 -469 0
-273 -357 0
-273 -469 0
-357 -469 0
-174 -214 0
-174 -274 0
-174 -358 0
-174 -470 0
-214 -274 0
-214 -358 0
-214 -470 0
-274 -358 0
-274 -470 0
-358 -470 0
-175 -215 0
-175 -275 0
-175 -359 0
-175 -471 0
-215 -275 0
-215 -359 0
-215 -471 0
-275 -359 0
-275 -471 0
-359 -471 0
-176 -216 0
-176 -276 0
-176 -360 0
-176 -472 0
-216 -276 0
-216 -360 0
-216 -472 0
-276 -360 0
-276 -472 0
-360 -472 0
-177 -221 0
-177 -285 0
-177 -373 0
-177 -489 0
-221 -285 0
-221 -373 0
-221 -489 0
-285 -373 0
-285 -489 0
-373 -489 0
-178 -222 0
-178 -286 0
-178 -374 0
-178 -490 0
-222 -286 0
-222 -374 0
-222 -490 0
-286 -374 0
-286 -490 0
-374 -490 0
-179 -223 0
-179 -287 0
-179 -375 0
-179 -491 0
-223 -287 0
-223 -375 0
-223 -491 0
-287 -375 0
-287 -491 0
-375 -491 0
-180 -224 0
-180 -288 0
-180 -376 0
-180 -492 0
-224 -288 0
-224 -376 0
-224 -492 0
-288 -376 0
-288 -492 0
-376 -492 0
-181 -225 0
-181 -289 0
-181 -377 0
-181 -493 0
-225 -289 0
-225 -377 0
-225 -493 0
-289 -377 0
-289 -493 0
-377 -493 0
-182 -226 0
-182 -290 0
-182 -378 0
-182 -494 0
-226 -290 0
-226 -378 0
-226 -494 0
-290 -378 0
-290 -494 0
-378 -494 0
-183 -227 0
-183 -291 0
-183 -379 0
-183 -495 0
-227 -291 0
-227 -379 0
-227 -495 0
-291 -379 0
-291 -495 0
-379 -495 0
-184 -228 0
-184 -292 0
-184 -380 0
-184 -496 0
-228 -292 0
-228 -380 0
-228 -496 0
-292 -380 0
-292 -496 0
-380 -496 0
-185 -229 0
-185 -293 0
-185 -381 0
-185 -497 0
-229 -293 0
-229 -381 0
-229 -497 0
-293 -381 0
-293 -497 0
-381 -497 0
-186 -230 0
-186 -294 0
-186 -382 0
-186 -498 0
-230 -294 0
-230 -382 0
-230 -498 0
-294 -382 0
-294 -498 0
-382 -498 0
-187 -231 0
-187 -295 0
-187 -383 0
-187 -499 0
-231 -295 0
-231 -383 0
-231 -499 0
-295 -383 0
-295 -499 0
-383 -499 0
-188 -232 0
-188 -296 0
-188 -384 0
-188 -500 0
-232 -296 0
-232 -384 0
-232 -500 0
-296 -384 0
-296 -500 0
-384 -500 0
-189 -237 0
-189 -305 0
-189 -397 0
-189 -517 0
-237 -305 0
-237 -397 0
-237 -517 0
-305 -397 0
-305 -517 0
-397 -517 0
-190 -238 0
-190 -306 0
-190 -398 0
-190 -518 0
-238 -306 0
-238 -398 0
-238 -518 0
-306 -398 0
-306 -518 0
-398 -518 0
-191 -239 0
-191 -307 0
-191 -399 0
-191 -519 0
-239 -307 0
-239 -399 0
-239 -519 0
-307 -399 0
-307 -519 0
-399 -519 0
-192 -240 0
-192 -308 0
-192 -400 0
-192 -520 0
-240 -308 0
-240 -400 0
-240 -520 0
-308 -400 0
-308 -520 0
-400 -520 0
-193 -241 0
-193 -309 0
-193 -401 0
-193 -521 0
-241 -309 0
-241 -401 0
-241 -521 0
-309 -401 0
-309 -521 0
-401 -521 0
-194 -242 0
-194 -310 0
-194 -402 0
-194 -522 0
-242 -310 0
-242 -402 0
-242 -522 0
-310 -402 0
-310 -522 0
-402 -522 0
-195 -243 0
-195 -311 0
-195 -403 0
-195 -523 0
-243 -311 0
-243 -403 0
-243 -523 0
-311 -403 0
-311 -523 0
-403 -523 0
-196 -244 0
-196 -312 0
-196 -404 0
-196 -524 0
-244 -312 0
-244 -404 0
-244 -524 0
-312 -404 0
-312 -524 0
-404 -524 0
-197 -249 0
-197 -321 0
-197 -417 0
-197 -541 0
-249 -321 0
-249 -417 0
-249 -541 0
-321 -417 0
-321 -541 0
-417 -541 0
-198 -250 0
-198 -322 0
-198 -418 0
-198 -542 0
-250 -322 0
-250 -418 0
-250 -542 0
-322 -418 0
-322 -542 0
-418 -542 0
-199 -251 0
-199 -323 0
-199 -419 0
-199 -543 0
-251 -323 0
-251 -419 0
-251 -543 0
-323 -419 0
-323 -543 0
-419 -543 0
-200 -252 0
-200 -324 0
-200 -420 0
-200 -544 0
-252 -324 0
-252 -420 0
-252 -544 0
-324 -420 0
-324 -544 0
-420 -544 0
-217 -277 0
-217 -361 0
-217 -473 0
-277 -361 0
-277 -473 0
-361 -473 0
-218 -278 0
-218 -362 0
-218 -474 0
-278 -362 0
-278 -474 0
-362 -474 0
-219 -279 0
-219 -363 0
-219 -475 0
-279 -363 0
-279 -475 0
-363 -475 0
-220 -280 0
-220 -364 0
-220 -476 0
-280 -364 0
-280 -476 0
-364 -476 0
-233 -297 0
-233 -385 0
-233 -501 0
-297 -385 0
-297 -501 0
-385 -501 0
-234 -298 0
-234 -386 0
-234 -502 0
-298 -386 0
-298 -502 0
-386 -502 0
-235 -299 0
-235 -387 0
-235 -503 0
-299 -387 0
-299 -503 0
-387 -503 0
-236 -300 0
-236 -388 0
-236 -504 0
-300 -388 0
-300 -504 0
-388 -504 0
-245 -313 0
-245 -405 0
-245 -525 0
-313 -405 0
-313 -525 0
-405 -525 0
-246 -314 0
-246 -406 0
-246 -526 0
-314 -406 0
-314 -526 0
-406 -526 0
-247 -315 0
-247 -407 0
-247 -527 0
-315 -407 0
-315 -527 0
-407 -527 0
-248 -316 0
-248 -408 0
-248 -528 0
-316 -408 0
-316 -528 0
-408 -528 0
-253 -325 0
-253 -421 0
-253 -545 0
-325 -421 0
-325 -545 0
-421 -545 0
-254 -326 0
-254 -422 0
-254 -546 0
-326 -422 0
-326 -546 0
-422 -546 0
-255 -327 0
-255 -423 0
-255 -547 0
-327 -423 0
-327 -547 0
-423 -547 0
-256 -328 0
-256 -424 0
-256 -548 0
-328 -424 0
-328 -548 0
-424 -548 0
-257 -333 0
-257 -433 0
-257 -561 0
-333 -433 0
-333 -561 0
-433 -561 0
-258 -334 0
-258 -434 0
-258 -562 0
-334 -434 0
-334 -562 0
-434 -562 0
-259 -335 0
-259 -435 0
-259 -563 0
-335 -435 0
-335 -563 0
-435 -563 0
-260 -336 0
-260 -436 0
-260 -564 0
-336 -436 0
-336 -564 0
-436 -564 0
-281 -365 0
-281 -477 0
-365 -477 0
-282 -366 0
-282 -478 0
-366 -478 0
-283 -367 0
-283 -479 0
-367 -479 0
-284 -368 0
-284 -480 0
-368 -480 0
-301 -389 0
-301 -505 0
-389 -505 0
-302 -390 0
-302 -506 0
-390 -506 0
-303 -391 0
-303 -507 0
-391 -507 0
-304 -392 0
-304 -508 0
-392 -508 0
-317 -409 0
-317 -529 0
-409 -529 0
-318 -410 0
-318 -530 0
-410 -530 0
-319 -411 0
-319 -531 0
-411 -531 0
-320 -412 0
-320 -532 0
-412 -532 0
-329 -425 0
-329 -549 0
-425 -549 0
-330 -426 0
-330 -550 0
-426 -550 0
-331 -427 0
-331 -551 0
-427 -551 0
-332 -428 0
-332 -552 0
-428 -552 0
-337 -437 0
-337 -565 0
-437 -565 0
-338 -438 0
-338 -566 0
-438 -566 0
-339 -439 0
-339 -567 0
-439 -567 0
-340 -440 0
-340 -568 0
-440 -568 0
-341 -445 0
-341 -577 0
-445 -577 0
-342 -446 0
-342 -578 0
-446 -578 0
-343 -447 0
-343 -579 0
-447 -579 0
-344 -448 0
-344 -580 0
-448 -580 0
-369 -481 0
-370 -482 0
-371 -483 0
-372 -484 0
-393 -509 0
-394 -510 0
-395 -511 0
-396 -512 0
-413 -533 0
-414 -534 0
-415 -535 0
-416 -536 0
-429 -553 0
-430 -554 0
-431 -555 0
-432 -556 0
-441 -569 0
-442 -570 0
-443 -571 0
-444 -572 0
-449 -581 0
-450 -582 0
-451 -583 0
-452 -584 0
-453 -589 0
-454 -590 0
-455 -591 0
-456 -592 0
217 218 219 220 233 234 235 236 245 246 247 248 253 254 255 256 257 258 259 260 277 278 279 280 297 298 299 300 313 314 315 316 325 326 327 328 333 334 335 336 341 342 343 344 361 362 363 364 385 386 387 388 405 406 407 408 421 422 423 424 433 434 435 436 445 446 447 448 449 450 451 452 473 474 475 476 501 502 503 504 525 526 527 528 545 546 547 548 561 562 563 564 577 578 579 580 581 582 583 584 585 586 587 588 0
281 282 283 284 301 302 303 304 317 318 319 320 329 330 331 332 337 338 339 340 341 342 343 344 365 366 367 368 389 390 391 392 409 410 411 412 425 426 427 428 437 438 439 440 445 446 447 448 453 454 455 456 477 478 479 480 505 506 507 508 529 530 531 532 549 550 551 552 565 566 567 568 577 578 579 580 589 590 591 592 593 594 595 596 0
369 370 371 372 393 394 395 396 413 414 415 416 429 430 431 432 441 442 443 444 449 450 451 452 453 454 455 456 481 482 483 484 509 510 511 512 533 534 535 536 553 554 555 556 569 570 571 572 581 582 583 584 589 590 591 592 597 598 599 600 0
485 486 487 488 513 514 515 516 537 538 539 540 557 558 559 560 573 574 575 576 585 586 587 588 593 594 595 596 597 598 599 600 0
601 -129 0
-601 129 0
601 -130 0
-601 130 0
601 131 0
-601 -131 0
601 -132 0
-601 132 0
601 133 0
-601 -133 0
601 -134 0
-601 134 0
601 135 0
-601 -135 0
601 -136 0
-601 136 0
601 137 0
-601 -137 0
601 -138 0
-601 138 0
601 -139 0
-601 139 0
601 -140 0
-601 140 0
601 -141 0
-601 141 0
601 -142 0
-601 142 0
601 -143 0
-601 143 0
601 -144 0
-601 144 0
601 -145 0
-601 145 0
601 146 0
-601 -146 0
601 147 0
-601 -147 0
601 148 0
-601 -148 0
601 149 0
-601 -149 0
601 -150 0
-601 150 0
601 151 0
-601 -151 0
601 152 0
-601 -152 0
601 153 0
-601 -153 0
601 154 0
-601 -154 0
601 -155 0
-601 155 0
601 -156 0
-601 156 0
601 -157 0
-601 157 0
601 -158 0
-601 158 0
601 -159 0
-601 159 0
601 -160 0
-601 160 0
